47
Refcode: ABIVAK_comp_0 | Dataset: tmPHOTO | Charge: unknown | Potential Spins: [1, 3, 5]
Fe    -12.874600   -25.400000     9.869400
S     -10.013300   -29.117100     8.740200
S     -11.093100   -25.308100    14.385400
N     -14.779300   -26.339500    10.375400
N     -13.479600   -25.151800     7.775500
N     -11.611200   -23.630300     9.373200
N     -14.325500   -23.668900     9.997700
N     -11.688900   -27.056700     9.432500
N     -12.287500   -25.196100    11.862900
C     -15.187300   -27.586800    10.235000
H     -14.586800   -28.183700     9.848900
C     -16.388100   -28.078300    10.595700
H     -16.582400   -28.980600    10.481900
C     -17.343500   -27.211200    11.148800
H     -18.180600   -27.513100    11.418700
C     -16.979700   -25.887700    11.269800
H     -17.599600   -25.273300    11.593000
C     -15.690600   -25.441800    10.915200
C     -15.277300   -24.044600    11.068900
H     -14.857000   -23.921700    11.934300
H     -16.056100   -23.468800    11.027800
C     -12.949800   -25.719200     6.751500
H     -12.420000   -26.470500     6.887100
C     -13.137000   -25.259300     5.437000
H     -12.714900   -25.701600     4.736200
C     -13.891000   -24.216600     5.175600
H     -14.021700   -23.914700     4.305300
C     -14.463200   -23.609300     6.222600
H     -15.014200   -22.875500     6.067600
C     -14.260100   -24.044600     7.570900
C     -14.955900   -23.458300     8.720800
H     -15.038900   -22.503400     8.575500
H     -15.853000   -23.826900     8.757100
C     -10.479200   -23.630300     8.761900
H     -10.097800   -24.451800     8.552500
C      -9.797500   -22.496400     8.397600
H      -8.987000   -22.528000     7.942500
C     -10.403300   -21.288700     8.758300
H      -9.961800   -20.488300     8.588900
C     -11.595300   -21.260600     9.334500
H     -12.017400   -20.453200     9.514800
C     -12.202800   -22.468300     9.666100
C     -13.499000   -22.510400    10.388700
H     -13.329500   -22.549000    11.342500
H     -13.989900   -21.695900    10.205900
C     -10.968400   -27.906300     9.138400
C     -11.821300   -25.203100    12.929300
