145
Refcode: ALOJUI_comp_0 | Dataset: tmPHOTO | Charge: 0 | Potential Spins: [1, 3, 5]
Zn     18.199800    17.488800    13.600100
O      14.702800    16.502100    22.097000
O      21.951400    12.730300     6.492200
O      16.158200    12.014700    22.670500
O      21.015200     8.125700     7.068500
N      19.483200    16.452500    14.690900
N      16.867400    16.035000    13.477000
N      17.852200    19.229600    14.477400
N      18.679600    18.289600    11.864100
C      18.141700    14.375400    14.827600
C      15.769300    16.014200    12.727700
C      20.195800    14.932800    16.263400
C      17.074400    14.719700    13.965300
C      17.281900    22.594300    11.446900
C      19.266500    19.839000    10.263700
C      18.399400    20.658300    12.549100
C      19.631100    21.080600     9.496300
C      18.776100    19.665400    11.619900
C      17.976200    20.482700    13.877400
C      20.122700    13.535700     8.345200
C      20.355300    13.768600    17.206600
C      19.431700    18.582900     9.748800
C      17.343100    23.875200    10.883200
C      15.216300    14.716200    12.697000
C      19.783500     9.756400     8.428900
C      19.067100    17.647800    10.747800
C      18.152500    12.951500    15.327100
C      18.934700    12.005100    14.676900
C      16.464800    13.573700    17.115900
C      19.075600    16.204900    10.658500
C      20.849500    22.253100    12.737500
C      19.592000    14.107700     9.430700
C      18.437800    22.062700    12.020300
C      17.471200    19.416800    15.762500
C      18.262600    10.327000    16.305200
C      16.013300    13.902200    13.464400
C      17.320300    20.802900    16.013600
C      21.284200    11.719900     7.102000
C      17.478700    11.282800    16.926100
C      16.000700    21.797100    11.407800
C      17.391400    12.586400    16.444800
C      19.713800    12.370700    13.428200
C      20.556500    16.951100    15.314600
C      16.858500    18.293600    17.907000
C      17.623600    22.983600    14.764800
C      17.296300    14.659300    20.394800
C      19.614000    22.819600    12.083100
C      18.341600     8.912500    16.842400
C      16.410600    15.686000    20.700400
C      15.516800    15.456400    21.780300
C      19.535200    15.537200     9.575800
C      19.205000    15.184800    15.239200
C      17.632900    21.484400    14.866700
C      15.730500    12.426900    13.672300
C      22.821500    12.385700     5.402500
C      16.867600    17.079700    18.702300
C      17.277300    13.419900    21.032400
C      18.980100    10.706300    15.177800
C      16.340400    16.928800    19.923200
C      13.895200    16.371000    23.266300
C      19.629800    24.075500    11.508300
C      19.599100    11.096900     8.691200
C      15.473900    14.226900    22.409600
C      20.734100     9.403200     7.481500
C      15.239800    17.242700    12.059400
C      21.010100    16.040200    16.287100
C      20.312800    12.115900     8.073100
C      17.341700    18.289500    16.644300
C      21.137400    18.287600    14.975500
C      18.496900    24.621700    10.894300
C      18.534400    25.997300    10.255300
C      16.318900    13.204200    22.017500
C      21.490800    10.386000     6.828500
C      16.960600    10.915600    22.210100
C      20.127000     7.119200     7.457800
H      19.912900    20.833600     8.590700
H      20.367400    21.541900     9.952500
H      18.853900    21.674900     9.447400
H      20.413100    14.130700     7.664300
H      20.253900    14.081900    18.130300
H      21.245700    13.374500    17.092200
H      19.671200    13.094000    17.012600
H      19.735400    18.373900     8.872600
H      16.562900    24.239400    10.479900
H      14.432400    14.450800    12.228200
H      19.276200     9.093900     8.883700
H      16.726600    13.682800    18.053500
H      15.544800    13.240100    17.069800
H      16.521500    14.439400    16.658200
H      18.741600    15.703900    11.393900
H      21.129200    22.839200    13.470000
H      21.568900    22.189700    12.074700
H      20.651500    21.360800    13.090500
H      19.244100    13.557600    10.122800
H      17.050000    21.192200    16.836800
H      16.988100    11.044400    17.703300
H      15.721000    21.580600    12.321700
H      16.145000    20.967700    10.905500
H      15.299600    22.324600    10.969700
H      20.347100    13.088100    13.637500
H      19.091800    12.674900    12.733300
H      20.203600    11.585400    13.107300
H      16.512300    19.095900    18.276800
H      18.487400    23.293300    14.420200
H      17.467800    23.369500    15.652200
H      16.909100    23.265100    14.155100
H      17.948500    14.810500    19.719500
H      17.447500     8.511700    16.839600
H      18.688100     8.929000    17.759100
H      18.939200     8.380900    16.277300
H      19.849300    16.059500     8.847500
H      16.506600    11.902500    13.383500
H      14.946500    12.167200    13.144900
H      15.556700    12.258100    14.621100
H      22.302000    11.950300     4.695100
H      23.517800    11.774700     5.722000
H      23.238200    13.200200     5.048100
H      17.286000    16.318000    18.318600
H      17.899500    12.741700    20.800800
H      19.515800    10.060600    14.734100
H      15.895700    17.672500    20.311100
H      14.463800    16.155300    24.033700
H      13.240900    15.653600    23.132300
H      13.424500    17.214900    23.435100
H      20.432300    24.582700    11.529200
H      18.941400    11.338900     9.333000
H      14.858000    14.083000    23.118400
H      15.988800    17.798000    11.758000
H      14.693100    17.749200    12.695600
H      14.691200    16.985900    11.289200
H      21.754000    16.169100    16.863300
H      17.626600    17.450400    16.302400
H      20.462800    18.983500    15.126200
H      21.409400    18.295600    14.033700
H      21.916400    18.458100    15.543400
H      17.875900    26.578100    10.689200
H      18.322000    25.919800     9.300900
H      19.428900    26.382500    10.359900
H      22.147800    10.130600     6.192200
H      17.909600    11.143300    22.299400
H      16.756400    10.734100    21.268200
H      16.764000    10.119300    22.745800
H      20.137400     7.036900     8.434500
H      20.401300     6.269800     7.055900
H      19.223500     7.347600     7.157800
