68
Refcode: AQENAN_comp_0 | Dataset: tmPHOTO | Charge: 0 | Potential Spins: [1, 3, 5]
C       2.559000     0.428800    -4.548500
C       3.780500    -0.351600    -4.301600
H       4.011400    -0.854500    -5.123300
H       3.600600    -1.011000    -3.585500
C       4.961000     0.494600    -3.900000
H       4.980700     1.283300    -4.498700
H       5.781000    -0.029500    -4.085100
C       2.389900     1.487400    -1.682200
C       0.967100     1.234900    -1.317700
H       0.873700     0.318400    -0.982900
H       0.400500     1.352100    -2.109100
H       0.690900     1.867100    -0.622500
C       2.863900     2.741200    -2.290300
C       1.971800     3.877800    -2.673900
H       2.417400     4.726300    -2.467500
H       1.132400     3.818800    -2.170500
H       1.781500     3.834700    -3.634600
C       7.283100    -0.422700    -1.747900
C       8.155000    -1.600100    -1.429100
H       8.060700    -1.829200    -0.481200
H       9.090400    -1.375500    -1.619700
H       7.885400    -2.365400    -1.978100
C       7.767000     0.838600    -2.303400
C       9.195600     1.081400    -2.689600
H       9.295100     2.000900    -3.012100
H       9.453600     0.456000    -3.399100
H       9.772000     0.945200    -1.908400
C       5.670900     3.123100     0.159300
H       5.861000     3.698600    -0.573300
C       5.780300     3.615400     1.451600
H       6.048200     4.516000     1.593100
C       5.501400     2.807000     2.534000
H       5.566100     3.138200     3.421700
C       5.121000     1.490500     2.285400
C       5.043900     1.058700     0.966500
H       4.794700     0.157300     0.800600
C       4.379800     0.843900     4.427700
C       4.179100    -0.155000     5.464600
C       3.657200     0.242000     6.717200
H       3.404500     1.147200     6.859700
C       3.511700    -0.678300     7.734900
C       3.867500    -2.015300     7.519300
H       3.761600    -2.650500     8.217300
C       4.371400    -2.418300     6.299700
H       4.613800    -3.326500     6.165600
C       4.526600    -1.501800     5.262700
C       2.715300     0.952800     9.280500
H       2.386900     1.023900    10.201500
H       2.022100     1.263600     8.661700
H       3.518700     1.504800     9.175600
N       1.586900     1.024700    -4.742400
N       3.334700     0.607200    -1.551300
N       4.137800     2.720100    -2.513300
N       5.998700    -0.415200    -1.552800
N       6.823400     1.727900    -2.464800
N       5.303600     1.854700    -0.084000
N       4.851700     0.513500     3.272600
O       3.074600    -0.612200    -1.042900
O       4.710200     3.787400    -3.134000
H       5.534500     3.652400    -3.218900
O       5.391100    -1.499400    -1.014400
H       4.566500    -1.354400    -0.948100
O       7.070100     2.946200    -2.943100
O       5.024100    -1.944700     4.075900
H       5.067500    -1.304400     3.534300
O       3.032000    -0.403100     8.994200
Co      5.083600     1.165800    -2.004800
H       4.165900     1.746800     4.654400
