79
Refcode: AROPAZ_comp_0 | Dataset: tmPHOTO | Charge: 0 | Potential Spins: [1, 3, 5]
Pt      7.111700     2.429900     6.916500
S       8.837000     3.860500     6.449400
O       7.812900     0.380100    12.675300
O       4.082300     0.753500    15.208100
N       6.487600     2.148600    12.170300
N       5.949500     0.602000    13.925800
N       3.312700     3.012800    13.766400
N       5.006900     3.846300    11.689900
N       6.878300     3.621700     8.536000
N       7.603000     4.807100     8.673300
N       9.194900     6.152200     7.705000
C       6.791600     1.036500    12.899400
C       4.765500     1.190800    14.308900
C       4.419900     2.385500    13.492800
C       2.974800     4.059800    12.961600
C       1.741500     4.712900    13.212000
C       1.301200     5.740500    12.416600
C      -0.028100     6.402800    12.683600
C       1.648700     7.212300    10.387300
C       2.110000     6.131200    11.314100
C       3.331500     5.522500    11.070600
C       3.790300     4.487300    11.889500
C       5.343800     2.761100    12.437300
C       5.986100     4.313600    10.686100
C       6.063100     3.376200     9.510200
C       8.476500     4.998100     7.714700
H       6.198700    -0.116400    14.369800
H       1.208200     4.432900    13.946500
H      -0.730800     5.936300    12.184200
H       0.010400     7.339200    12.395800
H      -0.226800     6.362400    13.642200
H       1.129000     6.816400     9.656900
H       2.426200     7.681100    10.019300
H       1.087700     7.846300    10.879700
H       3.864300     5.813600    10.338800
H       6.879200     4.384900    11.108000
H       5.726200     5.214900    10.369300
H       5.513100     2.602900     9.485300
H       9.069400     6.753900     8.334400
H       9.785900     6.296800     7.068700
S       5.386500     0.999300     7.383700
O       6.410600     4.479600     1.157800
O      10.141100     4.106200    -1.375000
N       7.735800     2.711200     1.662700
N       8.274000     4.257700    -0.092700
N      10.910800     1.846900     0.066700
N       9.216500     1.013400     2.143200
N       7.345100     1.238000     5.297100
N       6.620400     0.052600     5.159700
N       5.028500    -1.292500     6.128100
C       7.431900     3.823200     0.933700
C       9.457900     3.668900    -0.475900
C       9.803600     2.474200     0.340300
C      11.248600     0.800000     0.871500
C      12.481900     0.146800     0.621100
C      12.922300    -0.880700     1.416500
C      14.251600    -1.543100     1.149500
C      12.574800    -2.352600     3.445800
C      12.113500    -1.271500     2.519000
C      10.892000    -0.662700     2.762500
C      10.433200     0.372500     1.943500
C       8.879600     2.098600     1.395800
C       8.237300     0.546100     3.147000
C       8.160300     1.483600     4.322800
C       5.747000    -0.138400     6.118400
H       8.024700     4.976100    -0.536700
H      13.015200     0.426800    -0.113400
H      14.954300    -1.076600     1.648900
H      14.213100    -2.479500     1.437300
H      14.450300    -1.502700     0.190900
H      13.094500    -1.956700     4.176200
H      11.797300    -2.821300     3.813800
H      13.135800    -2.986600     2.953400
H      10.359200    -0.953800     3.494200
H       7.344300     0.474900     2.725100
H       8.497300    -0.355200     3.463800
H       8.710400     2.256800     4.347700
H       5.154000    -1.894200     5.498700
H       4.437500    -1.437100     6.764400
