92
Refcode: AXESAY_comp_0 | Dataset: tmPHOTO | Charge: 0 | Potential Spins: [1, 3, 5]
Ag      4.887200     1.121000     8.458400
P       4.384800     3.229300     7.358300
P       2.926700     0.484100     9.823500
O       3.596900     3.430600    10.201900
N       6.873800     1.268800     9.807700
N       6.287800    -0.573000     7.911400
C       7.105600     2.220500    10.761200
H       6.440300     2.885100    10.896100
C       8.228200     2.277600    11.530700
H       8.350500     2.950700    12.188900
C       9.188800     1.295400    11.301000
H       9.995500     1.299700    11.802900
C       8.980800     0.313300    10.346800
H       9.628700    -0.364100    10.202400
C       7.804200     0.336600     9.598600
C       7.488300    -0.628700     8.567000
C       8.220200    -1.718800     8.002800
C       7.397700    -2.309400     7.032000
H       7.594600    -3.065000     6.492200
C       6.252900    -1.568500     7.024900
C       9.582600    -2.203500     8.322400
C       5.063600    -1.778100     6.163100
C       5.668600     4.485400     7.633900
C       6.983300     4.074700     7.777900
H       7.181800     3.145500     7.768400
C       8.009100     4.984900     7.938900
H       8.904600     4.684300     8.038300
C       7.716900     6.337500     7.953100
H       8.415600     6.972500     8.069100
C       6.421200     6.771500     7.799200
H       6.230700     7.700700     7.792100
C       5.395500     5.857000     7.654700
H       4.499900     6.161800     7.567100
C       4.101400     3.306300     5.554100
C       4.552300     4.339300     4.747200
H       5.028700     5.067500     5.130800
C       4.312600     4.311800     3.388200
H       4.630100     5.020900     2.841200
C       3.615500     3.268200     2.815200
H       3.444000     3.261900     1.882300
C       3.175700     2.248000     3.606000
H       2.688200     1.530400     3.217700
C       3.434500     2.245900     4.967400
H       3.150300     1.513500     5.500100
C       2.837500     3.966800     8.019400
C       1.832400     4.436700     7.188300
H       1.965700     4.432500     6.246000
C       0.633500     4.913000     7.706800
H      -0.055600     5.205100     7.122000
C       0.449400     4.961600     9.070600
H      -0.352500     5.325700     9.428100
C       1.438600     4.479000     9.923000
H       1.316300     4.508700    10.865300
C       2.602500     3.952000     9.387900
C       2.716800    -1.261600    10.369100
C       3.834600    -2.093500    10.281000
H       4.660300    -1.746300     9.963200
C       3.741000    -3.429100    10.659300
H       4.503100    -3.994300    10.600100
C       2.548500    -3.928700    11.113900
H       2.486600    -4.836800    11.391000
C       1.438600    -3.111600    11.170800
H       0.609700    -3.463000    11.471500
C       1.522700    -1.782300    10.796700
H       0.751000    -1.229800    10.834500
C       1.381400     0.787200     8.945400
C       1.332200     0.393700     7.595500
H       2.084800    -0.033900     7.202500
C       0.200100     0.620200     6.835500
H       0.177800     0.349300     5.926300
C      -0.898700     1.240400     7.396700
H      -1.672000     1.401300     6.871000
C      -0.871700     1.625700     8.717800
H      -1.630700     2.051100     9.101400
C       0.252500     1.401300     9.496800
H       0.255600     1.665900    10.408400
C       2.808900     1.458400    11.376500
C       2.462700     0.884800    12.605600
H       2.207100    -0.029600    12.636400
C       2.485000     1.617200    13.770500
H       2.240400     1.204400    14.589700
C       2.861300     2.948600    13.753900
H       2.875600     3.454500    14.556600
C       3.217000     3.532800    12.546400
H       3.485300     4.443000    12.525100
C       3.183600     2.802600    11.382200
F      10.535300    -1.302200     8.196200
F       9.936700    -3.227200     7.506500
F       9.692200    -2.717000     9.560300
F       5.177900    -2.853400     5.402100
F       3.944200    -1.937500     6.869400
F       4.806400    -0.751900     5.360200
