46
Refcode: BAHFIC_comp_0 | Dataset: tmPHOTO | Charge: unknown | Potential Spins: [1, 3, 5]
Ni      0.967400    19.624800    18.060200
Cl     -0.227300    18.732700    19.630000
N       2.136900    20.493900    16.843300
C      -1.358900    20.652600    16.871500
C       3.435500    18.614200    17.300000
H       4.176300    18.062000    17.197400
C       3.782100    16.732500    19.465100
H       4.479000    17.349100    19.489200
C      -0.375700    22.110600    18.459000
C       3.339200    19.865400    16.601800
C       4.334000    20.415600    15.799000
H       5.129400    19.949700    15.678300
C      -1.348400    23.088600    18.141100
H      -1.316000    23.907900    18.579700
C       1.929300    21.680800    16.199400
H       1.122300    22.134700    16.275900
C       3.026200    22.215000    15.378500
H       2.907900    23.038400    14.962000
C      -0.373300    20.937800    17.770900
N       2.461500    18.280900    18.074700
C       1.538600    16.063800    18.817200
H       0.733900    16.272700    18.406700
C       0.644700    22.468000    19.465100
H       0.448700    23.337600    19.825200
H       0.634200    21.819400    20.173300
H       1.509600    22.480100    19.052600
C      -2.378000    21.606500    16.577700
H      -3.056300    21.391600    15.982100
C       4.181000    21.572400    15.207500
H       4.859300    21.935900    14.684300
C      -2.357200    22.875700    17.193400
C       1.670800    14.899000    19.410700
H       0.968100    14.288500    19.410700
C       2.616900    17.027800    18.785000
C      -1.444700    19.339200    16.092800
H      -2.214500    19.355300    15.519300
H      -0.651600    19.230800    15.561600
H      -1.517700    18.606200    16.708500
C       3.916600    15.495500    20.123000
H       4.690000    15.300700    20.599900
C       2.903300    14.583700    20.056600
H       3.016900    13.744300    20.438900
C      -3.441200    23.837600    16.756800
H      -3.993100    23.419900    16.090800
H      -3.980400    24.076600    17.515300
H      -3.040100    24.628900    16.388600
