61
Refcode: BAZBIP_comp_0 | Dataset: tmPHOTO | Charge: 0 | Potential Spins: [1, 3, 5]
C      11.426600    10.803900    13.871600
H      12.300200    10.486600    13.906000
C      11.098900    11.755000    12.938200
H      11.732800    12.062300    12.331200
C      10.503200    10.305500    14.759200
Pt     11.684200     7.295400    18.005900
Si      4.848900    11.381000    17.581900
N       9.969300     7.668100    19.090400
N      11.984100     6.086900    19.642100
C      13.256300     6.715200    17.053700
C       9.819300     6.907200    20.216600
C       9.016200     8.501200    18.741100
H       9.147200     9.038900    17.994700
C      11.049000     5.206200    21.629200
H      10.334500     5.170600    22.224800
C      14.196800     6.227700    16.465700
C       6.000500    10.228700    18.468100
C      10.983200     6.020200    20.518200
C      12.163900     4.454500    21.852500
H      12.217300     3.897600    22.597000
C      13.082800     5.347100    19.867300
H      13.787400     5.387300    19.260300
C       8.659400     6.931900    20.947700
H       8.548100     6.375900    21.684500
C      15.297100     5.585800    15.820600
C       7.830400     8.610000    19.435900
C       6.790400     9.523600    18.962500
C      13.192800     4.534100    20.970600
H      13.968800     4.040300    21.111900
C       7.651200     7.816200    20.552600
H       6.861400     7.870200    21.041300
C      16.551900     5.596700    16.349300
H      16.679300     6.021100    17.166300
C      15.152400     4.877900    14.644700
H      14.311900     4.821200    14.251500
C      16.219400     4.254300    14.033900
H      16.088600     3.770500    13.251200
C      17.467000     4.347500    14.579800
H      18.197000     3.954300    14.157900
C       5.181400    11.263000    15.770900
H       4.958000    10.383200    15.459800
H       6.111800    11.434000    15.604900
H       4.650400    11.912300    15.305200
C      17.627200     5.023300    15.749900
H      18.470600     5.092900    16.137400
C       5.223700    13.122200    18.044400
H       4.691200    13.716600    17.511800
H       6.154100    13.301400    17.891700
H       5.019600    13.256600    18.974000
C       3.134000    11.001400    18.029100
H       2.930200    10.097000    17.780900
H       2.541800    11.601300    17.569100
H       3.019600    11.106600    18.977800
C      11.234500     8.525900    16.551600
C      10.888800     9.321500    15.740400
C       9.217900    10.812100    14.724900
H       8.577300    10.498500    15.320400
C       8.888600    11.783300    13.804800
H       8.026700    12.128100    13.787600
C       9.816700    12.243300    12.917200
H       9.579300    12.891700    12.293000
