52
Refcode: BAZYEG_comp_0 | Dataset: tmPHOTO | Charge: 1 | Potential Spins: [1, 3, 5]
Re      1.254300     4.435300    10.160300
O       2.953900     6.199600    11.995400
O       1.029100     2.431500    12.466200
O       3.843400     3.073100     9.318200
N       1.183600     5.857800     8.527000
N      -1.725000     7.523300     9.736800
N      -0.563000     5.620200    10.531100
N      -6.762700     7.373400    16.425300
N      -0.065800     3.200100     8.902600
C       2.091700     5.950600     7.525700
C       1.976600     6.860200     6.510600
C       0.933800     7.711300     6.483000
C      -0.010200     7.642700     7.488900
C       0.151600     6.715300     8.494800
C      -0.789700     6.616200     9.635600
C      -2.492600     7.470000    10.856100
C      -1.343200     5.560500    11.602900
C      -2.345200     6.508300    11.809900
C      -3.174100     6.504400    13.076400
C      -4.675400     6.415500    12.792800
C      -5.443300     6.733100    14.034800
C      -5.697800     8.041600    14.392000
C      -6.356400     8.308400    15.565100
C      -6.532600     6.123300    16.057300
C      -5.861500     5.754900    14.898000
C      -1.150100     2.617000     9.425500
C      -2.025900     1.817900     8.694100
C      -1.750500     1.628700     7.346300
C      -0.667900     2.210500     6.791200
C       0.180600     2.988000     7.573200
C       2.328900     5.551600    11.288500
C       1.108900     3.201400    11.602900
C       2.865500     3.595200     9.638700
H       2.837300     5.362400     7.530300
H       2.631100     6.881800     5.822100
H       0.846500     8.355400     5.785300
H      -0.760600     8.225800     7.487400
H      -3.166400     8.124200    10.977300
H      -1.217600     4.863100    12.237700
H      -2.909800     5.763800    13.608500
H      -2.998700     7.311200    13.551800
H      -4.908200     7.025300    12.108900
H      -4.888400     5.527500    12.512200
H      -5.407700     8.756900    13.829300
H      -6.536500     9.220600    15.779700
H      -6.844600     5.424600    16.624600
H      -5.695300     4.840200    14.703300
H      -1.332900     2.755500    10.347100
H      -2.784700     1.416500     9.103500
H      -2.322700     1.086200     6.815700
H      -0.495400     2.092300     5.865100
H       0.948600     3.378000     7.173000
