52
Refcode: BOSXOX_comp_0 | Dataset: tmPHOTO | Charge: 1 | Potential Spins: [1, 3, 5]
Re      6.904300     3.310400    -0.008100
N       9.425100     7.434700     2.503600
N       6.894100     5.283000     0.986500
N       8.185900     2.645200     1.610900
N       5.543700     2.729900     1.578500
O      10.763300     6.705000     0.748300
O       8.729900     8.281900     4.554900
O       6.946100     0.547300    -1.367900
O       9.177500     4.403800    -1.758900
O       4.849600     4.237100    -2.091000
C      10.651700     7.227700     1.829900
C       9.617300     8.028500     3.778900
C      11.704300     7.733200     2.757500
C      13.065700     7.749600     2.592700
H      13.476100     7.438400     1.795000
C      13.816300     8.250000     3.653800
H      14.762800     8.276700     3.584000
C      13.202300     8.708300     4.819600
H      13.740300     9.046300     5.525800
C      11.830800     8.683500     4.970000
H      11.415200     8.987100     5.768800
C      11.084600     8.199400     3.906400
C       8.161500     7.028200     2.015200
C       8.061700     5.768500     1.436500
H       8.843500     5.234500     1.358300
C       5.793500     6.042400     1.111700
H       4.963100     5.700500     0.802500
C       5.830900     7.314200     1.680700
H       5.035500     7.827900     1.751700
C       7.033500     7.829100     2.142700
H       7.083000     8.695000     2.531300
C       7.564500     2.229800     2.753900
C       8.283500     1.756400     3.842700
H       7.831700     1.487700     4.633100
C       9.666300     1.678600     3.769300
H      10.171400     1.342500     4.499600
C      10.296600     2.102600     2.609500
H      11.243500     2.077800     2.538500
C       9.527300     2.562800     1.558000
H       9.966800     2.832100     0.760400
C       6.100900     2.316900     2.735800
C       5.307300     1.955600     3.835500
H       5.715900     1.663400     4.642700
C       3.939100     2.026200     3.740400
H       3.395100     1.797000     4.483900
C       3.359100     2.434900     2.546900
H       2.414300     2.469300     2.450700
C       4.190100     2.790100     1.506300
H       3.795700     3.091800     0.696600
C       6.938100     1.589300    -0.844600
C       8.319000     3.951200    -1.142900
C       5.618600     3.899800    -1.309000
