47
Refcode: BUBFUB_comp_0 | Dataset: tmPHOTO | Charge: 0 | Potential Spins: [1, 3, 5]
Zn     -0.135300     5.809100    10.563300
Cl     -1.825700     7.028200    11.294600
Cl     -0.450000     4.390300     8.831600
O      -1.383400     3.942200    11.949500
O      -0.161700     7.756500     8.689900
O      -2.339700     8.221100     5.897100
O      -0.550300     6.926300     6.239000
N       1.112900     4.838300    12.016400
N       1.737900     6.798100    10.239400
C      -0.595800     3.400900    12.909200
C      -1.036300     2.465800    13.813900
H      -1.928800     2.204700    13.808500
C      -0.172900     1.915600    14.721800
H      -0.483100     1.290800    15.336400
C       1.149500     2.283200    14.729400
H       1.738100     1.882200    15.326700
C       1.603300     3.234200    13.863500
H       2.497200     3.488500    13.889400
C       0.738400     3.837300    12.929700
C       2.315300     5.296700    11.962500
H       2.952300     4.960800    12.551200
C       2.705700     6.316800    11.015800
C       4.039800     6.746700    10.950000
H       4.677800     6.397700    11.530100
C       4.385800     7.683700    10.024800
H       5.267400     7.973200     9.961200
C       3.405900     8.214800     9.162200
C       2.077300     7.727400     9.301300
C       1.068300     8.264800     8.435400
C       1.403500     9.174300     7.477900
H       0.749900     9.501800     6.904300
C       2.733700     9.621900     7.350700
H       2.944600    10.238600     6.686400
C       3.710800     9.175000     8.170200
H       4.578100     9.497300     8.082800
C      -1.277800     8.301300     7.982500
H      -1.188000     9.267500     7.967400
H      -2.086000     8.091100     8.475300
C      -1.443800     7.822000     6.577500
C      -0.553500     6.431000     4.867400
H      -0.458200     5.465400     4.866300
H      -1.394900     6.653700     4.439300
C       0.540300     7.030600     4.134100
H       0.414300     6.882900     3.193900
H       1.368200     6.632500     4.413400
H       0.564100     7.973500     4.309900
H      -2.057400     3.692800    12.141500
