129
Refcode: CAQDEF_comp_0 | Dataset: tmCAT;tmPHOTO | Charge: 1 | Potential Spins: [1, 3, 5]
Cu      3.078100     8.614200    14.855200
P       3.717800     6.662000    13.903600
P       4.505900    10.088800    15.857200
N       1.499800     9.478000    13.735800
N       1.501600     8.544700    16.258200
C       0.397000     9.528100    14.393100
C      -1.000900     9.937100    14.106500
C      -1.705800    10.292800    12.980200
H      -1.281400    10.318400    12.130400
C      -3.068500    10.616800    13.113700
H      -3.558400    10.864300    12.339100
C      -3.718500    10.586700    14.326800
H      -4.638200    10.817300    14.376000
C      -3.025400    10.214200    15.501000
C      -1.665100     9.900100    15.358300
C      -3.564200    10.119600    16.814700
H      -4.478700    10.323400    16.967000
C      -2.773500     9.737100    17.858000
H      -3.155300     9.686200    18.725500
C      -1.402200     9.413300    17.695800
H      -0.874700     9.145300    18.439100
C      -0.854900     9.495800    16.433800
C       0.450000     9.156400    15.849500
C       1.580100     9.769400    12.341000
C       0.856800     9.037900    11.411400
H       0.236600     8.382200    11.707400
C       1.033200     9.257000    10.053000
H       0.522400     8.755100     9.429700
C       1.928200    10.181600     9.594500
C       2.660900    10.925800    10.530800
H       3.279700    11.580500    10.230000
C       2.489700    10.717600    11.907900
H       2.994000    11.222400    12.537200
C       2.163100    10.325600     8.095900
H       1.467200     9.762800     7.647000
C       1.947500    11.735800     7.604000
H       2.650400    12.316400     7.962900
H       1.071000    12.057100     7.904000
H       1.980800    11.748400     6.624600
C       3.490100     9.767200     7.677300
H       4.208800    10.296200     8.080700
H       3.565400     9.804700     6.702200
H       3.560200     8.836600     7.976300
C       1.656900     8.189300    17.633200
C       1.706600     9.156700    18.627300
H       1.532100    10.066500    18.412300
C       2.009200     8.803800    19.924600
H       2.061400     9.478700    20.591100
C       2.235700     7.504000    20.273400
C       2.160100     6.526700    19.282800
H       2.289300     5.616100    19.517800
C       1.898400     6.861100    17.945300
H       1.887900     6.194000    17.269400
C       2.554000     7.137500    21.717400
H       2.483900     8.014200    22.191700
C       1.490000     6.336800    22.345100
H       1.369000     5.505000    21.843700
H       0.653800     6.846000    22.341600
H       1.740600     6.127400    23.270400
C       3.926500     6.764500    21.933400
H       4.089600     6.660800    22.895600
H       4.515500     7.461000    21.573400
H       4.108800     5.915000    21.479700
C       2.400300     5.562500    13.268700
C       1.124300     5.645800    13.824100
H       0.936100     6.297800    14.488400
C       0.133000     4.778400    13.406600
H      -0.731000     4.830800    13.795200
C       0.382500     3.841400    12.436300
H      -0.308500     3.252600    12.154400
C       1.636900     3.753700    11.870700
H       1.810800     3.109400    11.193500
C       2.639200     4.605000    12.291200
H       3.505800     4.534400    11.905500
C       4.868200     6.801100    12.487100
C       4.738000     7.907500    11.654700
H       4.054500     8.545200    11.825200
C       5.598300     8.091800    10.571500
H       5.516400     8.861300    10.018500
C       6.566800     7.150800    10.311300
H       7.158900     7.270800     9.579600
C       6.678400     6.034200    11.113000
H       7.337700     5.379000    10.915200
C       5.844900     5.856200    12.195700
H       5.938900     5.085100    12.743300
C       4.624400     5.587200    15.068500
C       5.890500     5.979700    15.491900
H       6.279000     6.771900    15.138800
C       6.590800     5.232800    16.420100
H       7.460400     5.505000    16.688600
C       6.028300     4.089800    16.959700
H       6.505100     3.581100    17.604000
C       4.778500     3.696700    16.559900
H       4.391100     2.914300    16.932200
C       4.072400     4.435100    15.611500
H       3.209600     4.149100    15.336900
C       5.657000     9.360900    17.069500
C       5.222300     8.266600    17.792200
H       4.361300     7.903100    17.617400
C       6.025000     7.688700    18.769700
H       5.711000     6.942400    19.266200
C       7.284600     8.208800    19.015100
H       7.842600     7.816600    19.675700
C       7.725100     9.300200    18.294800
H       8.585800     9.664000    18.471200
C       6.932400     9.872200    17.318900
H       7.253600    10.612300    16.817100
C       5.554500    11.122300    14.786900
C       5.994600    12.392500    15.144200
H       5.740800    12.758500    15.982000
C       6.798700    13.127700    14.288500
H       7.099300    13.993400    14.542000
C       7.161200    12.601900    13.070100
H       7.711100    13.106800    12.483700
C       6.731600    11.344100    12.692200
H       6.983600    10.985300    11.849300
C       5.930000    10.607900    13.550300
H       5.633900     9.743000    13.292000
C       3.584200    11.309300    16.849500
C       2.419700    11.845700    16.303700
H       2.170100    11.620000    15.414500
C       1.620700    12.706200    17.043300
H       0.825600    13.062300    16.661800
C       1.980800    13.045000    18.327200
H       1.425100    13.620500    18.837900
C       3.140700    12.551800    18.871400
H       3.391900    12.800500    19.753300
C       3.946700    11.690600    18.141500
H       4.750400    11.358200    18.524700
