52
Refcode: COFWOL_comp_0 | Dataset: tmPHOTO | Charge: 1 | Potential Spins: [1, 3, 5]
C      12.006600     6.857300    11.624700
C      12.724600     5.668600    11.538900
H      12.345500     4.875600    11.900900
C      13.988200     5.598200    10.938000
H      14.450400     4.774400    10.839100
C      14.513000     6.763300    10.505000
C      13.877800     7.975500    10.579700
H      14.291000     8.766700    10.256800
C      12.602900     8.008000    11.150700
H      12.140300     8.835300    11.212300
C       9.782200     6.024500    12.328300
C       8.579600     6.443600    13.128900
C       8.087400     7.744300    13.255800
H       8.543900     8.474100    12.850900
C       6.942900     7.957400    13.968700
H       6.596800     8.837200    14.075100
C       6.303100     6.889800    14.526700
H       5.496500     7.050600    15.002600
C       7.869800     5.394100    13.722400
H       8.180500     4.501700    13.619700
C       8.594800     2.722300    15.797600
H       8.384400     2.247200    15.002600
C       9.813900     2.500100    16.378000
H      10.431100     1.887700    15.997300
C      10.124100     3.195600    17.544400
H      10.960400     3.065500    17.975500
C       9.210200     4.059100    18.055800
H       9.402900     4.527000    18.860100
C       7.998500     4.266800    17.415600
C       6.957500     5.213400    17.900900
C       7.140900     6.039000    18.983300
H       7.952300     6.004600    19.476000
C       6.144900     6.918700    19.352800
H       6.268800     7.507600    20.088100
C       4.964700     6.929500    18.638000
H       4.263900     7.525700    18.875000
C       4.812700     6.057000    17.563100
H       3.994400     6.057000    17.079700
C       5.851100     2.906600    13.812000
C       3.941600     4.456500    14.872000
C       5.007600     2.377300    16.266100
N      10.747500     6.976500    12.249900
H      10.569000     7.751500    12.628800
N       6.743300     5.632500    14.444600
N       7.676000     3.578600    16.288400
N       5.805600     5.200800    17.186100
O       9.861700     4.917200    11.822600
O       5.923900     2.297800    12.847100
O       2.880500     4.738300    14.580800
O       4.595000     1.414500    16.753100
F      15.771400     6.730800     9.939500
Re      5.723400     3.934800    15.430100
