63
Refcode: CUJHEW_comp_0 | Dataset: tmCAT;tmPHOTO | Charge: unknown | Potential Spins: [1, 3, 5]
Au      8.951600     8.921100     5.938300
Cl     11.136100     9.517100     5.752400
N       6.544400     7.181700     6.430900
N      11.371500     1.158900     6.739500
N       5.983200     9.238500     6.186200
N       9.315100     1.294200     5.816400
O      10.841200     2.469600     6.889200
C      10.425500     0.525800     6.110300
C       9.624700     2.443700     6.320700
C      10.498600    -0.936200     5.769800
C      10.265300    -1.095300     4.272200
H       9.425100    -0.656300     4.023700
H      10.216300    -2.048600     4.048600
H      11.007400    -0.682300     3.780000
C      11.868400    -1.514800     6.161700
H      12.573900    -1.041900     5.673300
H      11.898000    -2.467800     5.935200
H      12.007000    -1.402900     7.125600
C       9.396200    -1.661600     6.543700
H       9.537900    -1.539100     7.505200
H       9.421700    -2.617700     6.328100
H       8.524200    -1.292800     6.293300
C       8.825500     3.665200     6.368900
C       7.621700     3.726900     5.673300
H       7.316800     2.975700     5.179200
C       6.871400     4.889500     5.706400
H       6.056400     4.943200     5.222300
C       7.312900     5.974800     6.445700
C       8.493500     5.910500     7.170200
H       8.775400     6.650500     7.694200
C       9.253100     4.759400     7.122400
H      10.069300     4.712100     7.604700
C       7.052700     8.414200     6.191000
C       5.161900     7.243100     6.558600
H       4.577100     6.514400     6.724400
C       4.813200     8.528000     6.401900
H       3.932900     8.882700     6.432600
C       6.058300    10.653700     5.782200
H       5.691300    10.733900     4.865900
H       7.012900    10.914400     5.742900
C       5.335400    11.637100     6.667700
C       4.099100    12.168200     6.258200
C       3.350700    11.648800     5.156000
H       3.667800    10.880700     4.695100
C       2.189500    12.238500     4.758000
H       1.701800    11.864500     4.033600
C       1.695500    13.398400     5.403900
H       0.901000    13.815100     5.089700
C       2.350300    13.911000     6.461400
H       2.005400    14.681100     6.896800
C       3.560600    13.313800     6.939700
C       4.249800    13.849100     8.021500
H       3.907300    14.624400     8.450200
C       5.431700    13.279200     8.494000
C       6.111300    13.817100     9.625300
H       5.747700    14.570900    10.075000
C       7.268600    13.269700    10.070600
H       7.707800    13.639200    10.827600
C       7.820500    12.146900     9.408700
H       8.631200    11.766600     9.728500
C       7.209600    11.604900     8.321400
H       7.600000    10.851700     7.893200
C       5.988000    12.148900     7.811900
