105
Refcode: DAQZEC_comp_0 | Dataset: tmPHOTO | Charge: unknown | Potential Spins: [1, 3, 5]
Ir     14.801700     8.643000    10.956100
Cl     16.729100     7.190300    11.303900
P      13.285000    10.002500    10.258500
P      13.584100     6.598100    11.549300
P      15.084800     9.843300    13.065400
O      12.565700     9.414100     8.950700
O      13.972100    11.353200     9.743100
O      12.075900    10.484200    11.136700
C      14.557300     8.034700     8.958200
C      15.400300     7.226300     8.208800
H      16.199700     6.898700     8.603600
C      15.105600     6.882200     6.893100
H      15.689600     6.307300     6.413500
C      13.971600     7.369700     6.279300
H      13.770800     7.114800     5.385600
C      13.123100     8.224900     6.955500
H      12.352000     8.588100     6.538200
C      13.443600     8.530800     8.271100
C      16.004100    10.126300    10.130300
C      17.392500    10.082900     9.957600
H      17.867900     9.298700    10.205400
C      18.088900    11.163100     9.433300
H      19.034900    11.116500     9.350100
C      17.424500    12.304000     9.028800
H      17.911600    13.048200     8.691500
C      16.038600    12.357700     9.116800
H      15.558200    13.119700     8.817800
C      15.388000    11.277000     9.650700
C      11.072700    11.447700    10.931200
C      11.187900    12.471200    10.026400
H      11.960600    12.555800     9.481200
C      10.143700    13.382700     9.925600
H      10.200400    14.097600     9.303800
C       9.032500    13.255200    10.720100
H       8.318200    13.875900    10.638600
C       8.950000    12.232400    11.636100
H       8.184800    12.158300    12.194000
C       9.976400    11.310500    11.746400
H       9.924600    10.597900    12.373100
C      14.247800     5.635600    12.956600
C      14.851800     6.286100    14.008400
H      14.964700     7.229100    13.971700
C      15.299500     5.588000    15.121100
H      15.709600     6.053700    15.842000
C      15.150700     4.229600    15.180200
H      15.461700     3.749700    15.939500
C      14.549400     3.557600    14.137900
H      14.444100     2.614300    14.182700
C      14.099000     4.242000    13.028500
H      13.688800     3.769800    12.313900
C      13.596200     5.350700    10.197400
C      14.781700     4.680300     9.908100
H      15.559700     4.856200    10.422800
C      14.839700     3.759900     8.875400
H      15.653200     3.306300     8.689900
C      13.724700     3.499600     8.116000
H      13.769900     2.874500     7.403100
C      12.537400     4.149600     8.395800
H      11.762200     3.963800     7.879400
C      12.477700     5.074700     9.431700
H      11.659200     5.521000     9.613900
C      11.789500     6.654000    11.952700
C      10.929800     7.416400    11.166100
H      11.279200     7.925300    10.443600
C       9.571000     7.439600    11.425100
H       8.995400     7.960800    10.878400
C       9.042400     6.712700    12.470600
H       8.108500     6.726400    12.643200
C       9.892100     5.959600    13.268300
H       9.538400     5.458000    13.994100
C      11.244400     5.936100    13.017300
H      11.816500     5.424000    13.576800
C      15.372900    11.639100    12.774300
C      14.268900    12.480400    12.571300
H      13.390500    12.136900    12.683200
C      14.443700    13.810600    12.205200
H      13.685900    14.363200    12.053400
C      15.708200    14.324400    12.064600
H      15.829000    15.230200    11.804000
C      16.802600    13.518500    12.301100
H      17.677100    13.882500    12.224400
C      16.646600    12.196500    12.649600
H      17.412800    11.657400    12.804700
C      16.509300     9.373800    14.128300
C      16.360000     9.036500    15.480700
H      15.501400     9.055000    15.886800
C      17.466600     8.678600    16.219300
H      17.358400     8.442800    17.133700
C      18.727100     8.655100    15.664600
H      19.482700     8.431900    16.193700
C      18.873700     8.959200    14.334600
H      19.736400     8.939100    13.938100
C      17.766600     9.294200    13.560800
H      17.876500     9.471400    12.633700
C      13.675600     9.957400    14.227400
C      13.719100    10.829800    15.333700
H      14.491400    11.358600    15.491900
C      12.635300    10.911600    16.185700
H      12.678000    11.484000    16.943400
C      11.500900    10.179000    15.955500
H      10.761500    10.248900    16.547000
C      11.432900     9.335700    14.858900
H      10.643900     8.833200    14.692600
C      12.517200     9.226800    14.006800
H      12.467500     8.642800    13.260300
