39
Refcode: DAXDUD_comp_0 | Dataset: tmPHOTO | Charge: 1 | Potential Spins: [1, 3, 5]
Au      3.876800     3.767000     1.843200
Cl      2.919500     5.752600     2.424200
S       2.306900     2.468300     2.830500
N       5.496600     4.499600     0.783500
N       4.721900     2.062000     1.352600
N       4.211400     0.834900     1.698300
N       2.562000    -0.212500     2.893200
N       6.437600     1.061600     0.166900
H       7.140900     1.192600    -0.331100
H       6.166800     0.377000     0.347500
C       5.809800     5.780200     0.541800
H       5.274600     6.430200     0.940400
C       6.884400     6.108100    -0.264500
H       7.057400     6.970600    -0.419600
C       7.654200     5.105100    -0.806300
H       8.425700     5.297000    -1.396400
C       7.348700     3.775400    -0.527200
H       7.849300     3.110600    -0.865600
C       6.261500     3.489800     0.267200
C       5.810300     2.127000     0.606500
C       3.117100     0.911600     2.407000
C       1.200200    -0.244500     3.450500
H       1.043800     0.495800     3.951200
H       1.172300    -0.925300     4.074400
C       0.115900    -0.419200     2.404300
H       0.059200     0.389500     1.909900
H      -0.687300    -0.471800     2.908700
C       0.307400    -1.579900     1.445700
H      -0.505500    -1.657500     0.932200
H       0.478200    -2.416000     1.903600
C       1.516600    -1.462200     0.514400
H       1.312500    -2.029900    -0.375800
H       1.608600    -0.483200     0.267200
C       2.843700    -1.950000     1.076300
H       3.591800    -1.635800     0.477900
H       2.843100    -2.882100     1.121000
C       3.140900    -1.513600     2.518300
H       4.111500    -1.457600     2.624100
H       2.816500    -2.146500     3.165000
