110
Refcode: DICWIX_comp_0 | Dataset: tmPHOTO | Charge: 0 | Potential Spins: [1, 3, 5]
I      12.235300    10.188800    10.317900
Cu     10.364600    10.349800    12.178700
P      11.468900    10.262700    14.206200
N      11.283500     7.631700    14.548700
C      12.214000     8.593100    14.456500
C      13.568600     8.315800    14.414600
H      14.206600     9.015300    14.342200
C      13.967000     6.994900    14.484800
H      14.890100     6.771900    14.457700
C      13.019500     6.004200    14.595700
H      13.276200     5.091500    14.652300
C      11.678700     6.362300    14.624000
C      10.595500     5.321400    14.699900
H       9.720500     5.756100    14.636500
H      10.662500     4.840700    15.551000
H      10.699400     4.687400    13.959700
C      10.419300    10.474200    15.694500
C      10.499300     9.684100    16.834900
H      11.155500     9.000000    16.888800
C       9.631200     9.884800    17.895200
H       9.694800     9.334400    18.665700
C       8.675900    10.872700    17.841500
H       8.073300    10.996700    18.563800
C       8.603800    11.683700    16.728100
H       7.964200    12.385900    16.694100
C       9.463900    11.474600    15.659600
H       9.396200    12.027800    14.892300
C      12.857800    11.421700    14.506500
C      12.933400    12.220100    15.625700
H      12.258300    12.163000    16.291200
C      13.990300    13.109100    15.790900
H      14.019300    13.669300    16.558300
C      14.996400    13.185700    14.851500
H      15.728100    13.779300    14.976000
C      14.922200    12.391500    13.733300
H      15.609400    12.440300    13.079100
C      13.865700    11.523400    13.541300
H      13.823900    10.993900    12.753200
P       8.982100     8.572600    11.744900
N       8.748600     5.899700    11.340900
C       9.673200     6.879200    11.464300
C      11.036300     6.659100    11.384600
H      11.648100     7.382200    11.465200
C      11.495900     5.361800    11.184500
H      12.425900     5.179300    11.125600
C      10.559500     4.340400    11.073600
H      10.849500     3.444500    10.944500
C       9.221400     4.621900    11.148300
C       8.009400     3.706400    11.093900
H       8.103600     3.085000    10.340200
H       7.198800     4.244300    10.974000
H       7.945600     3.199200    11.929200
C       7.655700     8.205700    12.963200
C       7.995300     8.281000    14.306000
H       8.881000     8.529000    14.548200
C       7.072700     8.003700    15.292900
H       7.323700     8.062200    16.207400
C       5.789200     7.644200    14.953400
H       5.151600     7.454700    15.630200
C       5.434800     7.559200    13.615600
H       4.545600     7.316700    13.380200
C       6.356300     7.823900    12.626400
H       6.106400     7.745900    11.714200
C       8.114400     8.850900    10.144100
C       8.696000     8.412000     8.956000
H       9.496600     7.902000     8.982000
C       8.112900     8.712900     7.739300
H       8.524100     8.431500     6.931200
C       6.928100     9.425000     7.703100
H       6.513100     9.614500     6.870000
C       6.349600     9.858300     8.873300
H       5.531200    10.337600     8.850700
C       6.969800     9.592200    10.084400
H       6.588500     9.930800    10.887900
P       9.420100    12.414400    11.809000
N      10.039500    14.304600    13.719700
C      10.452000    13.711100    12.594700
C      11.711400    13.971600    12.074100
H      12.024700    13.493700    11.315800
C      12.503900    14.927500    12.667100
H      13.351100    15.142100    12.295900
C      12.066000    15.568500    13.792200
H      12.598800    16.237300    14.208700
C      10.867800    15.229900    14.299200
C      10.526700    15.501600    15.659600
H      10.565500    14.671100    16.178000
H       9.621300    15.870800    15.702600
H      11.160600    16.149500    16.033100
C       7.758400    12.735700    12.496200
C       7.127600    13.961900    12.379700
H       7.560200    14.666900    11.911100
C       5.877700    14.176500    12.934200
H       5.454900    15.023600    12.848200
C       5.256500    13.162100    13.606500
H       4.400000    13.305600    13.986800
C       5.855800    11.954000    13.733300
H       5.415900    11.251700    14.197300
C       7.119700    11.740800    13.183200
H       7.542700    10.896400    13.287400
C       9.284800    13.050600    10.089600
C       9.122800    12.157400     9.039900
H       9.123900    11.223800     9.210600
C       8.953400    12.624200     7.730200
H       8.814500    12.008300     7.019400
C       8.989800    13.967400     7.476700
H       8.874000    14.283700     6.587100
C       9.196700    14.869000     8.504400
H       9.236800    15.799800     8.318800
C       9.340800    14.423100     9.801400
H       9.480400    15.047300    10.503100
