89
Refcode: DIGVEW_comp_0 | Dataset: tmPHOTO | Charge: unknown | Potential Spins: [1, 3, 5]
Pt     -1.095100     2.511100     0.815100
B       0.120600     8.588800     6.646300
N      -1.521100     0.882900    -0.261000
O       0.061700     3.402500    -0.645000
O      -0.724600     4.044600     2.078600
C      -2.179300     1.530500     2.175100
C      -2.509300     1.975900     3.425300
H      -2.228100     2.820300     3.697700
C      -3.263700     1.184000     4.306700
H      -3.475800     1.505100     5.154000
C      -3.692900    -0.079100     3.913300
H      -4.194800    -0.603400     4.495800
C      -3.368800    -0.556700     2.642300
H      -3.645200    -1.404000     2.375600
C      -2.626900     0.243400     1.779800
C      -2.238300    -0.113400     0.382100
C      -2.543200    -1.311400    -0.255300
H      -3.031000    -1.968300     0.187200
C      -2.111500    -1.513300    -1.554700
H      -2.296300    -2.314500    -1.991600
C      -1.394800    -0.507900    -2.207200
H      -1.104700    -0.631800    -3.083000
C      -1.122300     0.665800    -1.549000
H      -0.651200     1.333400    -1.993500
C       0.063800     5.060700     1.853600
C       0.787900     5.299200     0.677100
H       1.342800     6.045000     0.663900
C       0.748400     4.499400    -0.501200
C       1.559400     4.903500    -1.711700
C       2.061500     6.188400    -1.897100
H       1.930400     6.840300    -1.246400
C       2.757500     6.495200    -3.054600
H       3.100100     7.352500    -3.164300
C       2.954500     5.566900    -4.049400
H       3.425700     5.790800    -4.819200
C       2.435400     4.281800    -3.883000
H       2.545900     3.640700    -4.546900
C       1.723700     3.956300    -2.663100
H       1.381900     3.100400    -2.536300
C       0.126400     6.005100     3.028100
C       0.507100     7.371400     2.918400
H       0.760200     7.721400     2.095700
C       0.496900     8.179200     4.047600
H       0.728700     9.075900     3.956800
C       0.150700     7.697100     5.324200
C      -0.207500     6.334500     5.382900
H      -0.443100     5.969400     6.205600
C      -0.222900     5.526100     4.268800
H      -0.475600     4.635400     4.357700
C       0.039000     7.806200     8.017600
C       1.023300     6.863200     8.418500
C       0.846000     6.052900     9.540100
H       1.504400     5.435200     9.763300
C      -0.482000     5.267900    11.571500
H      -1.320900     5.464800    11.995100
H       0.234300     5.435600    12.188100
H      -0.466900     4.345300    11.306700
C      -0.313900     6.150300    10.345900
C      -1.253400     7.096700     9.984600
H      -2.010100     7.202900    10.514200
C      -1.110600     7.893200     8.863000
C      -2.266600     8.837800     8.477200
H      -2.959900     8.779800     9.139200
H      -2.617000     8.579900     7.622300
H      -1.941300     9.739700     8.431800
C       2.344300     6.702700     7.660100
H       2.872700     6.019600     8.080000
H       2.824900     7.533900     7.677100
H       2.164000     6.455800     6.750300
C       0.127600    10.168000     6.561200
C      -0.897400    10.888800     5.904900
C      -0.910600    12.296500     5.946500
H      -1.615700    12.755400     5.549300
C       0.096100    13.012500     6.561200
C       1.123500    12.312900     7.183500
H       1.807900    12.786600     7.597700
C       1.153200    10.920600     7.198600
C      -2.077000    10.197800     5.233500
H      -2.658000    10.858400     4.849500
H      -2.562000     9.685300     5.884100
H      -1.755000     9.614000     4.543100
C       2.374900    10.232000     7.805700
H       2.957600    10.891800     8.187800
H       2.843000     9.747900     7.121100
H       2.090100     9.622100     8.490400
C       0.080700    14.539500     6.538500
H      -0.698900    14.844200     6.067600
H       0.869000    14.860800     6.094000
H       0.061800    14.872800     7.438800
