81
Refcode: DIXJOL_comp_0 | Dataset: tmPHOTO | Charge: unknown | Potential Spins: [1, 3, 5]
Ir      2.063500     7.139800    10.040600
N       1.481400     7.965500    11.922300
N       3.797000     8.272300    10.177600
N       3.062400     5.571800    10.877900
C       0.342500     7.524300    12.715000
H       0.350700     6.546100    12.777900
C       0.717200     8.122700    14.082100
H      -0.067600     8.514000    14.503900
H       1.070700     7.436100    14.667200
C       2.221600     8.851600    12.547600
C       3.341100     9.484500    12.166000
H       3.606700    10.188400    12.711000
C       4.111600     9.244800    11.143000
C       5.697400     9.570800     9.647400
H       6.647100     9.382900     9.659400
H       5.540000    10.322700     9.048800
C       4.914800     8.352900     9.188100
H       4.554900     8.506300     8.288300
C      -0.980200     7.973100    12.203500
C      -1.147100     9.234200    11.645100
H      -0.416300     9.802900    11.555400
C      -2.403900     9.645600    11.219300
H      -2.516300    10.489500    10.845800
C      -3.495300     8.795900    11.353200
H      -4.337200     9.071200    11.069400
C      -3.329900     7.533900    11.912900
H      -4.059400     6.965200    12.002600
C      -2.071700     7.122500    12.337400
H      -1.960700     6.278600    12.712300
C       5.755000     7.111900     9.202800
C       6.194800     6.563400    10.402600
H       5.960000     6.961400    11.210000
C       6.986500     5.421200    10.395900
H       7.280400     5.054900    11.197900
C       7.338200     4.826600     9.189400
H       7.868100     4.062300     9.185400
C       6.898300     5.374200     7.989700
H       7.134400     4.976300     7.183600
C       6.106700     6.517400     7.996400
H       5.812800     6.883700     7.194400
C       3.316500     5.437500    12.198100
H       3.053600     6.129900    12.759200
C       3.920400     4.382600    12.760500
H       4.047500     4.334700    13.680400
C       4.322900     3.394900    11.957100
H       4.770300     2.661200    12.302600
C       4.053500     3.481200    10.551200
H       4.311300     2.779200    10.000900
C       3.413900     4.612800     9.986100
C       3.195600     4.921600     8.615000
C       2.653000     6.182700     8.366000
C       2.541400     6.597900     7.060500
H       2.198600     7.440900     6.878400
C       2.932000     5.773200     6.008000
C       3.436500     4.507300     6.265100
H       3.689000     3.944400     5.571500
C       3.551600     4.113200     7.576000
N       1.018300     8.608900     9.102400
C       1.512200     9.877700     8.825200
H       2.375300    10.106900     9.083700
C       0.717400    10.803100     8.159800
H       1.047300    11.651900     7.973600
C      -0.572700    10.459800     7.772800
H      -1.106000    11.079300     7.328300
C      -1.068100     9.191100     8.051300
H      -1.931100     8.960900     7.791500
C      -0.271900     8.265600     8.715400
O       1.692700     9.120100    13.830400
O       5.234500     9.884400    10.962300
F       3.994800     2.859700     7.767400
F       2.835500     6.252700     4.750700
C       0.340300     6.139500     9.757200
C      -0.621500     6.891400     9.094400
C      -1.863200     6.334200     8.807800
C      -2.142200     5.026100     9.186800
H      -2.972200     4.654000     8.995300
C      -1.179100     4.274300     9.849600
C       0.062700     4.831400    10.136100
H       0.706800     4.328000    10.579300
F      -2.846300     6.886600     8.197300
F      -1.404400     2.996900    10.239200
