73
Refcode: DOWJEE_comp_0 | Dataset: tmPHOTO | Charge: 0 | Potential Spins: [1, 3, 5]
Pd     -0.000000    -0.000000    -0.002300
N      -0.000000    -0.000000    -1.998800
N       0.937400    -1.778700    -0.002500
N       0.000000     0.000000     2.019700
C       0.439200    -0.523900    -4.189400
H       0.797100    -0.954900    -4.956900
C       0.719900    -0.851300    -2.840100
C       1.512900    -1.935100    -2.414500
C       2.310100    -2.748400    -3.441500
H       2.895700    -3.348300    -2.897900
C       3.278000    -1.922400    -4.312400
H       3.816900    -1.339300    -3.739200
H       2.763500    -1.377400    -4.944600
H       3.867700    -2.528700    -4.808100
C       1.425500    -3.688400    -4.253300
H       1.976600    -4.182800    -4.894200
H       0.750400    -3.166600    -4.735500
H       0.980100    -4.320100    -3.649400
C       1.523100    -2.387100    -1.087300
C       2.031500    -3.665200    -0.666700
H       2.497100    -4.286300    -1.212800
C       1.726400    -3.827900     0.642100
H       1.923700    -4.586200     1.178300
C       1.051300    -2.630100     1.067600
C       0.691400    -2.347000     2.389900
C       0.854100    -3.468700     3.431700
H       1.014700    -4.296800     2.895400
C       2.129100    -3.293400     4.282900
H       2.889600    -3.101100     3.696200
H       2.301900    -4.115100     4.785900
H       2.003000    -2.547700     4.908900
C      -0.404700    -3.772900     4.259500
H      -1.173300    -3.870100     3.659300
H      -0.569400    -3.035700     4.884300
H      -0.272500    -4.603100     4.761300
C       0.292800    -1.083700     2.809300
C       0.164700    -0.648500     4.182000
H       0.292800    -1.191400     4.952000
C      -0.439200     0.523900    -4.189400
H      -0.797100     0.954800    -4.956900
C      -0.719900     0.851300    -2.840100
C      -1.512900     1.935000    -2.414500
C      -2.310100     2.748400    -3.441500
H      -2.895700     3.348300    -2.897900
C      -3.278000     1.922400    -4.312400
H      -3.816900     1.339300    -3.739200
H      -2.763500     1.377300    -4.944600
H      -3.867700     2.528700    -4.808100
C      -1.425500     3.688400    -4.253300
H      -1.976600     4.182800    -4.894200
H      -0.750400     3.166600    -4.735500
H      -0.980100     4.320100    -3.649400
C      -1.523100     2.387100    -1.087300
N      -0.937400     1.778700    -0.002500
C      -0.292800     1.083700     2.809300
C      -0.691400     2.347000     2.389900
C      -1.051300     2.630100     1.067600
C      -1.726400     3.827900     0.642100
C      -2.031500     3.665200    -0.666700
H      -2.497100     4.286300    -1.212800
H      -1.923700     4.586200     1.178300
C      -0.854100     3.468700     3.431700
H      -1.014700     4.296800     2.895400
C      -2.129100     3.293400     4.282900
H      -2.889600     3.101200     3.696200
H      -2.301900     4.115100     4.785900
H      -2.003000     2.547700     4.908900
C       0.404700     3.772900     4.259500
H       1.173300     3.870100     3.659300
H       0.569400     3.035700     4.884300
H       0.272500     4.603100     4.761300
C      -0.164700     0.648500     4.182000
H      -0.292800     1.191500     4.952000
