151
Refcode: DUQFAY_comp_0 | Dataset: tmCAT;tmPHOTO | Charge: 0 | Potential Spins: [1, 3, 5]
Ni      5.955500     3.393500     0.989100
Si      0.742200     2.898700     0.770500
N       4.535600     4.619000     1.332700
N       4.794000     2.391900    -0.156200
N       7.412300     2.225500     0.559300
N       7.081000     4.357600     2.195900
C       4.653900     5.919400     1.804600
C       3.372500     6.560400     1.784500
H       3.192400     7.467600     2.004800
C       2.468500     5.639500     1.395900
H       1.529400     5.767900     1.324500
C       3.184500     4.425600     1.107700
C       2.595700     3.275200     0.571200
C       3.410600     2.372600    -0.122300
C       2.929300     1.420200    -1.091800
H       2.022800     1.182900    -1.239700
C       3.995100     0.926300    -1.749100
H       3.977300     0.315300    -2.477000
C       5.165500     1.496900    -1.144100
C       6.464300     1.080600    -1.404100
C       7.518500     1.386900    -0.537800
C       8.786900     0.718500    -0.518200
H       9.131900     0.147900    -1.193700
C       9.397200     1.050200     0.638000
H      10.221100     0.706600     0.958800
C       8.567900     2.017400     1.287900
C       8.900100     2.717900     2.447700
C       8.226100     3.884400     2.797100
C       8.767000     4.875700     3.680100
H       9.527600     4.776000     4.242100
C       8.000600     5.972600     3.564600
H       8.148200     6.810700     3.987900
C       6.909400     5.641600     2.679700
C       5.791000     6.436900     2.435100
C       0.592500     1.114800     1.342400
H       1.092200     0.997100     2.176700
H       0.959400     0.520800     0.656200
H      -0.350600     0.898900     1.493900
C      -0.067700     3.866600     2.147500
H       0.421300     3.717400     2.983000
H      -0.992100     3.567000     2.254200
H      -0.056800     4.820500     1.927400
C      -0.193600     3.186200    -0.821100
H       0.231100     2.678500    -1.544800
H      -0.179700     4.140100    -1.041200
H      -1.120300     2.889200    -0.711900
C       6.706200     0.142200    -2.547000
C       6.501700     0.574700    -3.859100
H       6.169100     1.449800    -4.021800
C       6.783700    -0.275200    -4.936500
C       7.252800    -1.559600    -4.654000
H       7.452300    -2.140700    -5.380100
C       7.441000    -2.026600    -3.355200
C       7.149600    -1.148500    -2.307000
H       7.257000    -1.443300    -1.409200
C       6.643600     0.190000    -6.401700
C       6.034400     1.589800    -6.510900
H       5.961500     1.841100    -7.455200
H       6.608600     2.232300    -6.043600
H       5.142500     1.589800    -6.104100
C       5.764100    -0.791600    -7.191500
H       6.143300    -1.691900    -7.130700
H       5.726000    -0.514200    -8.130700
H       4.859900    -0.793000    -6.816000
C       8.043900     0.222400    -7.039000
H       8.451300    -0.667300    -6.978200
H       8.605500     0.870200    -6.564100
H       7.968800     0.484100    -7.980600
C       7.983700    -3.427400    -3.034600
C       8.002000    -4.358600    -4.240700
H       8.354600    -5.232700    -3.973400
H       8.571700    -3.976500    -4.939500
H       7.091400    -4.467200    -4.583500
C       9.414400    -3.301300    -2.488900
H       9.414800    -2.704700    -1.711900
H       9.996100    -2.931000    -3.184000
H       9.741300    -4.185900    -2.222800
C       7.129200    -4.103500    -1.944500
H       7.098900    -3.529000    -1.150100
H       7.525200    -4.967100    -1.707000
H       6.220300    -4.242200    -2.280900
C       9.986800     2.233600     3.353000
C      11.309100     2.014800     2.960000
H      11.575900     2.234900     2.075100
C      12.242900     1.479100     3.844800
C      11.836700     1.222100     5.166600
H      12.470700     0.879300     5.784500
C      10.532400     1.455300     5.596400
C       9.622300     1.953300     4.672600
H       8.725200     2.108000     4.946700
C      13.691100     1.210400     3.415500
C      13.798400     0.994500     1.913100
H      14.734900     0.827000     1.673100
H      13.479300     1.792600     1.445500
H      13.253600     0.222400     1.653700
C      14.253500    -0.044500     4.079900
H      15.177900    -0.183200     3.786900
H      13.711400    -0.820400     3.825700
H      14.231500     0.064100     5.053300
C      14.531500     2.428600     3.817200
H      15.463600     2.283300     3.554500
H      14.479600     2.555500     4.786900
H      14.187000     3.226800     3.365600
C      10.031000     1.141100     7.020100
C       8.952000     0.051000     6.924000
H       8.225200     0.359800     6.343800
H       8.598700    -0.138700     7.818400
H       9.342800    -0.765500     6.549600
C      11.145200     0.654300     7.931700
H      11.838500     1.343800     7.997600
H      11.535100    -0.164900     7.561700
H      10.780800     0.469800     8.823200
C       9.406600     2.406300     7.640400
H       8.684900     2.729500     7.062900
H      10.091800     3.101100     7.726400
H       9.047500     2.191700     8.525400
C       5.703300     7.800100     3.041600
C       5.877700     7.972000     4.416900
H       6.034600     7.211100     4.963700
C       5.825500     9.239100     5.005600
C       5.511500    10.316000     4.193700
H       5.458400    11.181100     4.583500
C       5.265500    10.178300     2.813800
C       5.405500     8.916000     2.253000
H       5.297600     8.808800     1.314800
C       6.133200     9.372900     6.514000
C       5.168400     8.511700     7.328300
H       5.234200     7.578800     7.033900
H       4.252100     8.832400     7.196100
H       5.398900     8.570700     8.278400
C       7.559900     8.895200     6.788100
H       8.191700     9.436900     6.268700
H       7.645900     7.954400     6.525400
H       7.757100     8.988100     7.743300
C       6.000500    10.814500     6.998800
H       6.609100    11.387900     6.489100
H       6.226700    10.861900     7.951500
H       5.077800    11.119600     6.866800
C       4.869500    11.413000     1.993900
C       3.649100    12.094500     2.650800
H       3.395200    12.884800     2.128300
H       3.878600    12.366600     3.564200
H       2.897200    11.466400     2.675500
C       4.488000    11.055500     0.545300
H       4.245900    11.872000     0.060500
H       3.725800    10.439200     0.549600
H       5.250000    10.627600     0.101700
C       6.043900    12.403900     1.969200
H       5.795900    13.193600     1.445500
H       6.824000    11.975400     1.559300
H       6.261400    12.674100     2.886200
