25
Refcode: DUZCUY_comp_0 | Dataset: tmPHOTO | Charge: unknown | Potential Spins: [1, 3, 5]
Au     -0.455400     2.732000     5.234500
C      -1.931500     1.481900     5.965900
C      -0.044600     3.415700     7.039300
C      -1.624600     1.345000     2.786000
H      -2.174200     0.892400     3.384400
C      -1.748500     1.097500     1.432600
H      -2.387700     0.494900     1.126300
C      -0.926300     1.743700     0.537200
H      -0.987100     1.584800    -0.377000
C       0.009900     2.656600     1.057500
H       0.578400     3.102800     0.472200
C       0.105000     2.894600     2.343000
C       0.978200     3.821100     3.052700
C       0.947700     3.935500     4.420200
C       1.863000     4.888900     4.915000
H       1.970000     5.079900     5.818800
C       2.583800     5.509000     3.912200
C       3.599600     6.592900     4.035700
H       3.195800     7.436600     3.816100
H       4.326900     6.421100     3.433400
H       3.930200     6.621100     4.936700
N      -2.732700     0.821100     6.354200
N       0.201000     3.826000     8.065700
N      -0.720600     2.231000     3.258100
S       2.121900     4.907600     2.351600
