89
Refcode: ECIQEP_comp_0 | Dataset: tmPHOTO | Charge: 0 | Potential Spins: [1, 3, 5]
I       1.991300    -0.509000     4.001200
Cu      2.951600     1.946600     4.165600
P       2.505800     3.035000     2.222300
P       5.109500     1.968300     4.942000
O       0.199500     5.746400    11.196800
O       0.970600     6.406200     9.314500
N       1.875300     2.744500     5.795300
N       0.547500     5.537600    10.046000
C       2.126500     4.021300     6.189500
H       2.633600     4.572800     5.606200
C       1.699900     4.561200     7.365500
H       1.918700     5.459600     7.584800
C       0.929300     3.779000     8.255300
C       0.399800     4.166000     9.530800
C      -0.310700     3.296500    10.305500
H      -0.646800     3.588000    11.143900
C      -0.551100     1.985700     9.887100
H      -1.043900     1.390000    10.440800
C      -0.075000     1.566900     8.680000
H      -0.240100     0.678300     8.387500
C       0.661000     2.449100     7.861700
C       1.153300     2.008500     6.603300
H       0.944400     1.122600     6.329500
C       1.098600     2.391900     1.249900
C      -0.112500     2.225900     1.914900
H      -0.177300     2.418600     2.842000
C      -1.226100     1.778600     1.216400
H      -2.058500     1.685500     1.664400
C      -1.130800     1.470600    -0.116700
H      -1.898800     1.167400    -0.586400
C       0.070500     1.598200    -0.774700
H       0.138200     1.358500    -1.692400
C       1.187900     2.080400    -0.094900
H       2.011100     2.194800    -0.555300
C       2.154300     4.828700     2.313900
C       1.087600     5.447400     1.684700
H       0.473500     4.923300     1.183800
C       0.899900     6.820200     1.774900
H       0.166600     7.230200     1.330000
C       1.780400     7.591600     2.509100
H       1.656600     8.531000     2.571300
C       2.837900     6.988300     3.150000
H       3.439900     7.518700     3.658600
C       3.039400     5.623100     3.066000
H       3.774700     5.220900     3.515500
C       3.907200     2.988400     1.055600
C       4.684200     1.828200     1.031300
H       4.440100     1.087500     1.574200
C       5.804000     1.748200     0.224000
H       6.336300     0.961400     0.227100
C       6.147800     2.810800    -0.583300
H       6.914200     2.751100    -1.140200
C       5.388200     3.955000    -0.586400
H       5.628800     4.681100    -1.148000
C       4.271300     4.053000     0.228700
H       3.750800     4.848100     0.225600
C       5.243600     1.652100     6.743800
C       4.244200     0.907600     7.357700
H       3.491700     0.627000     6.850600
C       4.329300     0.568400     8.700200
H       3.632300     0.070300     9.107700
C       5.427100     0.954700     9.442200
H       5.494400     0.719100    10.359900
C       6.422900     1.686600     8.835500
H       7.179700     1.953900     9.345700
C       6.349100     2.040900     7.507100
H       7.047900     2.548600     7.108800
C       6.368300     0.804600     4.300500
C       5.951500    -0.326000     3.607300
H       5.034400    -0.434200     3.386400
C       6.869800    -1.296400     3.238600
H       6.576200    -2.067800     2.768900
C       8.202300    -1.154800     3.548200
H       8.823600    -1.831200     3.302400
C       8.637200    -0.020900     4.220200
H       9.556900     0.081300     4.431800
C       7.733100     0.958500     4.582600
H       8.038700     1.742200     5.024400
C       5.853600     3.617300     4.711800
C       6.486700     3.941800     3.512400
H       6.637000     3.266900     2.860700
C       6.900900     5.247900     3.263500
H       7.325400     5.460800     2.440700
C       6.695100     6.235700     4.210900
H       6.980100     7.126000     4.038200
C       6.078600     5.930000     5.399300
H       5.940200     6.611200     6.048000
C       5.658300     4.634300     5.662200
H       5.234600     4.432700     6.489700
