59
Refcode: EGAYAN_comp_0 | Dataset: tmPHOTO | Charge: 0 | Potential Spins: [1, 3, 5]
Ir     -2.245400     2.126700    13.135500
O      -3.205000     0.212600    13.442400
O      -4.474100    -1.351500    12.493800
N      -2.986700     1.554600    11.115200
N      -4.160400     0.415700     8.777700
N      -3.948200     3.215600    13.472000
N      -1.629400     2.241800    15.062800
C      -2.844100     2.150700     9.888100
C      -2.100000     3.342700     9.714100
H      -1.657000     3.722400    10.439900
C      -2.029200     3.942600     8.483500
H      -1.555800     4.737900     8.393000
C      -2.642900     3.394000     7.376500
H      -2.571300     3.813500     6.549700
C      -3.348800     2.243700     7.494900
H      -3.766600     1.884900     6.746400
C      -3.463200     1.586900     8.723700
C      -4.216000    -0.170800     9.980400
H      -4.643100    -0.994700    10.055200
C      -3.649500     0.408100    11.141300
C      -3.803100    -0.318900    12.476400
C      -5.139700     2.727700    13.877500
H      -5.226300     1.809000    13.995900
C      -6.238100     3.530700    14.126400
H      -7.040600     3.149100    14.399700
C      -6.146400     4.865100    13.975000
H      -6.864000     5.423200    14.171700
C      -4.936900     5.377600    13.513700
H      -4.869100     6.290600    13.358800
C      -3.821700     4.570900    13.277000
C      -2.487800     5.005600    12.928900
C      -2.129300     6.347600    12.687000
H      -2.777700     7.013800    12.730500
C      -0.833000     6.681700    12.385800
H      -0.604000     7.564300    12.208300
C       0.122200     5.696500    12.351000
H       1.003100     5.930000    12.159600
C      -0.182100     4.371600    12.587700
H       0.491700     3.730000    12.556400
C      -1.530200     3.972900    12.881900
C      -2.260900     2.832100    16.140200
H      -3.055600     3.297200    16.006200
C      -1.733200     2.744800    17.409100
H      -2.197300     3.114900    18.126200
C      -0.535600     2.122200    17.628400
H      -0.168700     2.097500    18.483000
C       0.100400     1.548900    16.605000
H       0.900900     1.102900    16.766800
C      -0.388700     1.590700    15.306500
C       0.242800     0.996600    14.105500
C       1.514400     0.343600    14.082900
H       1.994600     0.227800    14.869600
C       2.010500    -0.098700    12.915000
H       2.831300    -0.537200    12.895800
C       1.303300     0.093000    11.743600
H       1.637700    -0.205000    10.929000
C       0.090700     0.738400    11.816700
H      -0.375100     0.877000    11.023000
C      -0.463500     1.180700    12.948000
