74
Refcode: EGEHIJ_comp_0 | Dataset: tmPHOTO | Charge: unknown | Potential Spins: [1, 3, 5]
Ir     13.147000     6.598900     3.646800
O      14.309100     7.588400     8.682200
O      16.686300    10.123000     5.688300
O      11.051100    10.874000     1.424900
O       8.752000     9.365000     5.127300
O      12.134300     5.279800     2.287200
O      12.240300     3.288500     1.308800
N      12.458900     5.672800     5.325000
N      15.477400     8.844700     7.180900
N      13.824400     7.679400     2.055400
N       9.895300    10.100600     3.248000
N      14.533800     4.983700     3.405700
C      11.588800     4.637600     5.325400
H      11.211500     4.360100     4.498900
C      11.228500     3.976400     6.465400
H      10.622100     3.246400     6.418700
C      11.744300     4.366000     7.684100
C      12.620300     5.457800     7.703400
H      12.980800     5.755800     8.529900
C      12.965800     6.109800     6.520000
C      13.886400     7.229200     6.360800
C      14.567200     7.904200     7.380300
C      15.735900     9.172600     5.913900
C      15.088000     8.620600     4.820500
H      15.290300     8.920400     3.942600
C      14.138200     7.618700     5.021500
C      11.383200     3.644800     8.951200
H      10.759900     2.917100     8.747000
H      10.960500     4.272100     9.575000
H      12.193700     3.275600     9.359600
C      15.097500     8.288900     9.687600
H      14.831400     7.987300    10.580000
H      14.943800     9.252800     9.608800
H      16.048700     8.097700     9.547700
C      17.317200    10.683000     6.849700
H      17.978700    11.349000     6.571500
H      17.761000     9.970800     7.356100
H      16.640200    11.111400     7.414000
C      14.936700     7.406300     1.353900
H      15.423500     6.619000     1.569300
C      15.400900     8.203300     0.348900
H      16.195000     7.964100    -0.114200
C      14.719100     9.365100    -0.003200
C      13.547700     9.632600     0.688200
H      13.041000    10.404100     0.461500
C      13.098700     8.797300     1.706000
C      11.906700     8.972200     2.543700
C      10.922000     9.966300     2.424700
C       9.801200     9.226200     4.248100
C      10.674100     8.187300     4.466700
H      10.540100     7.588400     5.191900
C      11.761600     8.026200     3.606500
C      15.252300    10.271700    -1.067600
H      14.650900    11.038900    -1.173800
H      15.308900     9.782700    -1.915000
H      16.143800    10.588900    -0.812000
C       9.969800    11.804700     1.218800
H      10.186800    12.398300     0.469500
H       9.837900    12.336900     2.030800
H       9.147500    11.309400     1.014600
C       7.975700    10.541700     5.015000
H       7.265200    10.530400     5.688700
H       7.576600    10.586000     4.121000
H       8.546600    11.325100     5.156500
C      15.753500     4.881800     3.949000
H      16.051400     5.562500     4.540700
C      16.585500     3.823700     3.678900
H      17.444800     3.769100     4.077600
C      16.150300     2.843800     2.817000
H      16.717500     2.115000     2.595100
C      14.890600     2.923600     2.280000
H      14.569600     2.238200     1.704400
C      14.093800     4.010200     2.583900
C      12.700200     4.181700     2.001800
