157
Refcode: ELUNUV_comp_0 | Dataset: tmPHOTO | Charge: 0 | Potential Spins: [1, 3, 5]
Zn     -1.618900    22.670100     4.186900
C      -1.618900    25.961500     4.186900
C      -1.618900    15.171500     4.186900
H      -1.618900    14.241500     4.186900
O       2.257800    22.262200     6.523200
O      -5.356400    23.172000     6.598600
C      -2.037300    17.245300     3.066500
H      -2.314500    17.714200     2.312800
O       0.224400    21.483700     5.942000
O      -2.474800    15.093600     2.041500
C      -5.841900    24.530200     6.953600
N      -0.413000    24.011000     5.029300
C       0.704200    23.753000     5.643900
N      -2.711200    21.347900     5.168300
C      -1.618900    30.186200     4.186900
H      -1.618900    31.113500     4.186900
O      -2.898800    30.255800     6.117900
C       1.443000    24.969400     5.928600
C       2.825400    20.939800     6.859800
C       2.272300    27.539000     6.186600
H       2.563300    28.416600     6.285400
C      -2.299100    28.111900     5.168300
H      -2.761700    27.643400     5.826500
C       2.680000    25.205900     6.483000
H       3.216700    24.500200     6.766000
C      -0.560600    25.370900     4.855100
C      -2.288200    29.498300     5.165000
C      -5.595500    17.899100     6.055900
H      -5.944100    17.036700     6.071000
C      -1.618900    27.443600     4.186900
C      -4.587600    20.437100     6.049200
C       3.108300    26.507300     6.610300
H       3.942500    26.694900     6.975400
O      -3.214500    23.833600     6.290400
C       1.032900    22.371900     6.039200
C       1.050900    27.319800     5.633900
H       0.516100    28.039300     5.381000
C       0.591500    25.991000     5.446300
C      -2.042400    15.856700     3.083200
C      -7.308400    24.268200     7.228300
H      -7.392100    23.700400     7.997000
H      -7.704100    23.835900     6.467900
H      -7.756900    25.100700     7.392400
C      -5.164200    25.017800     8.191200
H      -4.238100    25.185700     8.005400
H      -5.237200    24.351400     8.879600
H      -5.583600    25.828700     8.487700
C      -3.840500    19.391300     5.471400
C      -2.645400    19.998700     4.917100
C      -4.377600    18.101600     5.484800
H      -3.909500    17.392700     5.108000
C      -6.341500    18.929300     6.620300
H      -7.176300    18.753100     6.992100
C      -5.840100    20.206000     6.625300
H      -6.322500    20.905300     7.003800
C      -4.068600    23.003500     6.261900
C       4.197300    21.285500     7.347200
H       4.700900    21.683800     6.632000
H       4.641100    20.488100     7.645300
H       4.131900    21.907000     8.075700
C      -1.618900    17.905500     4.186900
C      -2.651400    15.715400     0.795500
H      -2.954900    15.067800     0.155800
H      -1.817100    16.088100     0.502400
H      -3.303400    16.414900     0.877600
C      -3.821000    21.605900     5.846600
C      -5.696800    25.440500     5.779600
H      -4.766000    25.613500     5.620500
H      -6.151700    26.267100     5.957100
H      -6.080500    25.026300     5.002500
C       2.862400    20.108700     5.613800
H       3.401200    20.546600     4.952300
H       1.969600    19.996600     5.277200
H       3.237700    19.250000     5.814800
C       2.025900    20.297100     7.960100
H       2.054000    20.852100     8.742200
H       2.396500    19.436000     8.166100
H       1.114400    20.193200     7.675400
C      -4.044500    29.708200     6.734200
H      -4.380700    30.324300     7.389000
H      -3.813000    28.881600     7.162900
H      -4.719800    29.545800     6.071000
C      -1.618900    19.388100     4.186900
O      -5.495700    22.262200     1.850600
O       2.118500    23.172000     1.775200
C      -1.200600    17.245300     5.307300
H      -0.923400    17.714200     6.061000
O      -3.462300    21.483700     2.431800
O      -0.763100    15.093600     6.332300
C       2.604000    24.530200     1.420200
N      -2.824900    24.011000     3.344500
C      -3.942100    23.753000     2.729900
N      -0.526700    21.347900     3.205500
O      -0.339100    30.255800     2.255900
C      -4.680900    24.969400     2.445100
C      -6.063300    20.939800     1.514000
C      -5.510200    27.539000     2.187200
H      -5.801200    28.416600     2.088400
C      -0.938800    28.111900     3.205500
H      -0.476200    27.643400     2.547300
C      -5.917900    25.205900     1.890800
H      -6.454600    24.500200     1.607800
C      -2.677300    25.370900     3.518700
C      -0.949700    29.498300     3.208800
C       2.357600    17.899100     2.317900
H       2.706200    17.036700     2.302800
C       1.349700    20.437100     2.324600
C      -6.346200    26.507300     1.763500
H      -7.180400    26.694900     1.398400
O      -0.023400    23.833600     2.083400
C      -4.270800    22.371900     2.334600
C      -4.288800    27.319800     2.739900
H      -3.754000    28.039300     2.992800
C      -3.829400    25.991000     2.927500
C      -1.195500    15.856700     5.290600
C       4.070500    24.268200     1.145500
H       4.154200    23.700400     0.376800
H       4.466200    23.835900     1.905900
H       4.519000    25.100700     0.981400
C       1.926300    25.017800     0.182500
H       1.000200    25.185700     0.368400
H       1.999300    24.351400    -0.505800
H       2.345700    25.828700    -0.113900
C       0.602600    19.391300     2.902400
C      -0.592500    19.998700     3.456700
C       1.139700    18.101600     2.889000
H       0.671600    17.392700     3.265800
C       3.103600    18.929300     1.753500
H       3.938400    18.753100     1.381700
C       2.602200    20.206000     1.748400
H       3.084600    20.905300     1.370000
C       0.830700    23.003500     2.111900
C      -7.435200    21.285500     1.026600
H      -7.938800    21.683800     1.741800
H      -7.879000    20.488100     0.728500
H      -7.369700    21.907000     0.298100
C      -0.586500    15.715400     7.578300
H      -0.283000    15.067800     8.218000
H      -1.420800    16.088100     7.871400
H       0.065500    16.414900     7.496200
C       0.583100    21.605900     2.527200
C       2.458900    25.440500     2.594200
H       1.528100    25.613500     2.753300
H       2.913800    26.267100     2.416700
H       2.842600    25.026300     3.371300
C      -6.100300    20.108700     2.760000
H      -6.639100    20.546600     3.421500
H      -5.207500    19.996600     3.096600
H      -6.475600    19.250000     2.559000
C      -5.263800    20.297100     0.413700
H      -5.291900    20.852100    -0.368400
H      -5.634400    19.436000     0.207700
H      -4.352300    20.193200     0.698400
C       0.806600    29.708200     1.639600
H       1.142800    30.324300     0.984800
H       0.575200    28.881600     1.210900
H       1.481900    29.545800     2.302800
