81
Refcode: EQEWOO_comp_0 | Dataset: tmPHOTO | Charge: unknown | Potential Spins: [1, 3, 5]
Ir      7.000100     1.825800     8.984300
O       8.914100     1.922700     9.941300
O       6.213200     1.038100    10.822400
N       7.530200    -0.006500     8.278700
N       6.451600     3.693500     9.571300
C       7.300200    -1.168700     8.911400
H       6.820500    -1.153300     9.731200
C       7.723700    -2.359600     8.428100
H       7.559500    -3.155900     8.920700
C       8.400800    -2.421700     7.208700
C       8.610200    -1.225000     6.533900
H       9.044100    -1.231400     5.690000
C       8.190700    -0.013500     7.086000
C       8.364600     1.319300     6.496800
C       7.788100     2.375500     7.238500
C       7.881400     3.658400     6.686400
H       7.495200     4.394300     7.145500
C       8.528100     3.872800     5.480000
H       8.574600     4.751500     5.124900
C       9.111600     2.823500     4.784700
H       9.568000     2.985700     3.966800
C       9.023500     1.540100     5.288500
H       9.411400     0.813000     4.814500
C       8.843600    -3.753200     6.732800
C      10.054800    -3.949700     6.108300
C      10.434900    -5.298600     5.779200
H      11.268400    -5.455100     5.351700
C       9.642200    -6.333000     6.061800
H       9.920800    -7.214700     5.846200
C       8.386000    -6.121300     6.684500
H       7.814700    -6.859100     6.861100
C       8.001700    -4.891500     7.019100
H       7.167500    -4.762100     7.452200
C      11.008800    -2.892700     5.743900
H      10.670400    -2.401500     4.966900
H      11.873900    -3.297200     5.524600
H      11.117800    -2.277800     6.498600
C       7.248200     4.532500    10.251700
H       8.113900     4.235600    10.506400
C       6.857100     5.811400    10.597400
H       7.441200     6.376100    11.090100
C       5.587800     6.267500    10.210800
C       4.782800     5.393100     9.511900
H       3.916500     5.675500     9.240500
C       5.207600     4.106400     9.197700
C       4.467300     3.095900     8.435600
C       5.190900     1.902100     8.160500
C       4.552600     0.941800     7.351900
H       5.016500     0.145100     7.119500
C       3.251800     1.139600     6.889000
H       2.839000     0.478900     6.346200
C       2.559600     2.285100     7.214300
H       1.664900     2.400500     6.915000
C       3.163800     3.270400     7.978300
H       2.688300     4.064300     8.190200
C       5.162600     7.661600    10.478500
C       5.183000     8.217600    11.757400
C       4.762500     9.541000    11.906100
H       4.770900     9.930500    12.772300
C       4.341500    10.295000    10.848400
H       4.060500    11.191100    10.986000
C       4.326600     9.751100     9.571300
H       4.044500    10.271500     8.827800
C       4.724600     8.443900     9.400300
H       4.703000     8.062500     8.530400
C       5.504100     7.438400    12.978700
H       5.329500     6.487900    12.816900
H       4.945600     7.750400    13.722200
H       6.449300     7.561400    13.207300
C       9.148900     1.574700    11.129100
C       8.241900     1.024700    12.047400
H       8.593500     0.795900    12.898700
C       6.898200     0.777800    11.859600
C       6.131100     0.102400    12.982400
H       5.245600     0.515900    13.067900
H       6.623400     0.207400    13.824500
H       6.028600    -0.851400    12.781600
C      10.587200     1.769100    11.575200
H      11.103800     0.961100    11.372600
H      10.610500     1.937800    12.540000
H      10.977300     2.532400    11.101200
