48
Refcode: ESESAX_comp_0 | Dataset: tmPHOTO | Charge: 1 | Potential Spins: [1, 3, 5]
Ag      5.426100     9.227700    -0.224000
N       5.850300     6.911500    -0.378300
N       4.840200     8.252500     1.765200
C       6.392000     6.283800    -1.476800
C       6.772700     7.073400    -2.581500
H       6.664400     7.996700    -2.554100
C       7.304200     6.475100    -3.696500
H       7.558300     6.997600    -4.421800
C       7.468000     5.083300    -3.753700
H       7.812600     4.692000    -4.524000
C       7.129400     4.298500    -2.697500
H       7.249900     3.377800    -2.747900
C       6.590900     4.879100    -1.515200
C       6.198200     4.149200    -0.369000
C       5.637100     4.793900     0.703000
H       5.357100     4.309400     1.446000
C       5.487300     6.197600     0.672700
C       4.927600     6.937900     1.854100
C       4.526800     6.243200     3.012500
H       4.593300     5.315700     3.041300
C       4.036500     6.925200     4.100800
C       3.958200     8.341400     4.054600
C       3.477900     9.193700     5.101600
H       3.210400     8.819100     5.909800
C       3.408600    10.534200     4.934000
H       3.080000    11.064600     5.624200
C       3.820300    11.133600     3.744700
H       3.766100    12.057600     3.649100
C       4.305800    10.367700     2.717800
H       4.590400    10.775300     1.931900
C       4.375000     8.966700     2.845000
C       6.441500     2.675000    -0.277700
C       5.487100     0.599800     0.310400
H       5.619400     0.169500    -0.538300
H       4.690900     0.257300     0.723000
H       6.241500     0.425900     0.877600
C       3.576700     6.134900     5.293400
C       3.074000     3.951500     6.053800
H       3.608100     4.089500     6.839700
H       3.178000     3.046500     5.750000
H       2.151500     4.115500     6.260800
O       5.171800    10.708000    -1.883500
H       5.951200    10.756300    -2.368100
H       4.473600    10.544700    -2.415300
O       7.506500     2.156600    -0.520500
O       5.351200     2.034100     0.110400
O       3.297800     6.577800     6.350100
O       3.503200     4.859000     5.015300
