58
Refcode: ESIQUT_comp_0 | Dataset: tmPHOTO | Charge: 0 | Potential Spins: [1, 3, 5]
Re     -3.798000     9.161300    15.792900
Cl     -1.627200     9.914700    15.075500
N      -3.535000     7.632500    14.316800
C      -5.569100     8.663600    16.232400
N      -3.155200     6.367900    14.300200
N      -4.363900    10.020100    13.910500
C      -3.181800     8.298500    17.330800
N       3.414300     4.782900    14.893100
N       4.687400     4.881900    10.657900
C      -3.988000    10.697600    16.859600
C      -3.711700     7.964200    13.061300
N       3.269700     5.566800    13.839600
C       3.974700     4.998600    12.891200
O      -4.088600    11.610600    17.505600
C       1.337700     5.279300    16.011600
C       4.052300     5.581500    11.573200
C      -0.566900     6.607200    15.612400
H      -0.936700     7.444800    15.451800
O      -2.841900     7.783500    18.267400
C       0.768600     6.483300    15.769500
H       1.307300     7.238700    15.709200
C       0.516500     4.209900    16.125000
H       0.881000     3.376900    16.319800
C      -4.383900     9.786700    11.566100
H      -4.246900     9.258600    10.812600
C      -3.431800     6.911800    12.233400
H      -3.473900     6.893200    11.303900
C      -4.170300     9.288600    12.814500
C      -1.365600     5.525800    15.686800
C       4.190900     3.757300    14.623800
H       4.427800     3.081800    15.216700
C       4.577200     3.854300    13.356600
H       5.133700     3.275900    12.887700
C       2.794100     5.134000    16.140300
H       3.170900     5.969200    16.459200
H       2.989300     4.448900    16.798200
C      -2.820800     5.642500    15.483700
H      -3.205600     4.753300    15.428100
H      -3.213200     6.089000    16.250200
C      -3.085900     5.914900    13.054200
H      -2.839600     5.055600    12.797900
C       3.503900     6.803000    11.314500
H       3.067300     7.281400    11.983000
C      -0.810100     4.324100    15.962000
H      -1.351500     3.570900    16.038800
C       3.610800     7.299400    10.063800
H       3.230300     8.121800     9.853600
C      -4.799100    11.065700    11.446800
H      -4.946600    11.435400    10.607100
C       4.266300     6.600100     9.127200
H       4.351800     6.927100     8.260300
C      -4.779000    11.259700    13.765200
H      -4.924900    11.778400    14.523500
C       4.799300     5.411900     9.472100
H       5.277100     4.942700     8.827200
C      -4.996900    11.798200    12.555800
H      -5.286200    12.679100    12.485000
O      -6.558500     8.443800    16.528900
