91
Refcode: FEMQET_comp_0 | Dataset: tmPHOTO | Charge: 0 | Potential Spins: [1, 3, 5]
Pt      4.716100     4.992300     0.000000
P       6.405900     6.551300    -0.092900
C       3.538800     6.234000     1.003800
C       2.842700     6.995300     1.637900
C       2.131000     7.878300     2.409500
C       1.517900     8.619800     3.056100
C       7.952800     5.897300     0.616200
C       7.789400     5.487500     2.059400
C       9.075700     4.978300     2.672100
C       8.880600     4.541800     4.118900
C       6.113400     8.122300     0.778800
C       7.265400     9.112600     0.766300
C       6.880300    10.459000     1.353900
C       8.036200    11.427900     1.416400
C       6.796400     7.027100    -1.811200
C       5.685300     7.785900    -2.479200
C       5.989400     8.132600    -3.926000
C       4.891900     8.977600    -4.558300
H       1.016500     9.227900     3.586600
H       8.247500     5.114000     0.087500
H       8.658600     6.588900     0.553700
H       7.467700     6.264300     2.581000
H       7.101000     4.778000     2.116600
H       9.758800     5.693000     2.636400
H       9.408600     4.211100     2.143400
H       9.734000     4.225000     4.481500
H       8.221800     3.818100     4.154600
H       8.561400     5.302000     4.647600
H       5.322900     8.559300     0.373300
H       5.888200     7.917900     1.720100
H       7.572200     9.242100    -0.166100
H       8.020100     8.737500     1.286000
H       6.525500    10.322400     2.268400
H       6.157200    10.854300     0.805600
H       7.731500    12.274900     1.804000
H       8.378800    11.586200     0.512600
H       8.748000    11.051300     1.975500
H       7.614100     7.584600    -1.812900
H       6.988200     6.209100    -2.336300
H       5.518800     8.623000    -1.977300
H       4.858100     7.243400    -2.445200
H       6.095000     7.295100    -4.444000
H       6.846600     8.626300    -3.968800
H       5.122300     9.167400    -5.492400
H       4.804500     9.820900    -4.067100
H       4.042200     8.489900    -4.524300
P       3.026400     3.433400     0.092900
C       1.479400     4.087400    -0.616200
C       1.642900     4.497200    -2.059400
C       0.356500     5.006400    -2.672100
C       0.551600     5.442900    -4.118900
H      -0.301800     5.759700    -4.481500
H       1.210400     6.166600    -4.154600
H       0.870800     4.682700    -4.647600
H      -0.326600     4.291700    -2.636400
H       0.023600     5.773600    -2.143400
H       1.964500     3.720400    -2.581000
H       2.331300     5.206600    -2.116600
H       1.184800     4.870700    -0.087500
H       0.773600     3.395800    -0.553700
C       3.318800     1.862400    -0.778800
C       2.166800     0.872100    -0.766300
C       2.552000    -0.474300    -1.353900
C       1.396000    -1.443200    -1.416400
H       1.700800    -2.290200    -1.804000
H       1.053500    -1.601500    -0.512600
H       0.684200    -1.066600    -1.975500
H       2.906700    -0.337700    -2.268400
H       3.275000    -0.869600    -0.805600
H       1.860000     0.742600     0.166100
H       1.412100     1.247200    -1.286000
H       4.109400     1.425400    -0.373300
H       3.544000     2.066800    -1.720100
C       2.635800     2.957600     1.811200
C       3.746900     2.198800     2.479200
C       3.442900     1.852100     3.926000
C       4.540300     1.007100     4.558300
H       4.309900     0.817300     5.492400
H       4.627800     0.163800     4.067100
H       5.390000     1.494800     4.524300
H       3.337300     2.689600     4.444000
H       2.585600     1.358400     3.968800
H       3.913400     1.361700     1.977300
H       4.574200     2.741300     2.445200
H       1.818100     2.400100     1.812900
H       2.444000     3.775600     2.336300
C       5.893400     3.750700    -1.003800
C       6.589500     2.989400    -1.637900
C       7.301200     2.106400    -2.409500
C       7.914300     1.364900    -3.056100
H       8.415700     0.756800    -3.586600
