83
Refcode: FOZYAW_comp_0 | Dataset: tmCAT;tmPHOTO | Charge: 1 | Potential Spins: [1, 3, 5]
Ag      6.375700     0.845100     3.372700
O       7.401900     3.747100     2.613200
N       5.859700     0.663400     0.284700
N       7.735000     1.612400     0.743300
C       2.308000     3.172800     1.042800
H       2.474600     3.623800     0.211800
H       2.329100     3.807100     1.761900
H       1.444100     2.752700     1.011800
C       3.373200     2.120100     1.266800
H       4.237000     2.558100     1.310000
H       3.215700     1.698300     2.126200
C       3.425900     1.085200     0.242800
H       3.534600     1.511800    -0.620600
H       2.576400     0.618000     0.233400
C       4.536500     0.063300     0.420900
H       4.459900    -0.343900     1.297800
H       4.435100    -0.637500    -0.242800
C       6.392700     1.085200    -0.929500
C       7.589600     1.691900    -0.636800
C       8.392800     2.251500    -1.621600
H       9.203400     2.660200    -1.423300
C       7.917800     2.162300    -2.907300
H       8.419600     2.530500    -3.599400
C       6.719000     1.544200    -3.202700
H       6.439500     1.505300    -4.089100
C       5.928000     0.987900    -2.236800
H       5.123600     0.567700    -2.443200
C       6.673700     0.989500     1.301900
C       8.817700     2.222300     1.502900
H       9.646400     2.133100     1.006400
H       8.922300     1.751900     2.344700
C       8.564100     3.675700     1.778100
H       9.326700     4.071500     2.228700
H       8.413100     4.155800     0.948400
C       6.949200     4.991200     2.943700
C       7.483300     6.167200     2.534900
H       8.225200     6.160700     1.975100
C       6.931800     7.406500     2.942400
C       7.481400     8.634400     2.514700
H       8.214400     8.642500     1.944000
C       6.930100     9.815300     2.942400
H       7.293100    10.623100     2.660400
O       5.349600     3.747100     4.132300
N       6.891800     0.663400     6.460800
N       5.016500     1.612400     6.002100
C      10.443500     3.172800     5.702600
H      10.276900     3.623800     6.533600
H      10.422400     3.807100     4.983500
H      11.307400     2.752700     5.733600
C       9.378200     2.120100     5.478600
H       8.514500     2.558100     5.435500
H       9.535800     1.698300     4.619300
C       9.325500     1.085200     6.502600
H       9.216900     1.511800     7.366000
H      10.175000     0.618000     6.512000
C       8.215000     0.063300     6.324500
H       8.291600    -0.343900     5.447600
H       8.316300    -0.637500     6.988300
C       6.358800     1.085200     7.675000
C       5.161800     1.691900     7.382200
C       4.358600     2.251500     8.367000
H       3.548100     2.660200     8.168700
C       4.833700     2.162300     9.652700
H       4.331800     2.530500    10.344800
C       6.032400     1.544200     9.948200
H       6.312000     1.505300    10.834500
C       6.823500     0.987900     8.982200
H       7.627900     0.567700     9.188600
C       6.077700     0.989500     5.443600
C       3.933800     2.222300     5.242500
H       3.105000     2.133100     5.739000
H       3.829100     1.751900     4.400700
C       4.187400     3.675700     4.967300
H       3.424700     4.071500     4.516700
H       4.338400     4.155800     5.797000
C       5.802300     4.991200     3.801700
C       5.268200     6.167200     4.210500
H       4.526300     6.160700     4.770400
C       5.819700     7.406500     3.803100
C       5.270100     8.634400     4.230700
H       4.537100     8.642500     4.801400
C       5.821300     9.815300     3.803100
H       5.458400    10.623100     4.085000
