98
Refcode: GABLAZ_comp_0 | Dataset: tmPHOTO | Charge: 1 | Potential Spins: [1, 3, 5]
C       8.383300    -3.680000    14.042800
C       8.930300    -2.571800    14.697000
C      10.253000    -2.585800    15.123500
C      11.045600    -3.687500    14.861400
C      10.522800    -4.780500    14.190700
C       9.184200    -4.784800    13.786600
C       5.709600    -3.850500    15.061000
C       6.315300    -4.310100    16.228200
C       5.542200    -4.619000    17.341900
C       4.170200    -4.476100    17.309800
C       3.565600    -4.016700    16.151400
C       4.325400    -3.706600    15.034800
C       6.304800    -5.113800    12.604900
C       5.529500    -6.153000    13.141400
C       5.209800    -7.278900    12.393300
C       5.677200    -7.401900    11.096000
C       6.464900    -6.400900    10.539200
C       6.743800    -5.264500    11.288500
C       7.317800    -3.925800     9.416500
C       8.213500    -4.445600     8.499200
C       8.071900    -4.128000     7.152200
C       7.039400    -3.307500     6.745500
C       6.145000    -2.794200     7.675700
C       6.271700    -3.086800     9.037500
C       3.866600    -3.464000    10.642500
C       3.703600    -4.669000     9.954600
C       2.706800    -5.558100    10.327100
C       1.840300    -5.240400    11.361000
C       1.961500    -4.024700    12.022400
C       2.988000    -3.148400    11.681600
C       4.417700    -0.942700     9.384700
C       3.059400    -0.930000     9.084200
C       2.512000     0.131200     8.370700
C       3.315900     1.167100     7.934800
C       4.667400     1.156700     8.220400
C       5.214100     0.118600     8.952000
C       9.527300    -1.946500    11.492900
C      10.799100    -1.438300    11.257500
C      10.956800    -0.071200    11.111400
C       9.848400     0.743400    11.235700
C       8.605500     0.166000    11.487400
C       7.375400     0.978500    11.653200
C       7.277900     2.283400    11.170300
C       6.078200     2.952400    11.297400
C       5.021800     2.335200    11.938700
C       5.195400     1.043500    12.445300
C       4.124500     0.406600    13.246800
C       2.786000     0.477300    12.845000
C       1.794800    -0.057700    13.653500
C       2.120100    -0.639100    14.871900
C       3.436300    -0.689700    15.283900
C       4.441600    -0.183200    14.471100
Cu      6.479800    -1.746800    12.140000
P       5.224000    -2.289700    10.319300
O       7.512500    -4.222100    10.768400
P       6.639400    -3.549600    13.511200
N       8.443400    -1.164500    11.606600
N       6.340900     0.357200    12.275700
H       8.393100    -1.803300    14.851700
H      10.611000    -1.840800    15.593100
H      11.952500    -3.695400    15.142800
H      11.074900    -5.530200    14.005200
H       8.824100    -5.541900    13.338900
H       7.259000    -4.412700    16.263900
H       5.963000    -4.931300    18.133900
H       3.646000    -4.690600    18.072300
H       2.621300    -3.913200    16.121300
H       3.899300    -3.393400    14.245400
H       5.216600    -6.084900    14.035300
H       4.670800    -7.963600    12.771600
H       5.458600    -8.172600    10.585000
H       6.807700    -6.492700     9.657500
H       8.918500    -5.013100     8.785500
H       8.684300    -4.475600     6.513400
H       6.940800    -3.093500     5.826000
H       5.435100    -2.235400     7.382300
H       4.277800    -4.880100     9.228300
H       2.618600    -6.387600     9.872100
H       1.164000    -5.854400    11.617500
H       1.344800    -3.791100    12.705600
H       3.091400    -2.333300    12.157800
H       2.504000    -1.647200     9.367800
H       1.581200     0.143700     8.182200
H       2.939400     1.884200     7.439300
H       5.222400     1.865100     7.913600
H       6.140800     0.126800     9.162200
H       9.420900    -2.887100    11.577000
H      11.548200    -2.019600    11.197300
H      11.812000     0.301000    10.928700
H       9.932400     1.685300    11.150800
H       8.024600     2.704300    10.760600
H       5.978900     3.829700    10.946700
H       4.188700     2.782200    12.034700
H       2.557600     0.891000    12.021200
H       0.888000    -0.025900    13.371900
H       1.436800    -1.002800    15.422000
H       3.654800    -1.071700    16.125800
H       5.348800    -0.239000    14.749600
