38
Refcode: GEJVID_comp_0 | Dataset: tmPHOTO | Charge: 0 | Potential Spins: [1, 3, 5]
C       5.574200    13.589900     3.009300
C       7.987000    11.331000     2.821000
H       7.047000    11.243600     2.929100
C       8.749600    10.186300     2.814600
H       8.343500     9.334400     2.928400
C      10.112200    10.294100     2.642000
H      10.659200     9.519400     2.629900
C      10.678700    11.566900     2.484600
H      11.616600    11.656300     2.365000
C       9.878000    12.679000     2.503200
C      10.314900    14.077900     2.350000
C      11.606400    14.561800     2.090900
H      12.335400    13.962000     1.988500
C      11.803200    15.932200     1.988500
C      10.742200    16.849100     2.168200
H      10.900800    17.784400     2.111600
C       9.463600    16.367300     2.428000
C       9.280200    14.976600     2.526800
C       8.223500    17.097200     2.615600
C       8.047300    18.481800     2.589100
H       8.805200    19.034800     2.443100
C       6.828500    19.075500     2.765200
H       6.736600    20.018900     2.735100
C       5.726800    18.256100     2.989900
H       4.863400    18.632200     3.118800
C       5.913500    16.869500     3.022900
H       5.165900    16.308300     3.193200
C      13.131600    16.495400     1.611300
C      15.425000    16.060200     1.292000
H      15.647800    16.853200     1.823200
H      15.434500    16.292000     0.340000
H      16.084300    15.356800     1.463800
N       4.517100    13.154800     3.092300
N       8.493500    12.553000     2.683600
N       7.115800    16.306300     2.821700
O      13.307300    17.648200     1.279100
O      14.090800    15.582400     1.665000
Pt      7.480800    14.312300     2.795400
