42
Refcode: GIVSOV_comp_0 | Dataset: tmPHOTO | Charge: 0 | Potential Spins: [1, 3, 5]
Au      2.219600     2.500300     1.954100
C      -0.382900     4.074300     1.414100
H       0.151900     4.834200     1.416700
C      -1.749700     4.205400     1.237500
H      -2.130100     5.047000     1.124800
C      -2.540300     3.079000     1.231300
H      -3.463800     3.153700     1.127300
C      -1.953800     1.838400     1.381600
H      -2.478100     1.071400     1.370300
C      -0.569100     1.738300     1.551900
C       0.163500     0.485000     1.742300
C       1.551200     0.576600     1.927700
C       2.288800    -0.585100     2.124400
H       3.209500    -0.532900     2.245900
C       1.661600    -1.814400     2.141900
H       2.160000    -2.587000     2.280900
C       0.292900    -1.903200     1.950200
H      -0.124500    -2.733600     1.965300
C      -0.434200    -0.782400     1.743600
H      -1.351500    -0.854300     1.598300
C       4.148300     1.975100     2.294700
C       4.670000     1.842600     3.583600
C       6.018900     1.571900     3.789000
H       6.346600     1.504200     4.657000
C       6.875400     1.399900     2.720600
C       6.377000     1.488700     1.436700
H       6.946900     1.364700     0.710200
C       5.027600     1.765100     1.218700
C       3.841800     2.061100     4.824900
C       8.332300     1.146200     2.928500
C       4.569100     1.804500    -0.216700
F       2.613500     1.595900     4.746000
F       3.750500     3.344000     5.139300
F       4.380400     1.488700     5.899600
F       8.657000     1.022100     4.197400
F       9.072700     2.109000     2.438700
F       8.732300     0.033800     2.366100
F       5.571100     1.848200    -1.064700
F       3.846200     0.734500    -0.518600
F       3.801700     2.833700    -0.514800
I       2.978700     5.041400     2.092900
N       0.184800     2.861900     1.580700
