70
Refcode: HABGUP_comp_0 | Dataset: tmPHOTO | Charge: 1 | Potential Spins: [1, 3, 5]
Ir     -0.710100     5.949700     6.584400
N       0.007500     5.914000     4.614800
N       0.018900     4.882000     2.674700
H      -0.164200     4.163700     2.058700
N      -1.028800     3.771700     4.516600
N      -1.303500     3.980500     5.761100
N      -4.047800    -0.227000     8.184700
N       0.910500     5.103400     7.484500
N      -2.334000     6.970600     5.887400
C      -0.355600     4.823700     3.953600
C       0.648500     6.080500     2.503100
H       1.026200     6.409000     1.695300
C       0.634900     6.720800     3.705600
H       0.998700     7.581000     3.881800
C      -2.013100     2.915200     6.338200
C      -2.127400     2.846400     7.723100
H      -1.741700     3.534500     8.253300
C      -2.782600     1.808000     8.342200
H      -2.829400     1.782700     9.290500
C      -3.383300     0.785500     7.592100
C      -3.270300     0.872800     6.190000
H      -3.677300     0.203600     5.651900
C      -2.595600     1.888500     5.586400
H      -2.517500     1.899900     4.639800
C      -4.612300    -1.322800     7.425200
H      -3.909300    -1.742600     6.885600
H      -5.317300    -0.983900     6.835700
H      -4.990100    -1.986200     8.039700
C      -4.187700    -0.293900     9.622700
H      -4.542400     0.555200     9.956400
H      -3.311600    -0.462600    10.028200
H      -4.802300    -1.020900     9.856600
C       0.828800     4.948600     8.846000
C       1.910600     4.435100     9.546200
H       1.858400     4.330200    10.488200
C       3.059400     4.078500     8.878700
H       3.805900     3.735000     9.356000
C       3.114200     4.224100     7.507900
H       3.892900     3.969400     7.025900
C       2.035300     4.740400     6.851300
H       2.082500     4.845300     5.909300
C      -0.467600     5.332300     9.407400
C      -1.380300     5.865200     8.467000
C      -2.645400     6.224500     8.961400
H      -3.274100     6.640300     8.381200
C      -2.988900     5.980900    10.288600
H      -3.849500     6.230100    10.603600
C      -2.100300     5.383200    11.146400
H      -2.363200     5.181500    12.035300
C      -0.827200     5.077800    10.719000
H      -0.200400     4.694200    11.322600
C      -2.319500     8.319300     6.088600
C      -3.402700     9.084200     5.686300
H      -3.398600    10.020600     5.839100
C      -4.481300     8.502200     5.070200
H      -5.233000     9.024400     4.817600
C      -4.459600     7.138700     4.822200
H      -5.175900     6.717400     4.362200
C      -3.379300     6.408000     5.255800
H      -3.371700     5.471400     5.104500
C      -1.083900     8.809100     6.689100
C      -0.124200     7.820600     6.972900
C       1.122400     8.251500     7.440800
H       1.790000     7.608700     7.654500
C       1.395800     9.598600     7.598300
H       2.257700     9.872500     7.888400
C       0.427900    10.543300     7.339400
H       0.619000    11.464000     7.472000
C      -0.806700    10.160600     6.890300
H      -1.474000    10.813200     6.717100
