141
Refcode: HACDIA_comp_0 | Dataset: tmCAT;tmPHOTO | Charge: 0 | Potential Spins: [1, 3, 5]
F       1.256900     4.693300    11.413800
F      -2.437200     4.368500    14.272700
N       1.258600    -1.561800    13.530000
N       2.694200    -0.189700    15.557800
C       0.591400    -0.351400    13.451900
C       0.892600     0.788800    14.193200
C       1.812100     0.837000    15.282200
C       1.999300     1.914700    16.235700
C       3.016400     1.529900    17.059500
C       3.474600     0.238200    16.602700
C       4.569800    -0.430500    17.147900
C       0.668900    -2.419800    12.644300
C      -0.444000    -1.786800    11.992900
C      -0.503900    -0.498300    12.461600
C      -1.535800     0.492600    12.038600
C      -1.388800    -2.417500    11.014400
C      -1.110400    -2.143400     9.526000
C       0.125900    -2.820600     8.964500
C       0.258000    -2.685000     7.455400
C       1.438000    -3.434900     6.870400
C       1.535600    -3.333900     5.364300
C       3.529600     2.252200    18.297400
C       2.619000     1.903100    19.545600
C       2.755200     2.652000    20.731900
C       1.681200     2.268900    21.766500
C       1.890400     3.037500    23.002900
C       0.949900     2.665200    24.077200
C       1.217600     3.179100    16.387500
C       0.306900     2.083900    13.743700
C      -0.871100     2.628600    14.253600
C      -1.298000     3.857200    13.748100
C      -0.613000     4.574700    12.822600
C       0.557300     4.016500    12.356900
C       1.037200     2.799600    12.778400
Zn      2.841900    -2.065800    14.737000
H       5.114100     0.087700    17.846500
H      -2.157300     0.118200    11.365100
H      -1.104100     1.325300    11.682000
H      -2.097100     0.778000    12.858000
H      -2.324700    -2.167700    11.228100
H      -1.312800    -3.444900    11.124900
H      -1.911700    -2.412900     8.974800
H      -1.002900    -1.133400     9.422800
H       0.084700    -3.799500     9.206200
H       0.942500    -2.424700     9.409500
H      -0.605200    -3.007900     7.041300
H       0.341500    -1.692600     7.244700
H       1.360500    -4.410000     7.128300
H       2.290100    -3.075200     7.266800
H       2.316300    -3.855600     4.998800
H       0.690700    -3.716000     4.926600
H       1.619600    -2.379700     5.065100
H       4.478700     1.910300    18.506700
H       3.582800     3.227600    18.144100
H       2.651000     0.923900    19.747500
H       1.616500     2.073100    19.224400
H       3.685100     2.437600    21.125400
H       2.742300     3.641700    20.550700
H       1.679200     1.258700    21.944800
H       0.737700     2.464100    21.371500
H       2.877300     2.913000    23.328600
H       1.826100     4.055300    22.823100
H       1.132500     3.183600    24.933500
H       1.077800     1.682700    24.292400
H       0.026000     2.825000    23.786900
H       1.578400     3.721600    17.156800
H       0.243300     2.953900    16.614400
H       1.234100     3.711700    15.560800
H      -1.385900     2.135600    14.989000
H      -0.944500     5.480700    12.495500
H       1.907100     2.419900    12.398200
F       4.426900    -8.824900    18.060100
F       8.121000    -8.500100    15.201200
N       4.425200    -2.569800    15.943900
N       2.989600    -3.941900    13.916100
C       5.092400    -3.780200    16.022000
C       4.791200    -4.920400    15.280700
C       3.871700    -4.968600    14.191700
C       3.684500    -6.046300    13.238200
C       2.667400    -5.661400    12.414400
C       2.209100    -4.369800    12.871300
C       1.114000    -3.701100    12.326000
C       5.014900    -1.711800    16.829600
C       6.127800    -2.344800    17.481000
C       6.187700    -3.633300    17.012300
C       7.219600    -4.624200    17.435300
C       7.072500    -1.714100    18.459500
C       6.794100    -1.988200    19.947900
C       5.557900    -1.310900    20.509400
C       5.425800    -1.446600    22.018500
C       4.245800    -0.696700    22.603500
C       4.148200    -0.797700    24.109700
C       2.154200    -6.383800    11.176500
C       3.064700    -6.034700     9.928300
C       2.928600    -6.783600     8.742000
C       4.002600    -6.400500     7.707400
C       3.793400    -7.169100     6.471000
C       4.733900    -6.796800     5.396700
C       4.466200    -7.310700    13.086400
C       5.376900    -6.215500    15.730200
C       6.554900    -6.760200    15.220300
C       6.981800    -7.988800    15.725800
C       6.296800    -8.706300    16.651300
C       5.126500    -8.148100    17.117000
C       4.646600    -6.931200    16.695500
H       0.569700    -4.219300    11.627500
H       7.841100    -4.249800    18.108800
H       6.787900    -5.456900    17.791900
H       7.780900    -4.909600    16.615900
H       8.008500    -1.963900    18.245800
H       6.996500    -0.686700    18.349000
H       7.595500    -1.718700    20.499100
H       6.686700    -2.998200    20.051100
H       5.599000    -0.332100    20.267700
H       4.741300    -1.706900    20.064400
H       6.289000    -1.123700    22.432600
H       5.342300    -2.439000    22.229200
H       4.323300     0.278400    22.345600
H       3.393700    -1.056400    22.207100
H       3.367500    -0.276000    24.475100
H       4.993000    -0.415600    24.547300
H       4.064100    -1.751900    24.408800
H       1.205100    -6.041900    10.967200
H       2.101000    -7.359200    11.329800
H       3.032800    -5.055500     9.726400
H       4.067300    -6.204700    10.249600
H       1.998700    -6.569200     8.348500
H       2.941400    -7.773300     8.923200
H       4.004600    -5.390300     7.529100
H       4.946100    -6.595700     8.102400
H       2.806500    -7.044600     6.145300
H       3.857700    -8.186900     6.650800
H       4.551300    -7.315200     4.540500
H       4.606000    -5.814200     5.181500
H       5.657800    -6.956600     5.687000
H       4.105400    -7.853200    12.317100
H       5.440500    -7.085500    12.859500
H       4.449700    -7.843300    13.913200
H       7.069700    -6.267200    14.485000
H       6.628300    -9.612300    16.978400
H       3.776700    -6.551500    17.075700
