37
Refcode: HAKHIK_comp_0 | Dataset: tmPHOTO | Charge: 0 | Potential Spins: [1, 3, 5]
Pt     -1.298800     2.349400     1.069700
S      -3.374200     2.314000     0.080300
S      -1.124800     3.834400    -0.673900
O      -5.459700     2.743100    -1.910900
O      -5.082500     3.898500    -3.817600
N      -2.102600     5.438400    -3.792200
C      -2.762200     3.444800    -1.089100
C      -3.390500     3.903600    -2.225700
C      -2.674500     4.758800    -3.095000
C      -4.741600     3.458900    -2.577400
C      -6.316200     3.388200    -4.341500
C      -6.445800     3.876300    -5.725300
C      -1.924300     1.520000     2.989400
C      -1.432500     0.490000     2.228900
C      -0.055500    -0.149100     2.397900
C       1.051600     0.507200     1.552800
C       0.865400     2.000000     1.308800
C       0.474400     2.915900     2.260500
C       0.285000     2.556200     3.718300
C      -1.165600     2.244700     4.088000
H      -6.315900     2.421700    -4.340400
H      -7.073200     3.666000    -3.805900
H      -5.730300     3.603400    -6.251300
H      -7.275200     3.559800    -6.121400
H      -6.498500     4.841000    -5.719000
H      -2.868200     1.491500     3.118300
H      -2.098300    -0.116700     1.915100
H       0.195600    -0.095200     3.326400
H      -0.116800    -1.084800     2.173900
H       1.070700     0.062200     0.698200
H       1.890400     0.370600     1.977400
H       1.396100     2.361400     0.600000
H       0.794800     3.817400     2.109500
H       0.803700     1.767300     3.924300
H       0.599600     3.261600     4.287600
H      -1.586500     3.092200     4.254900
H      -1.170100     1.736400     4.882300
