86
Refcode: HAVNUQ_comp_0 | Dataset: tmPHOTO | Charge: unknown | Potential Spins: [1, 3, 5]
Pt      3.968600     7.029800     5.387600
S       7.682200     8.770800     1.692300
N       5.628500     8.104600     5.475100
O       2.240100     6.002400     5.467400
O       4.297100     6.422900     3.415800
C       3.811300     7.664400     7.233300
O       1.775400     7.618300    10.302700
C       5.887800     8.760100     6.658500
C       4.861300     8.506500     7.668000
C       9.761200     9.465900     3.028300
H      10.342500     9.713600     3.710800
C       7.036800     9.552600     6.735600
C       2.246100     5.251300     3.224000
H       1.733600     4.766100     2.618000
C       1.713200     5.383600     4.477400
C       3.782800     8.710900     9.809800
H       3.763200     9.060300    10.671600
C       7.596800     9.024400     4.433700
C       3.454300     5.746300     2.734000
C       0.402800     4.748400     4.835700
H       0.554600     3.852800     5.140900
H      -0.019800     5.260200     5.532900
H      -0.165400     4.729300     4.061300
C       7.529600    10.383900     7.884200
C       2.766900     7.363200     8.105900
H       2.073800     6.811600     7.822500
C       8.405400     9.128400     3.212100
C       7.898600     9.666800     5.631600
C       4.825800     9.021400     8.964500
H       5.511000     9.576900     9.260100
C       9.051300    10.566300     5.964400
C      -2.299100     5.408600    11.919900
H      -2.718000     6.265400    12.099100
H      -1.799200     5.155800    12.711600
C      -3.381200     4.384300    11.689200
H      -3.898600     4.644700    10.908400
H      -2.967700     3.528700    11.496400
C      -0.218300     6.564200    11.076700
H      -0.606100     7.428000    11.286900
H       0.274700     6.259900    11.855300
C      -1.328500     5.577400    10.768600
H      -0.936400     4.715900    10.556900
H      -1.815100     5.882500     9.986900
C       0.730900     6.712300     9.911700
H       0.258900     7.061000     9.139300
H       1.108600     5.850200     9.676800
C       2.752300     7.871800     9.373500
C      -4.328000     4.219300    12.878000
H      -3.803700     3.991000    13.662000
H      -4.758100     5.071200    13.051500
C      -7.344600     1.943200    13.726200
H      -7.853900     2.153000    12.926200
H      -6.887900     1.103400    13.562400
C       6.444600     8.249800     4.424700
H       6.226200     7.803700     3.638500
C      10.114200     9.375900     1.664400
H      10.975100     9.552200     1.362300
C      -5.380000     3.186600    12.694900
H      -5.919200     3.424700    11.923700
H      -4.952800     2.337500    12.505300
C       3.872600     5.466300     1.334100
H       3.748800     6.252500     0.800100
H       4.800000     5.213900     1.320600
H       3.338800     4.750300     0.976800
C       9.131300     9.022700     0.845000
H       9.224500     8.925500    -0.077100
C      -6.297300     3.013600    13.899800
H      -6.741400     3.857200    14.079700
H      -5.756500     2.796000    14.674100
C      -8.297000     1.733800    14.828300
H      -7.801400     1.488900    15.625200
H      -8.751400     2.571400    15.011500
C      -9.333100     0.669400    14.555200
H      -9.766700     0.886600    13.713400
H      -8.868200    -0.171800    14.426700
C     -10.358600     0.462900    15.538400
H     -10.960300    -0.222900    15.236400
H      -9.956900     0.189000    16.367400
H     -10.847300     1.277900    15.679800
C       8.821400    11.037100     7.378800
H       8.738000    12.003200     7.400000
H       9.568500    10.781200     7.942100
H       7.650000     9.906200     8.691400
H       6.914800    11.072300     8.096900
H       9.087200    11.301900     5.314400
H       9.904300    10.094200     5.847800
