73
Refcode: HAVPEC_comp_0 | Dataset: tmPHOTO | Charge: 1 | Potential Spins: [1, 3, 5]
Pt     23.863900    12.592600    15.362100
P      22.240200    14.073500    16.021400
N      26.493500    10.961100    14.559700
N      24.600800     9.991700    14.404000
N      25.374000    13.985000    15.816900
C      25.176600    11.163500    14.744200
C      26.727800     9.672100    14.122800
H      27.577800     9.293300    13.931000
C      25.537700     9.046400    14.018900
H      25.377300     8.152900    13.742300
C      27.569700    11.928500    14.743100
H      28.345100    11.660700    14.205900
H      27.823600    11.960700    15.689500
H      27.264500    12.815000    14.456900
C      23.182400     9.889000    14.459800
C      22.566000    11.106000    14.896200
C      21.188200    11.069700    14.946600
H      20.723500    11.856800    15.203500
C      20.435000     9.907500    14.632000
C      19.009200     9.893000    14.722300
H      18.547700    10.668400    15.018100
C      18.304900     8.770900    14.386600
H      17.357400     8.771200    14.453700
C      18.972600     7.614600    13.941000
H      18.471800     6.843200    13.702300
C      20.336100     7.593100    13.849400
H      20.774800     6.805200    13.553700
C      21.100000     8.729800    14.190700
C      22.516400     8.757500    14.108200
H      22.995000     7.992900    13.811100
C      25.816400    14.866900    14.898200
H      25.314700    14.992800    14.102000
C      26.973000    15.595200    15.078800
H      27.277000    16.191100    14.404200
C      27.690300    15.444400    16.257000
H      28.509500    15.909000    16.386500
C      27.191800    14.611900    17.235400
H      27.637600    14.533500    18.071500
C      26.036400    13.892400    16.986000
H      25.700800    13.313400    17.659100
C      22.898900    15.547700    16.864500
C      23.178900    16.714800    16.165900
H      22.969500    16.765600    15.240300
C      23.759100    17.805000    16.795800
H      23.937000    18.600000    16.306600
C      24.078300    17.728800    18.145100
H      24.467400    18.476100    18.583100
C      23.830900    16.562500    18.851700
H      24.062800    16.507900    19.771000
C      23.245000    15.476300    18.215400
H      23.076200    14.678100    18.703000
C      21.052100    13.359600    17.208700
C      21.550700    12.418500    18.114100
H      22.475900    12.205000    18.113100
C      20.694600    11.793200    19.013200
H      21.041400    11.162300    19.633500
C      19.346600    12.081500    19.013200
H      18.763800    11.639100    19.617500
C      18.849900    13.020100    18.130700
H      17.922700    13.226400    18.137100
C      19.691300    13.662800    17.233800
H      19.339700    14.313000    16.635900
C      21.274400    14.734200    14.625700
C      21.453500    14.181400    13.360200
H      22.066500    13.466400    13.235500
C      20.733400    14.679600    12.277900
H      20.862000    14.309500    11.413000
C      19.829900    15.710300    12.460200
H      19.329900    16.035100    11.721600
C      19.651600    16.270800    13.708700
H      19.033100    16.982400    13.830200
C      20.383000    15.784900    14.789400
H      20.269900    16.177600    15.646300
