85
Refcode: HERVIM_comp_0 | Dataset: tmPHOTO | Charge: unknown | Potential Spins: [1, 3, 5]
Ir      6.396000     5.141700     7.396900
O       5.191000     4.808000     9.125900
O       7.698500     3.598000     8.137200
N       5.097500     3.832000     6.531700
N       7.573200     6.573600     8.220100
C       5.352600     2.491500     6.406300
H       6.238000     2.176200     6.548300
C       4.376900     1.595600     6.085100
H       4.591300     0.682300     5.937600
C       3.045400     2.042800     5.975000
C       1.972700     1.133100     5.811400
H       2.154600     0.208600     5.685700
C       0.685500     1.567600     5.833600
H      -0.024600     0.945800     5.723800
C       0.395500     2.936100     6.019100
H      -0.507400     3.228700     6.059700
C       1.414600     3.839900     6.139500
H       1.208000     4.759900     6.256300
C       2.773100     3.434100     6.094500
C       3.870500     4.330900     6.265700
C       3.872100     5.801100     6.193000
C       2.888100     6.557900     5.540200
H       2.128200     6.124400     5.170300
C       3.017100     7.933200     5.431400
H       2.338400     8.446200     5.008100
C       4.150700     8.557700     5.947100
H       4.232900     9.501900     5.895600
C       5.158800     7.809500     6.535400
H       5.935200     8.250500     6.861300
C       5.056700     6.412200     6.659200
C       7.270300     7.114100     9.431100
H       6.532200     6.764700     9.917000
C       7.985800     8.135700     9.970600
H       7.787800     8.455900    10.842600
C       9.034000     8.715000     9.213300
C       9.789600     9.797500     9.731700
H       9.622600    10.105000    10.615500
C      10.745000    10.396700     8.981800
H      11.271200    11.097700     9.348200
C      10.952800     9.975700     7.661000
H      11.591200    10.426700     7.120900
C      10.249000     8.921300     7.137900
H      10.395600     8.662800     6.235300
C       9.308400     8.213200     7.920600
C       8.581500     7.059900     7.466400
C       8.737200     6.317800     6.196600
C       9.839900     6.374600     5.345400
H      10.601800     6.884300     5.592100
C       9.829300     5.690500     4.138400
H      10.577900     5.741300     3.555700
C       8.726800     4.933300     3.784500
H       8.697500     4.510900     2.933500
C       7.670300     4.789000     4.659200
H       6.938600     4.234400     4.414500
C       7.652600     5.443300     5.903200
C       3.873600     5.016900    11.590400
H       4.629600     5.189900    12.188200
H       3.044700     4.983000    12.113800
H       3.811600     5.736400    10.926600
C       4.082400     3.671900    10.873200
C       2.859800     3.359700     9.996600
H       2.741900     4.071100     9.333000
H       2.059800     3.303100    10.560200
H       2.996800     2.504400     9.537200
C       4.247000     2.567500    11.922300
H       4.311700     1.697600    11.474400
H       3.471500     2.569100    12.522200
H       5.061800     2.729200    12.442000
C       5.271000     3.806600     9.909300
C       6.301700     2.850700     9.918300
H       6.233300     2.171400    10.577300
C       7.417200     2.777300     9.074100
C       8.411500     1.603500     9.206000
C       9.815200     2.184800     9.465400
H      10.034700     2.834300     8.764200
H      10.474400     1.460000     9.458900
H       9.827100     2.630500    10.338800
C       8.065100     0.622100    10.321200
H       8.057800     1.093000    11.180500
H       8.734900    -0.092200    10.346400
H       7.181000     0.236100    10.153600
C       8.421300     0.856300     7.869800
H       7.540300     0.457600     7.712600
H       9.100700     0.150400     7.895800
H       8.630100     1.484200     7.145700
