57
Refcode: HEYZUI_comp_0 | Dataset: tmPHOTO | Charge: -4 | Potential Spins: [1, 3, 5]
C       1.510700     4.771000     3.781100
C       3.393900     4.459300     2.583200
H       4.159400     4.648800     2.089700
C       2.936100     3.247300     2.908700
H       3.325600     2.432600     2.685900
C       0.863200     2.536100     4.225600
C      -0.158100     3.238500     4.855200
C      -0.158100     0.483400     4.855200
H      -0.158100    -0.448300     4.855200
C       0.887000     1.146700     4.231800
H       1.582200     0.676400     3.829800
C       2.630800     6.823800     2.941900
H       3.570200     7.065700     2.952000
H       2.205100     7.264600     3.693900
C       0.154900     6.786800     1.180800
H      -0.213000     7.046200     0.332100
H      -0.395900     7.130100     1.887700
H       0.185800     5.828000     1.237100
C       1.780600     9.308500     1.487600
H       1.321100     9.669800     0.726300
H       2.672000     9.664000     1.522600
H       1.309800     9.547000     2.289700
C       2.856400     6.925400    -0.118300
H       2.962800     5.972300    -0.097100
H       3.719600     7.344500    -0.089300
H       2.404700     7.178800    -0.926400
N       2.514800     5.376200     3.118200
N       1.781900     3.428000     3.633800
Pt     -0.158100     5.167600     4.855200
Cl     -0.158100     7.572900     4.855200
Si      1.856800     7.465700     1.344300
C      -1.826900     4.771000     5.929400
C      -3.710100     4.459300     7.127300
H      -4.475600     4.648800     7.620800
C      -3.252300     3.247300     6.801800
H      -3.641800     2.432600     7.024500
C      -1.179400     2.536100     5.484900
C      -1.203100     1.146700     5.478600
H      -1.898400     0.676400     5.880700
C      -2.947000     6.823800     6.768600
H      -3.886400     7.065700     6.758500
H      -2.521300     7.264600     6.016600
C      -0.471100     6.786800     8.529700
H      -0.103200     7.046200     9.378400
H       0.079700     7.130100     7.822700
H      -0.502000     5.828000     8.473300
C      -2.096800     9.308500     8.222800
H      -1.637200     9.669800     8.984100
H      -2.988200     9.664000     8.187900
H      -1.626000     9.547000     7.420700
C      -3.172600     6.925400     9.828700
H      -3.279000     5.972300     9.807600
H      -4.035800     7.344500     9.799800
H      -2.720900     7.178800    10.636800
N      -2.831000     5.376200     6.592200
N      -2.098100     3.428000     6.076600
Si     -2.173000     7.465700     8.366100
