77
Refcode: HOBGIO_comp_0 | Dataset: tmCAT;tmPHOTO | Charge: unknown | Potential Spins: [1, 3, 5]
Zn      2.405900     0.281300     0.843000
O       7.023300     0.184700    -2.588300
O       7.864800     1.720000    -1.128200
N       1.305400    -1.327400     1.440100
N       3.864400    -0.993300     0.203200
N       3.539600     1.876400     0.294200
N       0.903300     1.549600     1.386900
C       0.011200    -1.281500     1.918500
C      -0.451500    -2.612700     2.172500
H      -1.285800    -2.849500     2.506800
C       0.542000    -3.460900     1.838200
H       0.522900    -4.389900     1.899600
C       1.637300    -2.660400     1.368000
C       2.848400    -3.158000     0.852900
C       3.884600    -2.363000     0.328400
C       5.149500    -2.875200    -0.157100
H       5.419600    -3.763900    -0.167800
C       5.863500    -1.814000    -0.593000
H       6.711000    -1.843400    -0.975800
C       5.079100    -0.629800    -0.359100
C       5.525300     0.681200    -0.577700
C       4.826000     1.839700    -0.194900
C       5.341600     3.180000    -0.291800
H       6.187400     3.426000    -0.591900
C       4.369700     4.015400     0.133500
H       4.421300     4.942600     0.187800
C       3.234600     3.203900     0.487900
C       2.009700     3.708800     0.952200
C       0.917300     2.919300     1.353800
C      -0.350300     3.431500     1.824000
H      -0.598400     4.325700     1.894900
C      -1.102600     2.361100     2.139400
H      -1.971000     2.381300     2.470200
C      -0.331600     1.187900     1.877200
C      -0.722500    -0.124900     2.108700
H      -1.587200    -0.242400     2.433600
C       3.033200    -4.643300     0.777300
C       3.117800    -5.442000     1.913800
H       3.020700    -5.054600     2.753700
C       3.347400    -6.808000     1.813400
H       3.408000    -7.327600     2.581200
C       3.483400    -7.395500     0.563500
H       3.651800    -8.308000     0.492600
C       3.368300    -6.618900    -0.576500
H       3.435400    -7.013600    -1.415300
C       3.153600    -5.256600    -0.470200
H       3.086600    -4.740600    -1.241600
C       8.371400     0.495700    -3.068000
C       8.691800     1.812200    -2.348500
C       9.271200    -0.659100    -2.584800
H       9.338800    -0.633400    -1.488500
H      10.262400    -0.550800    -3.024200
H       8.836000    -1.615700    -2.894300
C       8.359100     0.530600    -4.567100
H       9.336700     0.826200    -4.927400
H       7.625600     1.230100    -4.906100
H       8.120600    -0.459000    -4.948700
C      10.113100     2.050800    -1.969300
H      10.707400     2.074700    -2.835200
H      10.441400     1.279700    -1.334900
H      10.189200     2.974400    -1.464900
C       8.149000     3.029400    -3.121100
H       8.767300     3.192900    -4.052000
H       8.195800     3.951100    -2.457200
H       7.067600     2.840300    -3.414100
C       1.861200     5.197800     1.006500
C       2.058500     5.893700     2.179600
H       2.287400     5.432800     2.954500
C       1.921900     7.272500     2.219700
H       2.069300     7.727900     3.018300
C       1.569000     7.968400     1.099800
H       1.437100     8.888200     1.142400
C       1.411600     7.300100    -0.094500
H       1.202400     7.773800    -0.867100
C       1.563400     5.919400    -0.147700
H       1.466400     5.473200    -0.959300
B       6.843700     0.861100    -1.418800
