52
Refcode: HUTVUO_comp_0 | Dataset: tmPHOTO | Charge: unknown | Potential Spins: [1, 3, 5]
Re      3.782500    18.848700     4.009500
Br      1.854300    20.513600     3.400700
O       5.422400    20.283000     1.847000
O       6.097600    17.040200     4.777000
O       3.050400    16.720200     1.933000
N       2.397100    18.131600     5.535800
N       2.604300    18.225400     6.875100
N       2.464900    21.760400     7.180200
N       3.092200    22.863000     6.663900
N       4.170800    20.254600     5.742600
H       3.317000    20.515200     6.004200
C       1.132500    17.730800     5.386300
H       0.711100    17.571200     4.549200
C       0.518300    17.580800     6.620500
H      -0.376300    17.309400     6.788200
C       1.474800    17.906500     7.550500
H       1.364400    17.906500     8.493500
C       3.881100    18.497200     7.425300
C       4.297800    17.778700     8.554400
H       3.752600    17.079500     8.894200
C       5.489900    18.078900     9.174100
C       6.291400    19.078300     8.626500
H       7.123500    19.285800     9.035000
C       5.896000    19.774400     7.501000
H       6.471300    20.432100     7.129800
C       4.673000    19.522100     6.905600
C       5.922800    17.341300    10.410900
H       6.518700    17.912800    10.939400
H       6.396200    16.523900    10.155400
H       5.134900    17.108200    10.945500
C       1.399800    22.226600     7.781700
H       0.767700    21.677400     8.232800
C       1.291200    23.618800     7.691300
H       0.609000    24.180700     8.039800
C       2.405900    23.973200     6.976800
H       2.652000    24.860900     6.742200
C       4.328800    22.747100     5.981600
C       5.087600    23.906100     5.760000
H       4.741000    24.736300     6.061600
C       6.292300    23.899800     5.135100
C       6.817300    22.673600     4.690000
H       7.657700    22.638500     4.247600
C       6.085800    21.514600     4.907300
H       6.452700    20.684400     4.630900
C       4.851500    21.524100     5.507900
C       7.083700    25.173800     4.935200
H       6.497700    25.946500     5.074200
H       7.442300    25.196100     4.023400
H       7.822900    25.202500     5.577500
C       4.842800    19.726500     2.658800
C       5.264300    17.698900     4.527500
C       3.302700    17.552000     2.707500
