96
Refcode: IFUPUX_comp_0 | Dataset: tmPHOTO | Charge: 0 | Potential Spins: [1, 3, 5]
Co      3.393900    -0.146700    10.106600
H       2.878600     1.238200     7.848200
C       5.625200    -0.747700     8.649700
O       4.184300     0.600100     7.486100
N       4.510700    -0.095200     8.594000
O       4.817300    -1.736700    11.990700
H       3.642100    -1.428700    12.635000
C       5.803500    -1.444600     9.913200
N       4.801300    -1.224000    10.750900
O       2.564900    -0.928700    12.708500
C       1.131700     0.376200    11.519000
N       2.264200    -0.268300    11.591300
N       1.968000     0.892200     9.454000
O       1.971100     1.482700     8.237800
C       0.943600     1.050900    10.252700
N       1.714400    -3.529000    11.084800
O      -0.713300     4.306900    20.480400
C       6.585200    -0.820700     7.491900
H       6.638000    -1.744100     7.169200
H       7.472800    -0.525400     7.784900
H       6.270200    -0.239000     6.768600
N       0.536200     4.379900    20.622300
C       6.937500    -2.303400    10.300000
H       6.742300    -2.733900    11.158400
H       7.746500    -1.756600    10.385300
H       7.077500    -2.989300     9.614500
O       1.102900     3.817900    21.507300
N       5.096500     7.978700    15.866100
O       3.203800     7.780300    17.146300
C       0.139300     0.387300    12.651700
H      -0.684500     0.829500    12.358500
H       0.518600     0.872000    13.413000
H      -0.061400    -0.534700    12.917000
C       1.883800    -1.833600     8.118100
H       0.984900    -1.490700     8.303200
H       1.816800    -2.726100     7.717600
H       2.340900    -1.230600     7.494100
O       5.821100     6.184900    11.992100
N       4.263900     1.527200    10.872500
O       6.081900     5.024400    13.865100
C      -0.233600     1.859000     9.893700
H      -0.440600     2.476500    10.626500
H      -0.999600     1.269200     9.737000
H      -0.042700     2.370900     9.080000
C       2.622700    -1.911300     9.331500
H       3.459300    -2.356900     9.011700
C       2.178800    -2.840000    10.294500
C       0.550500     5.949900    18.743700
H      -0.390000     5.842400    18.659200
C       1.205500     5.248200    19.701100
C       2.598700     6.921500    18.014600
C       1.199100     6.816700    17.886600
H       0.722600     7.319700    17.236400
C       5.342900     7.129400    18.131500
H       6.292500     7.128400    18.134000
C       4.738300     6.281700    18.949700
H       5.251200     5.736200    19.534500
C       2.612000     5.318100    19.837500
H       3.067100     4.804200    20.492900
C       3.330600     6.189600    18.952500
C       4.661700     8.094600    17.199200
C       4.820900     9.575700    17.577700
C       3.765600    10.059900    18.565600
H       3.889000     9.605000    19.425500
H       2.872700     9.859300    18.215800
H       3.856100    11.027900    18.693700
C       6.212200     9.848800    18.128700
H       6.347300     9.328800    18.948200
H       6.302500    10.804300    18.330100
H       6.883400     9.590900    17.463300
C       4.719600    10.186900    16.191700
C       4.532700    11.498200    15.824300
H       4.414800    12.183600    16.472500
C       4.524100    11.779200    14.430000
H       4.368300    12.670900    14.139000
C       4.729400    10.820300    13.511600
H       4.766600    11.055600    12.590600
C       4.889200     9.494800    13.881800
H       4.982400     8.810900    13.229300
C       4.908700     9.207400    15.209300
C       4.962900     6.718300    15.156400
H       4.348700     6.835700    14.388400
H       4.571900     6.038900    15.760400
C       6.296300     6.235700    14.658300
H       6.722900     6.934200    14.101800
H       6.892300     6.039400    15.424300
C       5.759000     5.170500    12.587700
C       5.316300     3.875100    12.003200
C       5.131600     3.757600    10.656200
H       5.362000     4.477800    10.080400
C       4.612500     2.598700    10.130300
H       4.491600     2.549000     9.189700
C       4.480500     1.641500    12.206400
H       4.260300     0.904700    12.763900
C       5.009400     2.787600    12.802000
H       5.156600     2.820700    13.739600
