122
Refcode: IGUPEG_comp_0 | Dataset: tmPHOTO | Charge: unknown | Potential Spins: [1, 3, 5]
Ru      1.469700    10.508800     5.564900
Cl      0.857000     9.251300     3.504100
P       0.766900    12.472700     4.420600
P       3.455400    10.890100     4.340000
P       2.124300     8.552400     6.676400
P      -0.542900    10.017400     6.684600
C       1.986600    11.412000     7.283500
C       2.266900    11.875900     8.349900
C       2.618500    12.537500     9.587400
C       3.004700    13.891800     9.600900
H       3.091700    14.366600     8.781400
C       3.259800    14.540900    10.805800
H       3.498400    15.460900    10.793600
C       3.175600    13.879400    12.025600
C       2.827300    12.543700    12.014700
H       2.777600    12.072100    12.838300
C       2.546700    11.871200    10.828900
H       2.304000    10.952800    10.856000
C       3.423800    14.603200    13.322700
H       3.307900    13.982100    14.071700
H       2.785400    15.342600    13.410900
H       4.337600    14.958100    13.329500
C       2.004300    12.848800     3.078600
H       1.518800    13.121300     2.261800
H       2.564000    13.613200     3.364900
C       2.913300    11.665800     2.743500
H       3.701800    11.975500     2.230600
H       2.422400    11.004200     2.194000
C       1.214500     8.487000     8.287500
H       0.991100     7.545200     8.489700
H       1.814900     8.813900     9.005300
C      -0.066700     9.308900     8.309200
H       0.043800    10.049900     8.956400
H      -0.805700     8.734500     8.632200
C       0.652800    14.168900     5.128800
C       1.137800    14.486500     6.379800
H       1.487900    13.801500     6.937500
C       1.114700    15.800300     6.831600
H       1.446700    16.007300     7.697300
C       0.607500    16.816800     6.023000
H       0.597200    17.715000     6.333700
C       0.127900    16.516400     4.791000
H      -0.216200    17.209100     4.238700
C       0.135400    15.210300     4.326900
H      -0.211100    15.014200     3.464000
C      -0.853600    12.377200     3.567100
C      -0.972300    11.823000     2.274000
H      -0.198200    11.542800     1.801900
C      -2.231600    11.692200     1.693300
H      -2.311700    11.328000     0.820900
C      -3.359900    12.084500     2.370400
H      -4.214100    11.975500     1.971500
C      -3.251800    12.634000     3.625400
H      -4.033900    12.911100     4.088100
C      -1.998100    12.786600     4.227900
H      -1.933300    13.174200     5.092200
C       4.753100    12.078300     4.866900
C       5.935500    12.215300     4.116600
H       6.083000    11.667300     3.355400
C       6.884400    13.152400     4.489800
H       7.676500    13.248900     3.974200
C       6.695900    13.941600     5.594200
H       7.365000    14.567400     5.849300
C       5.539800    13.829500     6.339100
H       5.398200    14.386800     7.097600
C       4.562400    12.876900     5.960600
H       3.766200    12.791200     6.472100
C       4.489300     9.472400     3.795100
C       4.198400     8.757900     2.652600
H       3.480400     9.039600     2.097700
C       4.934900     7.634000     2.295800
H       4.728900     7.159200     1.499300
C       5.972300     7.210500     3.108500
H       6.476900     6.440000     2.875100
C       6.271200     7.915700     4.260400
H       6.976300     7.616800     4.822200
C       5.558600     9.049000     4.605100
H       5.789500     9.537800     5.385300
C       3.835400     8.269100     7.306500
C       4.541500     9.344800     7.849300
H       4.190900    10.225800     7.796300
C       5.757600     9.111200     8.466600
H       6.234900     9.844400     8.837000
C       6.299000     7.844100     8.560200
H       7.133300     7.705600     8.995800
C       5.612900     6.788700     8.014800
H       5.980000     5.912300     8.065000
C       4.380400     6.986400     7.383900
H       3.915500     6.248500     7.008000
C       1.777300     6.977000     5.849300
C       2.566500     6.567600     4.782800
H       3.284800     7.120300     4.497900
C       2.329700     5.375200     4.128800
H       2.906400     5.093500     3.428700
C       1.227900     4.576600     4.506000
H       1.042600     3.768700     4.042000
C       0.433000     4.972000     5.546700
H      -0.303800     4.433400     5.808600
C       0.699400     6.167600     6.227800
H       0.144200     6.432200     6.951000
C      -1.683600     8.803000     5.933400
C      -2.163200     7.700900     6.622700
H      -1.861200     7.523400     7.504600
C      -3.097400     6.841600     6.016200
H      -3.408300     6.077300     6.485600
C      -3.564800     7.103100     4.744800
H      -4.193500     6.516300     4.340500
C      -3.125900     8.209900     4.063700
H      -3.462400     8.399800     3.196700
C      -2.180400     9.056800     4.649900
H      -1.871500     9.814900     4.169500
C      -1.732700    11.317100     7.242800
C      -1.215300    12.423900     7.909000
H      -0.278000    12.514200     8.036500
C      -2.100600    13.404600     8.392000
H      -1.755700    14.154900     8.864200
C      -3.467800    13.290900     8.188500
H      -4.057000    13.969600     8.497800
C      -3.963600    12.187200     7.531800
H      -4.901400    12.098500     7.401500
C      -3.107900    11.200300     7.058200
H      -3.462400    10.442200     6.607800
