68
Refcode: IJOMIF_comp_1 | Dataset: tmPHOTO | Charge: unknown | Potential Spins: [1, 3, 5]
Ir      6.045600    13.228600     3.311700
S       8.252500    12.034200     7.025900
S       1.959100    12.827300     1.467200
S       8.530900    13.592300    -0.706400
N       6.874300    15.169700     3.266100
N       4.309600    13.574000     2.228300
N       7.526600    12.618900     4.618500
N       8.064200    15.206900     1.228100
H       8.540200    15.710800     0.684000
N       7.129100    12.941800     1.405800
C       5.233900    13.822400     5.062000
C       7.230800    11.790000     0.586600
C       6.022000    13.545500     6.213100
C       4.768900     9.122200     4.278800
H       5.046800     8.394800     4.821400
C       3.915700    11.299800     2.824300
C       5.137400    11.416400     3.519300
C       7.652100    15.744900     2.393400
C       6.971800     9.482000     0.001600
H       6.620200     8.623200     0.196600
C       8.683800    11.849700     4.481700
C       5.509200    10.302900     4.272600
H       6.297900    10.352100     4.799400
C       7.965400    11.950900    -0.580300
C       7.218300    12.802000     5.895400
C       6.732300    10.517600     0.879000
H       6.234000    10.366100     1.673200
C      10.368400    10.664800     5.786900
H      10.722600    10.390700     6.625100
C       9.328400    11.512700     3.299200
H       8.985000    11.796300     2.459400
C       3.740800    14.680200     1.616600
C       8.226000    10.914300    -1.468700
H       8.736600    11.058400    -2.255000
C       5.711500    14.014600     7.489900
H       6.258600    13.788700     8.232200
C       3.495900    12.536300     2.195200
C       4.123600    14.638400     5.282100
H       3.564200    14.864000     4.547700
C       2.428500    14.464800     1.166800
C       8.118500    17.153300     2.651300
H       7.713300    17.755900     1.995500
H       9.095100    17.193700     2.572700
H       7.852600    17.425600     3.555500
C       1.658400    15.468400     0.570800
H       0.766300    15.303200     0.289300
C       3.809100    15.132800     6.554300
H       3.050700    15.693300     6.669100
C      10.993000    10.323600     4.615400
H      11.779400     9.789800     4.640500
C       3.629800     9.004800     3.502000
H       3.156800     8.184000     3.467400
C       4.311000    15.956800     1.434100
H       5.201000    16.132500     1.715600
C      10.482000    10.756200     3.373100
H      10.939900    10.524300     2.574200
C       7.719600     9.661600    -1.171500
H       7.877200     8.928900    -1.756500
C       3.182000    10.104700     2.764500
H       2.396800    10.042800     2.233000
C       9.206900    11.420000     5.719300
C       7.791300    13.955600     0.847600
C       3.561800    16.937200     0.846000
H       3.939200    17.798100     0.728100
C       4.602600    14.806300     7.656600
H       4.375900    15.131000     8.520000
C       2.239200    16.698200     0.407300
H       1.747800    17.401000    -0.004700
