37
Refcode: ILEGIR_comp_0 | Dataset: tmPHOTO | Charge: unknown | Potential Spins: [1, 3, 5]
Re     13.783700    16.353900     3.810300
Cl     15.006600    14.890900     2.199700
N      12.796100    17.100700     2.034400
N      12.146300    14.898900     3.383100
N      11.698000    14.960600     6.174700
O      16.053600    18.391600     3.831600
O      15.097100    15.089800     6.267500
O      12.344700    18.132700     5.828000
C      12.989500    18.331000     1.519000
H      13.601000    18.918500     1.944700
C      12.321900    18.758000     0.389200
H      12.473200    19.629700     0.042600
C      11.449300    17.922200    -0.222000
H      10.989900    18.204600    -1.003500
C      11.225800    16.647400     0.299500
H      10.607200    16.055100    -0.111000
C      11.927100    16.270900     1.427700
C      11.714100    14.972100     2.095200
C      11.104600    13.903400     1.444500
H      10.823700    13.978600     0.539800
C      10.920000    12.735800     2.148400
H      10.576400    11.964500     1.710500
C      11.236100    12.687300     3.489500
H      11.047500    11.904000     3.994300
C      11.826600    13.777500     4.102300
C      12.037800    13.830000     5.575600
C      12.480700    12.695400     6.265900
H      12.670000    11.881400     5.814300
C      12.631500    12.811100     7.642000
H      12.935100    12.070800     8.152900
C      12.340400    13.991200     8.253200
H      12.469000    14.094600     9.188300
C      11.858700    15.031100     7.497500
H      11.626800    15.840800     7.936900
C      15.193400    17.615600     3.819500
C      14.622400    15.530100     5.347600
C      12.848700    17.466500     5.037400
