97
Refcode: IZAFIZ_comp_0 | Dataset: tmCAT;tmPHOTO | Charge: 0 | Potential Spins: [1, 3, 5]
C       2.064700     1.680600    -0.172600
C       2.474300     0.409300     0.371200
C       2.560200     0.568100     1.724800
C       2.192200     1.954100     2.018700
C       2.150200     2.577100     3.292200
C       1.518400     3.808000     3.570000
C       1.184300     4.368400     4.886300
C       0.611800     5.579200     4.664500
C       0.582300     5.788200     3.239200
C       0.123400     6.954900     2.633300
H      -0.151300     7.650500     3.219300
C       0.020200     7.222500     1.276800
C      -0.459900     8.467200     0.709000
C      -0.444500     8.301800    -0.643100
C       0.053600     6.959700    -0.899000
C       0.232900     6.397900    -2.149200
H       0.019600     6.944300    -2.895500
C       0.694000     5.117200    -2.426900
C       0.890200     4.560900    -3.746500
C       1.382200     3.305900    -3.580500
C       1.472200     3.086300    -2.148300
C       1.912200     1.922500    -1.537400
H       2.135500     1.204100    -2.117500
C       2.677000    -0.835400    -0.444000
H       3.317500    -1.426700     0.025800
H       3.076200    -0.588000    -1.315200
C       1.382000    -1.599900    -0.689700
H       1.020800    -1.915200     0.164800
H       1.561200    -2.367800    -1.270800
H       0.730200    -1.008500    -1.121800
C       2.814200    -0.584600     2.655800
H       3.478500    -0.310800     3.336800
H       3.198300    -1.337900     2.141900
C       1.540300    -1.055900     3.359300
H       1.148700    -0.310700     3.861200
H       1.758200    -1.785600     3.975800
H       0.896700    -1.373000     2.692100
C       1.292200     3.772900     6.274700
H       1.287900     2.785900     6.202200
H       0.497000     4.040500     6.801100
C       2.547500     4.207600     7.020300
H       3.339600     3.949400     6.504500
H       2.572400     3.773000     7.898500
H       2.536600     5.180600     7.137800
C      -0.003800     6.511700     5.675800
H       0.179600     7.445600     5.407000
H       0.421700     6.358600     6.556100
C      -1.498300     6.320400     5.811100
H      -1.931200     6.513400     4.952900
H      -1.845600     6.929900     6.494500
H      -1.688000     5.395900     6.071800
C      -0.953800     9.641300     1.492300
H      -0.829900    10.464600     0.955600
H      -0.413000     9.731500     2.316700
C      -2.425100     9.509800     1.872600
H      -2.969900     9.469300     1.058800
H      -2.694200    10.285500     2.408400
H      -2.555500     8.691300     2.394100
C      -0.955700     9.237700    -1.697900
H      -0.355100     9.199700    -2.484300
H      -0.939200    10.163800    -1.346700
C      -2.377200     8.891800    -2.134900
H      -2.387200     7.996900    -2.534500
H      -2.685000     9.546800    -2.795200
H      -2.971400     8.909500    -1.355300
C       0.543200     5.253200    -5.037400
H       1.114300     4.895600    -5.763800
H       0.731800     6.220900    -4.950000
C      -0.922200     5.056300    -5.406000
H      -1.102100     4.101600    -5.530300
H      -1.117200     5.536100    -6.238000
H      -1.489300     5.405300    -4.686400
C       1.852700     2.354900    -4.643300
H       1.333500     2.506300    -5.471500
H       1.690700     1.424100    -4.345400
C       3.339300     2.540900    -4.937100
H       3.498800     3.455900    -5.248000
H       3.616100     1.906400    -5.632000
H       3.856600     2.378200    -4.120500
C       3.003700     1.954900     4.393100
H       2.790900     0.989900     4.464300
H       2.781300     2.381100     5.258000
C       4.496200     2.121900     4.119800
H       4.709000     1.705300     3.248000
H       4.700700     3.088200     4.048800
C       5.387400     1.510300     5.183500
H       5.189100     0.542700     5.252300
H       5.174600     1.925100     6.057500
C       6.868200     1.691800     4.899900
H       7.088400     1.282300     4.037400
H       7.391900     1.262300     5.607600
H       7.080300     2.648100     4.869800
N       1.873800     2.596400     0.833100
N       1.092600     4.692300     2.593200
N       0.333000     6.328500     0.292700
N       1.055900     4.200700    -1.469100
Zn      1.180000     4.492900     0.554100
