72
Refcode: JEGPOD_comp_0 | Dataset: tmPHOTO | Charge: 0 | Potential Spins: [1, 3, 5]
Pt      8.498700     4.449600     5.165700
N       9.473500     4.919600     6.941000
N       9.171300     4.809300     8.211400
N      10.238300     5.265500     8.884400
N       6.633100     3.757300     5.770500
N       6.045700     3.602000     6.936800
N       4.811400     3.160000     6.648900
C      10.219500     5.120600     4.427500
C      11.149900     5.601200     5.391300
C      12.367500     6.166300     5.014400
H      12.971900     6.490900     5.673000
C      12.685100     6.247400     3.670100
H      13.503100     6.645400     3.399200
C      11.813700     5.750200     2.726200
H      12.051800     5.800600     1.809200
C      10.580600     5.167800     3.078600
C       7.704800     4.060700     3.387100
C       6.364600     3.574500     3.404800
C       5.670100     3.246600     2.251200
H       4.783300     2.910200     2.296700
C       6.298700     3.420800     1.027600
H       5.833600     3.227700     0.222500
C       7.602400     3.874700     0.984800
H       8.025700     3.974800     0.140700
C       8.315800     4.189900     2.139600
C       9.772400     4.578400     1.951800
H      10.250500     3.767500     1.645600
H       9.804700     5.226100     1.204000
C      10.725800     5.458600     6.774200
C      11.208600     5.683200     8.038300
H      12.051800     6.055100     8.270600
C       5.801200     3.426300     4.740600
C       4.613900     3.029100     5.317700
H       3.828700     2.729700     4.874700
C      10.146900     5.334900    10.351400
H       9.304000     4.899100    10.632700
H      10.089700     6.287600    10.616400
C      11.289200     4.697400    11.109100
H      12.131200     5.187500    10.933700
H      11.408600     3.757300    10.822500
C      10.944800     4.754100    12.590100
H      10.749200     5.695000    12.828000
H      10.116100     4.233200    12.736400
C      12.003800     4.235600    13.533300
H      12.827300     4.775400    13.426700
H      12.220800     3.299400    13.295800
C      11.553200     4.291600    14.982700
H      10.739000     3.738400    15.085400
H      11.313000     5.225400    15.206400
C      12.613600     3.799800    15.971700
H      12.247200     3.821100    16.881500
H      13.401300     4.382200    15.922900
H      12.872100     2.881800    15.746300
C       3.841700     2.946400     7.728900
H       3.330000     2.119800     7.544300
H       3.201700     3.701300     7.740600
C       4.485100     2.829800     9.079000
H       4.970500     3.668200     9.281600
H       5.145600     2.092200     9.062400
C       3.473900     2.566600    10.168500
H       3.055200     1.684000    10.011100
H       2.762100     3.252200    10.115800
C       4.072700     2.585500    11.557600
H       4.777200     1.891200    11.604400
H       4.508500     3.462600    11.699300
C       3.097900     2.351500    12.680100
H       2.377400     3.028400    12.625100
H       2.682700     1.460200    12.563000
C       3.726900     2.420000    14.045300
H       3.043000     2.250600    14.728800
H       4.111600     3.310500    14.182400
H       4.433200     1.743900    14.113700
