153
Refcode: JEKGEO_comp_1 | Dataset: tmPHOTO | Charge: 0 | Potential Spins: [1, 3, 5]
Zn      0.890900    10.334000    14.580500
N       0.913800     9.304200    12.875000
N       1.417600     8.969900    15.926000
N      -0.889600    11.200900    14.377400
N       2.208400    11.699700    15.146300
O      -0.705700    15.301800    10.746100
O       6.921100     7.629800    14.496600
C       1.539300    13.615800    13.772200
O       0.434300    14.587600    19.733500
O       7.389400     6.372100    17.054500
C       1.758000     8.357500    12.449600
C       1.062800     7.670700    15.940200
C       2.310800    13.014300    14.858000
O       5.669900    13.039200    19.557300
C      -1.428100    12.245300    15.016400
C       3.100800    11.465500    16.164500
C       3.098000     8.148600    12.964000
O      -1.908300    14.450100     7.511800
C       1.202800    12.885000    12.629400
H       1.504800    11.985500    12.552800
C       3.751300    12.697300    16.492100
H       4.426000    12.823100    17.148900
C      -0.946800    12.790600    16.250000
C      -0.143100     7.204400    15.272700
C       3.232400    13.628000    15.707100
H       3.448700    14.552700    15.721300
C       3.875900     9.203900    13.416100
H       3.529900    10.088100    13.387700
C       2.576600     9.083800    16.620200
C       0.019500    13.940300    18.633400
C       5.129400     8.983100    13.900300
H       5.653100     9.723600    14.181600
C      -1.612600    10.957700    13.218600
C       1.088900    14.938500    13.820200
H       1.299400    15.471900    14.576700
O      -3.701800    13.117000     5.975600
C       3.640300     6.882000    13.056600
H       3.126700     6.136500    12.768200
C      -0.242600    12.041000    17.184500
H      -0.078500    11.120600    17.015400
C       1.159800     7.631900    11.397600
H       1.533000     6.888600    10.938300
C       0.224500    12.607200    18.346900
H       0.697500    12.066600    18.969900
O      -3.400600     5.952000    13.047700
C       0.050600    14.719500    11.709100
C       0.467300    13.410200    11.636100
H       0.236100    12.879300    10.883200
C       2.040400     6.927000    16.646900
H       2.048600     5.987600    16.775100
C      -0.221500     9.213400    12.097100
C       5.655100     7.714100    13.994700
C      -2.557900    12.699500    14.268800
H      -3.130200    13.425200    14.489500
O       3.364400    15.072700    20.189200
C      -0.069000     8.211000    11.168000
H      -0.693500     7.964300    10.495100
C      -1.192600    14.132000    16.561500
H      -1.699100    14.676800    15.970500
C      -2.387000     6.400600    13.827300
C       4.903200     6.673400    13.553200
H       5.252000     5.791700    13.590600
C      -2.651800    11.910600    13.200800
H      -3.318400    11.976700    12.529700
C       0.350700    15.482600    12.807400
H       0.048900    16.381600    12.862600
C      -0.157300     5.984000    14.598100
H       0.605900     5.417500    14.635500
C      -1.257900     5.594200    13.877200
H      -1.248700     4.766700    13.410800
C       2.947500     7.794300    17.095500
H       3.703900     7.588900    17.633100
C      -0.997300    14.522000     9.592600
H      -1.597700    13.777100     9.845400
H      -0.157300    14.129000     9.243700
C       3.290100    10.243200    16.796400
H       3.999400    10.204500    17.426600
C      -1.336900     7.949600    15.222900
H      -1.373700     8.768900    15.703500
C      -0.698200    14.647200    17.725600
H      -0.870200    15.561900    17.912500
C      -2.435800     7.570300    14.525100
H      -3.220500     8.105200    14.525100
O       6.573300     7.628700    19.566200
C       1.336700    13.974500    20.618200
H       0.991700    13.075300    20.846000
H       1.364700    14.503900    21.454800
C      -1.614100    15.295200     8.567300
H      -2.443900    15.714000     8.909100
H      -1.002300    16.013500     8.268300
O      -5.848600     9.237400     7.956800
C      -1.334300    10.038900    12.230600
H      -1.991000     9.957100    11.548900
C      -2.868400    14.035600     5.443400
H      -2.585300    14.028900     4.537300
C       7.470600     6.362200    14.756500
H       8.445400     6.457800    14.897100
H       7.334200     5.786100    13.964400
C       6.730500    12.232200    20.055700
H       6.592700    12.080400    21.024000
H       7.585800    12.717500    19.945300
C      -2.452800    15.041300     6.418800
H      -1.788200    15.648200     6.005800
H      -3.235800    15.583000     6.691200
C       2.734400    13.830300    20.098400
H       3.227500    13.159600    20.632400
H       2.716100    13.529300    19.155000
C       5.704500    14.324100    19.927500
H       6.558400    14.718200    19.623100
H       5.693400    14.365400    20.917200
O      -5.397000     7.649900    10.724700
C       6.900900     5.723800    15.895700
H       5.913900     5.786800    15.861900
H       7.153300     4.766600    15.910000
C       7.099300     8.623200    19.050000
H       7.498000     8.599900    18.190200
C       4.585200    15.163700    19.406000
H       4.878900    16.108700    19.384600
H       4.387300    14.888800    18.476800
C       6.833300    10.893200    19.357900
H       6.716300    10.918100    18.414500
C       6.658900     5.838600    18.119000
H       5.693800     5.988600    17.953500
H       6.811500     4.861500    18.156400
C      -4.292300     6.917000    12.488700
H      -5.132200     6.917900    13.017400
H      -3.885400     7.821200    12.595600
C       6.993000     6.392100    19.338300
H       6.637000     5.808200    20.052100
H       7.982200     6.384600    19.418400
C       7.044400     9.786000    19.826100
H       7.178700     9.710600    20.764100
C      -4.246900    12.201900     5.156800
H      -3.539400    11.707800     4.672600
H      -4.835700    12.640200     4.492800
C      -6.639300     9.963300     7.102400
H      -7.274300    10.508000     7.631000
H      -7.167300     9.342900     6.539900
C      -6.387800     8.668100     8.969600
H      -7.046500     8.002400     8.651000
H      -6.874600     9.348400     9.496500
C      -5.042000    11.265100     6.034300
H      -4.414300    10.957700     6.671600
C      -4.579000     6.775600    11.349500
H      -4.978400     5.882000    11.260500
H      -3.726300     6.764900    10.840400
C      -5.479200     8.046600     9.790200
H      -5.192700     7.281400     9.218800
H      -4.716100     8.672600     9.758200
C      -5.880500    10.807800     6.265700
H      -6.493400    11.092400     5.592900
H       8.049200     8.125700    19.153200
H      -1.951000    13.500300     5.162100
