63
Refcode: JIJQOL_comp_0 | Dataset: tmPHOTO | Charge: unknown | Potential Spins: [1, 3, 5]
Ni      7.888800    13.053400     9.279500
Cl      7.351700    14.510200     7.676800
Cl      9.910400    12.155200     9.006200
N       7.809300    13.434800    11.232600
N       9.520100    14.963500    11.474800
N       9.579800    13.016400    12.747000
N       6.126300    12.214100     9.641200
N       5.523600    11.515200     7.531400
N       4.063000    12.880700     8.722100
N       3.183500    11.292200    13.380900
N       5.105800    12.466900    15.114900
C       6.754400    12.850900    11.891400
C       5.761700    12.227800    10.992700
C       4.612500    11.694500    11.515600
H       4.004200    11.284300    10.945500
C       4.320600    11.752000    12.916800
C       2.953500    11.381900    14.723300
C       1.772100    10.871500    15.298300
H       1.138900    10.458000    14.756700
C       1.547400    10.981800    16.631600
H       0.756800    10.653900    16.994900
C       2.518200    11.598000    17.480500
H       2.346900    11.682800    18.390500
C       3.677900    12.055400    16.971200
H       4.313200    12.424300    17.541700
C       3.946400    11.981900    15.585800
C       5.305000    12.352000    13.783800
C       6.502100    12.889900    13.231500
H       7.128000    13.276400    13.799800
C       8.944200    13.795700    11.834800
C      10.981600    15.129100    11.366200
H      11.320700    15.515200    12.177500
H      11.184100    15.708400    10.627800
H      11.391300    14.273200    11.223600
C       8.723900    16.037100    10.906600
H       8.689200    15.939200     9.952200
H       9.123600    16.882500    11.126500
H       7.834600    16.001100    11.265100
C      10.390000    13.554300    13.811000
H      11.313200    13.348300    13.647400
H      10.119300    13.166300    14.647000
H      10.277100    14.507100    13.850200
C       9.400800    11.577300    12.749300
H       8.876500    11.321700    13.510500
H      10.258700    11.148700    12.791300
H       8.949300    11.310300    11.944600
C       5.228600    12.195700     8.654200
C       5.133900    11.963500     6.204900
H       4.515200    11.336200     5.823500
H       5.912000    12.025200     5.645100
H       4.716500    12.826300     6.266900
C       6.642000    10.565700     7.549500
H       7.442200    11.006800     7.255600
H       6.447100     9.831900     6.960600
H       6.766900    10.235000     8.441400
C       2.854900    12.485300     8.006800
H       2.969700    11.601500     7.647800
H       2.690000    13.101900     7.289900
H       2.108900    12.489700     8.611000
C       3.941900    14.055500     9.557500
H       3.460100    13.830700    10.357700
H       3.467600    14.740600     9.081100
H       4.816700    14.374400     9.790500
