64
Refcode: JINRUW_comp_0 | Dataset: tmPHOTO | Charge: 1 | Potential Spins: [1, 3, 5]
Ru     -1.956800     6.903900     2.398600
N      -4.576100     7.821200     1.602600
N      -5.880800     7.708800     1.333900
N      -6.090200     6.420700     1.582000
N      -1.633500     4.848200     2.709600
N      -1.619500     6.226300     0.482400
N      -2.143000     7.417600     4.371200
N      -0.016000     7.520000     2.866600
C      -3.939400     6.675600     2.027200
C      -4.969200     5.748100     2.002300
C      -4.991400     4.311200     2.331300
C      -7.418500     5.869800     1.352000
C      -3.818600     9.023300     1.496600
C      -2.474200     8.824400     1.862400
C      -1.691800     9.994800     1.825000
C      -2.217200    11.232600     1.466700
C      -3.547300    11.350200     1.103600
C      -4.374600    10.232500     1.109500
C      -1.638700     4.206500     3.902100
C      -1.648600     2.832000     4.013300
C      -1.630900     2.072500     2.855300
C      -1.555600     2.709000     1.629900
C      -1.558000     4.098600     1.578000
C      -1.521000     4.872300     0.329300
C      -1.391900     4.302400    -0.933200
C      -1.356200     5.103400    -2.058100
C      -1.445200     6.476900    -1.900800
C      -1.572700     6.992700    -0.630400
C      -3.248500     7.222400     5.129500
C      -3.317800     7.594200     6.458200
C      -2.223000     8.210700     7.046100
C      -1.089000     8.415200     6.287900
C      -1.058700     8.003600     4.954800
C       0.124200     8.115400     4.085000
C       1.299400     8.757700     4.452100
C       2.364900     8.770600     3.580400
C       2.235600     8.147000     2.349100
C       1.042500     7.537800     2.028500
H      -4.844300     3.787200     1.516100
H      -5.860400     4.077300     2.718000
H      -4.281800     4.113800     2.978300
H      -8.066300     6.601100     1.270900
H      -7.668800     5.294200     2.104800
H      -7.415700     5.343200     0.525400
H      -0.771800     9.936800     2.053000
H      -1.658500    12.001500     1.471200
H      -3.895600    12.196600     0.850200
H      -5.288700    10.295700     0.857400
H      -1.636000     4.726300     4.696900
H      -1.667200     2.414900     4.866700
H      -1.668700     1.124600     2.902000
H      -1.502900     2.200500     0.829500
H      -1.329200     3.358600    -1.021600
H      -1.271400     4.719800    -2.923100
H      -1.418600     7.052900    -2.655400
H      -1.631600     7.935600    -0.531100
H      -4.006900     6.812900     4.731000
H      -4.105200     7.429300     6.963600
H      -2.254200     8.487600     7.954100
H      -0.329300     8.835800     6.673400
H       1.367300     9.184600     5.298600
H       3.178100     9.200500     3.819600
H       2.960000     8.140200     1.733800
H       0.961000     7.112300     1.183200
