77
Refcode: JIVNAD_comp_0 | Dataset: tmCAT;tmPHOTO | Charge: 0 | Potential Spins: [1, 3, 5]
C       1.899300    -0.316000     2.396900
C       3.141300    -0.935700     2.791100
C       3.678200    -1.496600     1.676300
C       2.758700    -1.233300     0.581400
C       2.931300    -1.690500    -0.733700
C       1.979000    -1.555500    -1.760300
C       2.161400    -2.012900    -3.120100
C       1.051600    -1.663100    -3.809100
C       0.171500    -0.975700    -2.897600
C       1.057800     0.408300     3.249400
C       1.500900     0.600100     4.677600
C       2.321400     1.672000     5.010900
C       2.686600     1.895100     6.340700
C       2.229900     1.040300     7.333500
C       1.430400    -0.035700     7.011000
C       1.055800    -0.253900     5.679400
C       4.225900    -2.357100    -1.078200
C       4.285500    -3.712300    -1.373700
C       5.500400    -4.311700    -1.688500
C       6.670800    -3.568000    -1.703800
C       6.614600    -2.207100    -1.425900
C       5.397500    -1.608200    -1.119800
N       1.681400    -0.523400     1.050300
N       0.754200    -0.942500    -1.645800
Zn      0.000000     0.000000     0.000000
H       3.532000    -0.952800     3.719700
H       4.551600    -1.983800     1.610600
H       2.962100    -2.496600    -3.482600
H       0.863900    -1.844300    -4.779000
H       2.653600     2.279300     4.288800
H       3.278300     2.677500     6.573900
H       2.486800     1.199100     8.288500
H       1.116100    -0.667400     7.729400
H       0.479100    -1.040000     5.447300
H       3.451800    -4.269400    -1.365800
H       5.532200    -5.293800    -1.899600
H       7.546000    -4.006000    -1.921000
H       7.454100    -1.658600    -1.442200
H       5.366100    -0.619100    -0.934000
C      -1.057800    -0.408300    -3.249400
C      -0.171500     0.975700     2.897600
N      -1.681400     0.523400    -1.050300
N      -0.754200     0.942500     1.645800
C      -1.899300     0.316000    -2.396900
C      -1.500900    -0.600100    -4.677600
C      -1.051600     1.663100     3.809100
C      -2.758700     1.233300    -0.581400
C      -1.979000     1.555500     1.760300
C      -3.141300     0.935700    -2.791100
C      -2.321400    -1.672000    -5.010900
C      -1.055800     0.253900    -5.679400
C      -2.161400     2.012900     3.120100
H      -0.863900     1.844300     4.779000
C      -3.678200     1.496600    -1.676300
C      -2.931300     1.690500     0.733700
H      -3.532000     0.952800    -3.719700
C      -2.686600    -1.895100    -6.340700
H      -2.653600    -2.279300    -4.288800
C      -1.430400     0.035700    -7.011000
H      -0.479100     1.040000    -5.447300
H      -2.962100     2.496600     3.482600
H      -4.551600     1.983800    -1.610600
C      -4.225900     2.357100     1.078200
C      -2.229900    -1.040300    -7.333500
H      -3.278300    -2.677500    -6.573900
H      -1.116100     0.667400    -7.729400
C      -4.285500     3.712300     1.373700
C      -5.397500     1.608200     1.119800
H      -2.486800    -1.199100    -8.288500
C      -5.500400     4.311700     1.688500
H      -3.451800     4.269400     1.365800
C      -6.614600     2.207100     1.425900
H      -5.366100     0.619100     0.934000
C      -6.670800     3.568000     1.703800
H      -5.532200     5.293800     1.899600
H      -7.454100     1.658600     1.442200
H      -7.546000     4.006000     1.921000
