99
Refcode: JOMYER_comp_0 | Dataset: tmPHOTO | Charge: 0 | Potential Spins: [1, 3, 5]
Zn     -0.654700    -5.391400     4.511700
S      -3.371300    -8.103400     1.922200
C       7.210400     3.758400    -0.010800
H       6.864100     3.396900    -0.795900
C       8.114500     4.857900    -0.108300
C       2.635400    -1.666000     2.371400
C       8.618600     5.456800     1.153200
H       8.019500     6.166900     1.427500
H       9.490400     5.851800     0.989000
N       1.709200    -2.737100     2.429100
C       8.738800     4.441700     2.282900
C       5.363900     1.564900     2.223400
H       5.668700     1.864400     3.049900
C       6.834000     3.223100     1.158600
N       9.928900     7.454200    -1.548400
C       4.405600     0.467100     2.243200
C       9.294600     6.519500    -1.440100
C       2.962400    -1.107300     1.164000
H       2.582200    -1.431400     0.380800
C       7.420400     3.708100     2.436300
H       7.553200     2.948300     3.024700
H       6.784300     4.300900     2.864100
C       9.853700     3.475100     1.970700
H       9.890800     2.798500     2.651100
H      10.688300     3.947200     1.943700
H       9.692800     3.063400     1.118900
N      -1.734500    -6.458600     3.322400
C       8.477000     5.360200    -1.310200
C       1.277700    -3.371800     3.515500
H       1.586900    -3.189600     4.372800
C       5.852500     2.182800     1.158600
H       5.523500     1.914700     0.330300
C       3.858700    -0.064300     1.117100
H       4.095800     0.288300     0.288800
C       9.077600     5.192600     3.567900
H       8.390200     5.836700     3.752000
H       9.919300     5.644000     3.461400
H       9.138900     4.570200     4.295200
N       0.379600    -4.274600     3.248500
C       4.067500    -0.140800     3.419900
H       4.451500     0.167600     4.210400
C       3.195700    -1.174900     3.481300
H       2.986200    -1.548700     4.306000
C       8.024100     4.764600    -2.523000
C      -2.407100    -7.133500     2.712500
N       7.681800     4.270700    -3.475800
C       0.254200    -4.272900     1.916600
H      -0.308400    -4.826100     1.423900
C       1.073000    -3.341600     1.413100
H       1.182700    -3.146000     0.510700
S       2.061900    -8.103400     7.101300
C      -8.519900     3.758400     9.034300
H      -8.173500     3.396900     9.819400
C      -9.423900     4.857900     9.131800
C      -3.944900    -1.666000     6.652100
C      -9.928100     5.456800     7.870300
H      -9.328900     6.166900     7.596000
H     -10.799800     5.851800     8.034500
N      -3.018700    -2.737100     6.594400
C     -10.048300     4.441700     6.740500
C      -6.673300     1.564900     6.800100
H      -6.978200     1.864400     5.973500
C      -8.143500     3.223100     7.864900
N     -11.238400     7.454200    10.571900
C      -5.715000     0.467100     6.780200
C     -10.604000     6.519500    10.463600
C      -4.271900    -1.107300     7.859500
H      -3.891700    -1.431400     8.642700
C      -8.729800     3.708100     6.587100
H      -8.862600     2.948300     5.998800
H      -8.093800     4.300900     6.159400
C     -11.163200     3.475100     7.052800
H     -11.200300     2.798500     6.372400
H     -11.997700     3.947200     7.079800
H     -11.002200     3.063400     7.904600
N       0.425000    -6.458600     5.701000
C      -9.786400     5.360200    10.333700
C      -2.587100    -3.371800     5.507900
H      -2.896400    -3.189600     4.650700
C      -7.162000     2.182800     7.864900
H      -6.833000     1.914700     8.693200
C      -5.168200    -0.064300     7.906400
H      -5.405200     0.288300     8.734700
C     -10.387100     5.192600     5.455600
H      -9.699700     5.836700     5.271500
H     -11.228700     5.644000     5.562100
H     -10.448400     4.570200     4.728300
N      -1.689000    -4.274600     5.775000
C      -5.377000    -0.140800     5.603600
H      -5.761000     0.167600     4.813100
C      -4.505200    -1.174900     5.542200
H      -4.295600    -1.548700     4.717500
C      -9.333600     4.764600    11.546400
C       1.097700    -7.133500     6.311000
N      -8.991300     4.270700    12.499300
C      -1.563700    -4.272900     7.106900
H      -1.001100    -4.826100     7.599600
C      -2.382400    -3.341600     7.610400
H      -2.492100    -3.146000     8.512800
