40
Refcode: JOTYEZ_comp_0 | Dataset: tmPHOTO | Charge: 1 | Potential Spins: [1, 3, 5]
Pt      5.434300     4.687600     5.919600
Cl      3.638000     3.619700     4.932100
N       6.901800     5.652500     6.739400
N       6.655400     4.807800     4.327600
N       4.673300     4.893700     7.773200
N      11.050200     8.160800     7.668000
C       7.984400     5.930600     5.971800
C       9.023600     6.647600     6.542000
H       9.784200     6.841200     6.043000
C       8.928200     7.078000     7.866700
C       7.791400     6.746700     8.601900
H       7.725200     7.014400     9.489900
C       6.765700     6.030600     8.029100
C       7.862400     5.437200     4.596400
C       8.805100     5.587400     3.604100
H       9.611800     6.009700     3.793600
C       8.564400     5.120300     2.345600
H       9.201600     5.221700     1.676000
C       7.368500     4.498600     2.079400
H       7.191600     4.174800     1.226100
C       6.447200     4.357700     3.062500
H       5.641800     3.937800     2.863300
C       5.519000     5.581800     8.636900
C       5.155600     5.803300     9.924000
H       5.726600     6.269600    10.491300
C       3.948300     5.343400    10.398100
H       3.699800     5.493500    11.281500
C       3.115500     4.659300     9.544800
H       2.299800     4.332100     9.849800
C       3.493700     4.463800     8.243400
H       2.914600     4.017700     7.668100
C      10.028800     7.860200     8.487600
C      10.032700     8.225400     9.809700
H       9.326400     7.992000    10.367600
C      11.113400     8.950100    10.302000
H      11.137500     9.207300    11.194800
C      12.125600     9.277800     9.474600
H      12.848100     9.776200     9.781600
C      12.065400     8.862000     8.179800
H      12.773900     9.078300     7.618100
