71
Refcode: JUNMEK_comp_0 | Dataset: tmPHOTO | Charge: 0 | Potential Spins: [1, 3, 5]
Pt      0.000000     0.000000     0.000000
P      -1.606300     0.835000     1.400600
C      -1.198300     0.459600    -1.514100
C      -1.898500     0.711400    -2.463400
C      -2.683000     0.952100    -3.631300
C      -3.361800     2.145000    -3.815800
C      -4.140900     2.331100    -4.938200
C      -4.242800     1.357100    -5.903200
C      -3.587400     0.186000    -5.732900
C      -2.790000    -0.000000    -4.610400
C      -1.144000     0.897400     3.143100
C      -2.194200     1.346100     4.143600
C      -2.149600     2.506200     0.979100
C      -1.035000     3.534900     0.979100
C      -3.132000    -0.098500     1.319700
C      -2.959300    -1.554000     1.646100
H      -3.279400     2.895800    -3.160200
H      -4.621400     3.163900    -5.100000
H      -4.827900     1.510300    -6.668000
H      -3.661100    -0.420200    -6.445200
H      -2.330400    -0.932400    -4.491200
H      -0.850600     0.021900     3.436900
H      -0.366100     1.484000     3.248200
H      -1.893800     1.391000     5.020500
H      -2.483000     2.269800     3.885300
H      -2.972300     0.808800     4.068300
H      -2.586300     2.525900     0.106400
H      -2.811300     2.835600     1.610600
H      -0.605300     3.574300     1.789400
H      -0.376500     3.260200     0.288100
H      -1.340900     4.402800     0.703800
H      -3.794700     0.235300     1.893000
H      -3.495600    -0.070000     0.401600
H      -3.740900    -2.088100     1.576500
H      -2.292300    -1.984100     1.031600
H      -2.582600    -1.677700     2.524400
P       1.606300    -0.835000    -1.400600
C       1.198300    -0.459600     1.514100
C       1.144000    -0.897400    -3.143100
C       2.149600    -2.506200    -0.979100
C       3.132000     0.098500    -1.319700
C       1.898500    -0.711400     2.463400
C       2.194200    -1.346100    -4.143600
H       0.850600    -0.021900    -3.436900
H       0.366100    -1.484000    -3.248200
C       1.035000    -3.534900    -0.979100
H       2.586300    -2.525900    -0.106400
H       2.811300    -2.835600    -1.610600
C       2.959300     1.554000    -1.646100
H       3.794700    -0.235300    -1.893000
H       3.495600     0.070000    -0.401600
C       2.683000    -0.952100     3.631300
H       1.893800    -1.391000    -5.020500
H       2.483000    -2.269800    -3.885300
H       2.972300    -0.808800    -4.068300
H       0.605300    -3.574300    -1.789400
H       0.376500    -3.260200    -0.288100
H       1.340900    -4.402800    -0.703800
H       3.740900     2.088100    -1.576500
H       2.292300     1.984100    -1.031600
H       2.582600     1.677700    -2.524400
C       3.361800    -2.145000     3.815800
C       2.790000     0.000000     4.610400
C       4.140900    -2.331100     4.938200
H       3.279400    -2.895800     3.160200
C       3.587400    -0.186000     5.732900
H       2.330400     0.932400     4.491200
C       4.242800    -1.357100     5.903200
H       4.621400    -3.163900     5.100000
H       3.661100     0.420200     6.445200
H       4.827900    -1.510300     6.668000
