108
Refcode: KAQFUD_comp_0 | Dataset: tmPHOTO | Charge: 1 | Potential Spins: [1, 3, 5]
Ru      0.897100     7.288600    11.055700
P      -0.375600     9.119100    11.596000
C      -0.065200    10.787000    11.044600
C       0.130600    11.906100    11.860800
C       0.253600    13.177300    11.286000
C       0.180200    13.329400     9.898300
C      -0.016600    12.207900     9.080400
C      -0.138300    10.939100     9.655300
H       0.177100    11.804000    12.804400
H       0.382400    13.937600    11.832300
H       0.260800    14.191800     9.502700
H      -0.064800    12.310100     8.138500
H      -0.268200    10.178800     9.100500
C      -0.511600     9.223600    13.424500
C      -1.653500     8.791200    14.118400
C      -1.681900     8.843500    15.516100
C      -0.571200     9.328200    16.220000
C       0.565300     9.758200    15.526200
C       0.592300     9.706000    14.128400
H      -2.406100     8.463300    13.642400
H      -2.446400     8.551200    15.988800
H      -0.594400     9.361400    17.170300
H       1.317200    10.086100    16.005500
H       1.363000     9.998200    13.659200
C      -2.109500     9.005000    11.108300
C      -2.560500     7.895400    10.399400
C      -3.899800     7.809900    10.008900
C      -4.790500     8.838700    10.325700
C      -4.333700     9.962600    11.032900
C      -2.995000    10.048100    11.426800
H      -1.960600     7.199300    10.189900
H      -4.209300     7.047200     9.529600
H      -5.700600     8.791200    10.059200
H      -4.948000    10.668200    11.245800
H      -2.699800    10.808400    11.909400
P       2.934000     8.221000    10.635700
C       4.007000     6.980700     9.988800
C       3.542100     6.237000     8.899400
C       4.353000     5.251000     8.322900
C       5.629500     5.008600     8.832400
C       6.099900     5.747500     9.921700
C       5.296300     6.733600    10.503300
H       2.673700     6.391400     8.547400
H       4.022500     4.752000     7.583800
H       6.179400     4.338600     8.446900
H       6.968200     5.583600    10.273700
H       5.613000     7.246800    11.242400
C       3.122100     9.601400     9.502700
C       3.433200     9.316300     8.162000
C       3.674900    10.359400     7.260300
C       3.605100    11.687500     7.694400
C       3.292900    11.975000     9.033500
C       3.053500    10.932000     9.930100
H       3.478800     8.413400     7.860300
H       3.891200    10.169300     6.355300
H       3.770600    12.398000     7.089400
H       3.253100    12.875500     9.318400
H       2.838600    11.119700    10.835100
C       3.901700     8.862500    11.971500
C       3.557600     8.518000    13.290400
C       4.415900     8.841100    14.341300
C       5.620500     9.511100    14.083200
C       5.964800     9.855600    12.770900
C       5.101900     9.530100    11.715000
H       2.742100     8.066500    13.458000
H       4.184600     8.605900    15.231200
H       6.208700     9.729700    14.798800
H       6.774800    10.309500    12.603300
H       5.333300     9.765400    10.825100
C       0.123500     7.755300     8.007800
C       0.458800     7.641200     9.169200
C      -0.349500     7.981000     6.700500
C       0.333700     8.826800     5.886000
C      -0.084200     9.135700     4.577100
C       0.534000    10.055200     3.668700
C       1.932200    10.176400     3.737400
C       2.592000    11.081700     2.901100
C       1.866700    11.863400     1.999400
C       0.468200    11.744600     1.932400
C      -0.192700    10.839300     2.767000
H       2.423200     9.644200     4.347500
H       3.536500    11.167200     2.949700
H       2.312800    12.478800     1.433000
H      -0.022200    12.276800     1.319000
H      -1.137900    10.763300     2.715100
N      -1.115100     8.384900     4.102800
C      -1.795400     7.451100     4.796600
C      -2.775700     6.707400     4.240200
C      -3.469100     5.745200     4.960900
C      -3.095100     5.462400     6.284900
C      -2.061600     6.189500     6.849700
C      -1.346200     7.177900     6.159200
C       1.246800     5.115500    11.001100
C       1.851200     5.612100    12.174200
C       0.841900     6.156200    12.988800
C      -0.393700     5.994600    12.323400
C      -0.141200     5.350800    11.093200
H       1.694300     4.692600    10.277000
H       2.779900     5.586000    12.368700
H       0.960100     6.562500    13.840200
H      -1.244100     6.272600    12.636800
H      -0.787500     5.115500    10.441300
H       1.174800     9.572400     6.163000
H      -1.386100     8.535500     3.148500
H      -3.061700     6.879700     3.273500
H      -4.161200     5.184400     4.501700
H      -3.653700     4.822600     6.827100
H      -1.765900     5.927400     7.743500
