92
Refcode: KEHHIR_comp_0 | Dataset: tmPHOTO | Charge: 1 | Potential Spins: [1, 3, 5]
Cu      6.179100     4.098400     3.797900
P       4.522000     5.583600     3.623800
P       5.546700     1.946500     3.958600
S      10.514900     4.361400     2.669200
N       7.942400     4.113400     2.714100
N       7.519100     4.662900     5.301000
C       3.742200     8.235000     4.089200
H       2.853800     7.897400     4.112300
C       3.901300     1.479800     3.318000
C       8.769700     4.877700     4.853100
C       6.685800     0.812700     3.096900
C       8.357100     3.678700     1.471000
C       3.711600     5.574600     1.988500
C       5.270400    10.084200     4.183200
H       5.425600    11.017800     4.276800
C       6.111200     7.866100     3.872800
H       6.846200     7.273400     3.762000
C       9.724400     3.740500     1.229000
C       8.027600     0.835700     3.471400
H       8.314900     1.422700     4.161600
C       4.812900     7.362400     3.908900
C       3.493700     2.077800     2.121600
H       4.076200     2.681500     1.675500
C       5.491600     0.864700     8.437500
H       5.477200     0.674800     9.368400
C       7.502800     3.169000     0.462200
H       6.566600     3.093800     0.607100
C       8.964900     4.477900     3.432200
C       3.968900     9.593700     4.234600
H       3.240100    10.186900     4.368800
C       4.525900     5.286600     0.896700
H       5.456100     5.150700     1.030600
C       9.501900     5.691800     6.973500
H      10.176800     6.040600     7.543800
C       8.065100     2.785100    -0.730800
H       7.507200     2.445200    -1.421000
C       3.239000     5.171900     4.855900
C       2.356000     5.812400     1.782500
H       1.791600     6.043500     2.510700
C       5.537500     1.410400     5.704900
C       6.336300     9.231200     3.998100
H       7.221000     9.575300     3.956100
C       8.231600     5.472700     7.449600
H       8.011900     5.666500     8.353300
C       6.292900    -0.011000     2.047500
H       5.383600    -0.024300     1.770400
C       6.276600     0.351500     6.222100
H       6.801900    -0.187600     5.642700
C       2.267200     4.205200     4.598400
H       2.178900     3.848300     3.722300
C      10.297400     3.357800     0.026300
H      11.235200     3.418100    -0.117000
C       3.349300     5.678800     6.154700
H       4.009200     6.334900     6.348700
C       9.788400     5.393200     5.626600
H      10.653000     5.540800     5.263700
C       9.446900     2.886400    -0.949000
H       9.805600     2.623700    -1.788300
C       4.783400     2.196100     6.581300
H       4.283100     2.929100     6.241700
C       3.045100     0.584100     3.950200
H       3.306900     0.168900     4.763500
C       6.248900     0.083400     7.585800
H       6.753100    -0.642200     7.934400
C       2.249800     1.800700     1.580300
H       1.976200     2.227200     0.776500
C       1.430700     3.759200     5.609200
H       0.773200     3.101100     5.419100
C       4.001200     5.194800    -0.380200
H       4.569200     4.999300    -1.115700
C       4.755300     1.920600     7.936700
H       4.231700     2.455400     8.521300
C       1.545800     4.266400     6.890200
H       0.971000     3.954300     7.580400
C       7.222400    -0.810200     1.405200
H       6.952800    -1.360100     0.680000
C       1.800900     0.294500     3.389500
H       1.221200    -0.322600     3.819400
C       7.267800     4.958600     6.577200
H       6.390300     4.811200     6.910200
C       1.406400     0.904700     2.209500
H       0.557200     0.707500     1.833700
C       2.504900     5.231600     7.166000
H       2.583300     5.587400     8.043300
C       1.841500     5.706600     0.494200
H       0.914300     5.854700     0.348000
C       8.542800    -0.812800     1.817600
H       9.171800    -1.383400     1.390600
C       2.654600     5.386800    -0.579100
H       2.283500     5.300400    -1.450600
C       8.947200     0.012000     2.845600
H       9.856000     0.014200     3.124900
