72
Refcode: KETTIP_comp_0 | Dataset: tmPHOTO | Charge: 1 | Potential Spins: [1, 3, 5]
Pt      0.311200    11.743300     9.549100
P      -1.714100    12.625400     8.823700
P       0.153900    11.414400     7.326600
N       0.482500    12.368600    11.547900
C      -0.353000    13.116300    12.250600
H      -1.182500    13.374800    11.865800
C      -0.036200    13.536500    13.551900
H      -0.640100    14.096700    14.024300
C       1.110000    13.155100    14.137500
H       1.299500    13.424400    15.028200
C       2.029400    12.353500    13.434800
C       1.670800    11.985000    12.112900
C       3.278100    11.872900    13.929000
H       3.549600    12.105700    14.809400
C       4.075900    11.099400    13.179900
H       4.903700    10.812800    13.548000
C       3.742900    10.683500    11.855500
C       4.540300     9.866800    11.049800
H       5.375200     9.550100    11.374100
C       4.119800     9.524200     9.796100
H       4.648000     8.931600     9.274900
C       2.907800    10.032700     9.255500
H       2.647000     9.795700     8.372600
C       2.113300    10.864500    10.003400
C       2.530500    11.187700    11.295600
C      -1.635300    14.361700     8.341700
C      -2.597300    14.911200     7.488400
H      -3.321900    14.376800     7.188500
C      -2.499400    16.221300     7.076500
H      -3.174300    16.600600     6.524300
C      -1.427400    16.975500     7.469000
H      -1.364500    17.874100     7.171700
C      -0.452900    16.477800     8.267100
H       0.286900    17.018600     8.520600
C      -0.554200    15.143900     8.715000
H       0.123100    14.779800     9.273600
C      -3.363900    12.407300     9.559300
C      -3.915300    13.437300    10.311000
H      -3.450700    14.258300    10.419100
C      -5.165200    13.247700    10.905600
H      -5.556600    13.945900    11.417900
C      -5.827600    12.062600    10.755000
H      -6.687100    11.952700    11.143700
C      -5.271400    11.032600    10.053500
H      -5.725200    10.203000     9.982800
C      -4.047100    11.207100     9.447300
H      -3.666700    10.496000     8.946600
C      -1.652800    11.663900     7.243800
H      -2.161800    10.814900     7.287600
H      -1.934700    12.194000     6.457400
C       0.600100     9.940100     6.398200
C      -0.079900     8.759300     6.592500
H      -0.764300     8.709700     7.250200
C       0.225300     7.651700     5.840900
H      -0.249300     6.839300     5.981200
C       1.214100     7.707700     4.887100
H       1.397300     6.942800     4.354300
C       1.935700     8.854100     4.699200
H       2.639600     8.877800     4.063400
C       1.631500     9.985300     5.443200
H       2.119900    10.789100     5.308000
C       0.930900    12.816800     6.471500
C       0.290900    13.508400     5.483100
H      -0.583000    13.252000     5.212800
C       0.925900    14.605200     4.861400
H       0.482800    15.083600     4.170200
C       2.193900    14.982300     5.263000
H       2.608700    15.740800     4.870400
C       2.870200    14.247500     6.248900
H       3.761700    14.467300     6.493400
C       2.212000    13.191700     6.853800
H       2.646500    12.713300     7.548800
