50
Refcode: KIDKOY_comp_0 | Dataset: tmPHOTO | Charge: 0 | Potential Spins: [1, 3, 5]
Pt      2.577900     3.909400    -0.969200
Cl      1.264500     4.070100    -2.985800
N       1.491600     2.431900     0.014700
N       3.973600     5.389100    -1.453600
N       7.133000     5.574900    11.946700
C       3.518000     3.958900     0.709000
C       2.923800     3.340200     1.811800
C       3.513300     3.470300     3.048300
H       3.142000     3.021700     3.799100
C       4.667400     4.265200     3.206600
C       5.235000     4.883800     2.075600
H       6.014900     5.417000     2.173700
C       4.668400     4.722400     0.820700
C       1.589900     2.713700     1.507600
H       0.862500     3.326300     1.781200
H       1.493100     1.869900     2.015400
C       2.150300     1.129100    -0.252700
H       1.687200     0.421500     0.244100
H       3.085700     1.171900     0.034300
H       2.111500     0.934500    -1.212000
C       0.062000     2.316700    -0.349600
H      -0.015600     2.074100    -1.296600
H      -0.385500     3.175300    -0.195000
H      -0.360600     1.624700     0.200000
C       5.147100     5.246000    -0.505400
H       5.813300     4.622900    -0.889300
H       5.583100     6.125500    -0.379000
C       3.339000     6.705800    -1.248800
H       3.055600     6.789500    -0.314000
H       2.557600     6.786900    -1.835100
H       3.981700     7.414300    -1.459800
C       4.464100     5.315800    -2.858200
H       3.710800     5.441400    -3.472800
H       4.872300     4.438800    -3.016400
H       5.129700     6.017300    -3.009100
C       5.226100     4.544400     4.516700
H       5.990900     5.107200     4.540000
C       4.783400     4.098500     5.693100
H       4.059600     3.482500     5.669800
C       5.293800     4.458900     7.016700
C       4.626300     3.989400     8.151300
H       3.855400     3.444100     8.049500
C       5.073900     4.310500     9.421000
H       4.601400     3.998200    10.184000
C       6.207800     5.081000     9.581700
C       6.881700     5.550500     8.464100
H       7.665600     6.077500     8.572100
C       6.422800     5.259000     7.209200
H       6.880800     5.608100     6.452400
C       6.719100     5.357600    10.901600
