49
Refcode: KIDKIS_comp_0 | Dataset: tmPHOTO | Charge: 0 | Potential Spins: [1, 3, 5]
Pt      2.379200     4.029700    -1.406500
I       8.273600     4.867300    10.455000
Cl      0.695900     4.261500    -3.119800
N       1.487200     2.519900    -0.274800
N       3.654400     5.536600    -2.095200
C       3.616700     4.027800     0.057700
C       3.235800     3.384900     1.240200
C       4.037900     3.486500     2.355200
H       3.800900     3.022000     3.148900
C       5.209600     4.273900     2.329500
C       5.559600     4.939100     1.138400
H       6.338600     5.483100     1.111400
C       4.771300     4.804500    -0.001200
C       1.866600     2.769600     1.173900
H       1.206600     3.377800     1.592200
H       1.859900     1.914500     1.673200
C       2.065500     1.206500    -0.688200
H       1.667600     0.490400    -0.149700
H       3.034900     1.218100    -0.548300
H       1.872300     1.048600    -1.635200
C       0.006100     2.416500    -0.364300
H      -0.250300     2.175700    -1.278200
H      -0.395600     3.278800    -0.128800
H      -0.311800     1.727200     0.256400
C       4.986200     5.410800    -1.371400
H       5.598900     4.838400    -1.896400
H       5.401900     6.305200    -1.278200
C       3.045000     6.847400    -1.756600
H       2.937300     6.916000    -0.785100
H       2.169200     6.921400    -2.188400
H       3.626200     7.569600    -2.074300
C       3.897800     5.501800    -3.567200
H       3.050300     5.629300    -4.041900
H       4.284800     4.635100    -3.813700
H       4.521200     6.217800    -3.812500
C       5.996000     4.479900     3.543900
H       6.677800     5.140700     3.515700
C       5.830300     3.809300     4.698200
H       5.229700     3.074600     4.666300
C       6.456100     4.063500     5.992300
C       6.177800     3.199400     7.051000
H       5.619000     2.446800     6.900100
C       6.696600     3.412500     8.319300
H       6.498200     2.811500     9.028400
C       7.506100     4.510200     8.538900
C       7.818900     5.383200     7.511000
H       8.384600     6.129500     7.670400
C       7.298100     5.156700     6.245000
H       7.514900     5.751500     5.537200
