61
Refcode: KISZET_comp_0 | Dataset: tmPHOTO | Charge: 1 | Potential Spins: [1, 3, 5]
Ir      6.210400    10.372800    10.857100
N       7.084000    11.611900    12.166400
N       6.450100    11.715600    13.378300
N       5.356100     8.912500     9.753700
N       5.698400     7.645900    10.100600
N       5.498300    11.935500     9.574000
N       7.691700    10.482400     9.338600
C       8.258600    12.211600    12.330700
H       8.920800    12.289700    11.653700
C       8.389900    12.700700    13.602500
H       9.132100    13.172100    13.961900
C       7.233100    12.369800    14.248900
H       7.021000    12.567600    15.152900
C       5.143700    11.140700    13.432600
C       4.315100    11.344900    14.516300
H       4.602400    11.854300    15.265800
C       3.039000    10.778200    14.470400
H       2.452600    10.864700    15.212800
C       2.639100    10.096100    13.353200
H       1.766800     9.723200    13.319800
C       3.498400     9.943500    12.261100
H       3.189300     9.487000    11.486600
C       4.796200    10.444400    12.282000
C       4.640300     8.804600     8.633700
H       4.281500     9.535900     8.143400
C       4.497800     7.467200     8.292500
H       4.019000     7.114800     7.551400
C       5.184300     6.761200     9.238300
H       5.279400     5.816400     9.277300
C       6.535900     7.530400    11.249800
C       6.901500     6.287900    11.761000
H       6.605600     5.484300    11.348700
C       7.704700     6.256700    12.882400
H       7.965800     5.421400    13.252900
C       8.130000     7.428100    13.466000
H       8.695400     7.396100    14.228000
C       7.733400     8.670500    12.943600
H       8.018500     9.471500    13.367100
C       6.921300     8.738400    11.807000
C       8.818700     9.750200     9.260600
H       9.044300     9.162300     9.972400
C       9.661000     9.838800     8.153200
H      10.452200     9.314600     8.116900
C       9.351000    10.682700     7.111200
H       9.918600    10.744800     6.352000
C       8.203400    11.432700     7.193400
H       7.958300    12.017900     6.485800
C       7.408200    11.325200     8.320300
C       6.179200    12.095800     8.511200
H       5.891200    12.710200     7.846700
C       4.267700    12.654100     9.750900
C       3.319600    12.676200     8.763300
H       3.463400    12.209600     7.949800
C       2.135300    13.393700     8.968100
H       1.467400    13.413200     8.293900
C       1.945600    14.067100    10.143700
H       1.143500    14.555900    10.281600
C       2.901700    14.039400    11.121600
H       2.761200    14.515500    11.930900
C       4.067000    13.326300    10.941900
H       4.724100    13.297400    11.628700
