73
Refcode: KISZOD_comp_0 | Dataset: tmPHOTO | Charge: 1 | Potential Spins: [1, 3, 5]
Ir      1.583100    19.650700     4.376400
Br     -4.136100    14.805200     5.966300
N       1.847300    18.362400     2.844800
N       0.828500    18.348300     1.902200
N       1.313500    21.202100     5.649900
N       1.930900    22.375400     5.258900
N       1.041900    17.979300     5.702800
N       3.311400    19.349100     5.604600
C       2.839200    17.642400     2.338500
C       2.491500    17.169100     1.074800
H       3.029900    16.637600     0.500600
C       1.229700    17.618300     0.821700
C      -0.269500    19.200700     2.204400
C      -1.395500    19.258800     1.399700
H      -1.477700    18.699300     0.636600
C      -2.389400    20.145200     1.732200
H      -3.167000    20.205400     1.190100
C      -2.269000    20.941400     2.837200
H      -2.947000    21.575200     3.041200
C      -1.156900    20.827100     3.660800
H      -1.098100    21.360600     4.442900
C      -0.120600    19.934700     3.354800
C       0.863800    21.394700     6.879600
C       1.205100    22.686200     7.300900
H       1.013600    23.071300     8.147100
C       1.861800    23.289900     6.275200
C       2.418000    22.385400     3.932800
C       2.921200    23.526500     3.347300
H       2.961800    24.344800     3.828900
C       3.368300    23.450300     2.036300
H       3.725200    24.218400     1.607500
C       3.291400    22.247000     1.348700
H       3.582900    22.196900     0.445800
C       2.789600    21.113900     1.981500
H       2.757600    20.293700     1.499800
C       2.332800    21.144000     3.294400
C       4.353700    20.175300     5.657500
H       4.465500    20.809100     4.958600
C       5.288400    20.151300     6.690700
H       6.017300    20.760900     6.696400
C       5.137200    19.242800     7.690000
H       5.755400    19.216700     8.411600
C       4.080600    18.360400     7.646600
H       3.966600    17.696500     8.317100
C       3.186100    18.472700     6.590600
C       1.962500    17.684500     6.541500
H       1.846600    16.952500     7.134600
C      -0.172400    17.239300     5.797300
C      -0.751900    16.924400     7.008100
H      -0.336000    17.209200     7.812800
C      -1.906400    16.216500     7.070400
H      -2.298100    16.013900     7.912900
C      -2.508800    15.789300     5.910600
C      -1.963700    16.064100     4.690300
H      -2.372200    15.741200     3.895100
C      -0.792500    16.832200     4.624200
H      -0.425200    17.074800     3.781700
C       4.114900    17.425800     3.046900
H       4.590400    18.278100     3.130000
H       4.665100    16.792100     2.542600
H       3.934400    17.062800     3.940400
C       0.395200    17.357600    -0.389100
H      -0.377000    16.808100    -0.143600
H       0.930900    16.884300    -1.059700
H       0.084000    18.209900    -0.761300
C       0.117300    20.379900     7.648400
H      -0.387900    19.810300     7.032600
H      -0.502200    20.827100     8.264300
H       0.746400    19.830400     8.160400
C       2.490800    24.623500     6.216600
H       2.054300    25.161000     5.523400
H       3.442800    24.527300     6.005000
H       2.393300    25.068800     7.085500
