67
Refcode: KOHROP_comp_0 | Dataset: tmPHOTO | Charge: unknown | Potential Spins: [1, 3, 5]
Ir    -12.892100     9.036800    10.095700
N     -12.800400     9.101700    12.256600
C     -13.854200     9.234600    13.085200
H     -14.709800     9.349000    12.711500
C     -13.732300     9.209300    14.457200
H     -14.493100     9.300300    15.004000
C     -12.481800     9.050000    15.020400
H     -12.376900     9.024500    15.954200
C     -11.385600     8.928600    14.182900
H     -10.521900     8.836300    14.544500
C     -11.565100     8.943600    12.805000
C     -10.497700     8.780000    11.836200
N     -10.843100     8.664200    10.529200
N      -9.739400     8.503800     9.795400
N      -8.666000     8.529700    10.608700
C      -9.113400     8.696800    11.879800
C      -8.191300     8.849300    13.031500
C      -7.633400    10.069200    13.349900
F      -7.870200    11.119300    12.563800
C      -6.829500    10.260700    14.460800
F      -6.331200    11.470900    14.733300
C      -6.562800     9.207800    15.281400
F      -5.810200     9.380800    16.371200
C      -7.098000     7.989500    15.010600
F      -6.868000     6.966200    15.849200
C      -7.911000     7.820800    13.907800
F      -8.473300     6.630900    13.723200
N     -13.549800     7.111300    10.225700
C     -12.733500     6.039600    10.329500
H     -11.807200     6.175900    10.400900
C     -13.221200     4.756400    10.335300
H     -12.632700     4.026400    10.399300
C     -14.580600     4.550400    10.243400
H     -14.925500     3.676000    10.245000
C     -15.428800     5.627600    10.149800
H     -16.357200     5.491300    10.094000
C     -14.904800     6.930500    10.137500
C     -15.661300     8.174500    10.000800
C     -17.037500     8.301000     9.923400
F     -17.819200     7.189100    10.024000
C     -17.686000     9.504700     9.760900
H     -18.623400     9.563100     9.715000
C     -16.888300    10.609400     9.669000
F     -17.497800    11.812800     9.489200
C     -15.513200    10.575400     9.751100
H     -15.013200    11.368700     9.687100
C     -14.873600     9.355500     9.927800
N     -12.430500    10.999300     9.767500
C     -12.233500    11.904000    10.737300
H     -12.242500    11.615200    11.631700
C     -12.018000    13.235900    10.476400
H     -11.895000    13.847400    11.180400
C     -11.986000    13.662500     9.163600
H     -11.833400    14.567700     8.960100
C     -12.178800    12.747600     8.160900
H     -12.165800    13.028200     7.263200
C     -12.393200    11.399200     8.462400
C     -12.602600    10.304800     7.518300
C     -12.590200    10.413200     6.126000
F     -12.334100    11.603100     5.547700
C     -12.806700     9.349000     5.285800
H     -12.800300     9.444700     4.350400
C     -13.030000     8.138800     5.886400
F     -13.243500     7.064700     5.070300
C     -13.043100     7.945700     7.244200
H     -13.189500     7.089200     7.601300
C     -12.835100     9.034100     8.088000
