55
Refcode: KUFDOG_comp_0 | Dataset: tmPHOTO | Charge: 1 | Potential Spins: [1, 3, 5]
Pt      0.910300     2.092400    10.408400
Cl      2.437600     2.232200    12.132500
N       1.388000     3.805000     9.468000
N      -0.399700     2.032800     8.986500
N       0.012800     0.355700    10.879700
N      -6.302500     1.914800     2.916800
C       2.368500     4.664000     9.768700
H       2.886400     4.501700    10.523200
C       2.642600     5.772200     9.011500
H       3.335800     6.347600     9.243500
C       1.862300     6.016500     7.891800
H       2.029800     6.762400     7.363900
C       0.827000     5.146000     7.561200
H       0.289600     5.309900     6.820000
C       0.616000     4.041000     8.350300
C      -0.433300     3.044300     8.081100
C      -1.374100     3.019700     7.097200
H      -1.398400     3.713200     6.478700
C      -2.310800     1.977100     6.993300
C      -3.350500     1.952500     5.948100
C      -3.498100     3.026300     5.044300
H      -2.924200     3.755800     5.103000
C      -4.477100     3.011500     4.079200
H      -4.570200     3.754100     3.527300
C      -5.340700     1.921300     3.889900
C      -6.502200     3.065600     2.015600
C      -7.136300     0.742600     2.687500
C      -5.175300     0.862300     4.785700
H      -5.722500     0.114800     4.703100
C      -4.233900     0.886900     5.782800
H      -4.183700     0.167200     6.369400
C      -2.228800     0.962300     7.963700
H      -2.833600     0.255700     7.945100
C      -1.260200     1.006600     8.939500
C      -1.047300     0.049200    10.054000
C      -1.820700    -1.073800    10.299300
H      -2.528700    -1.280300     9.734100
C      -1.550700    -1.873800    11.363100
H      -2.081700    -2.613100    11.552400
C      -0.457900    -1.555800    12.160200
C       0.300100    -0.455700    11.896300
H       1.033300    -0.267200    12.434800
C      -6.446100    -0.373800     1.948900
C      -5.689100     3.000000     0.754500
H      -0.321300    -2.032800    12.744100
H      -6.094800     2.213100     0.319900
H      -7.552400     0.327900     3.652600
H      -7.424700     3.065600     1.706300
H      -6.409900     3.934500     2.506200
H      -5.956900     3.639400     0.319900
H      -4.623300     2.836100     1.093100
H      -7.129400    -1.016400     1.759600
H      -7.870100     1.049200     2.239600
H      -5.303700    -0.606600     2.559500
H      -6.310100    -0.049200     1.306400
