99
Refcode: KUHDAU_comp_0 | Dataset: tmPHOTO | Charge: 1 | Potential Spins: [1, 3, 5]
Cu     -2.721600     8.413400     5.395200
N      -1.301600     9.981500     6.027900
O      -4.586400     9.473300     2.998200
F      -3.498600    14.056400     0.766900
P      -2.497000     7.553400     3.288100
N      -1.048100    11.321000     5.918800
F      -1.521300    13.553000     0.122000
P      -4.853000     9.085400     5.943600
N      -1.699800     7.456400     6.915400
F      -1.899200    15.361700     1.099000
C      -4.130400     7.225900     2.534700
C      -5.070400     8.248600     2.568500
C      -1.660000     8.617800     2.072600
C      -5.071800     9.688300     7.662200
C      -1.638100     5.946500     3.125700
C      -0.729600     9.614100     7.188200
C      -0.820300     8.220400     7.607700
C      -5.580600    10.443600     4.948100
C      -6.120600     7.782000     5.723700
C      -2.285600    11.521300     3.843800
H      -2.701400    10.707900     4.021200
C      -1.398500    12.044000     4.738900
C      -5.440600    10.419400     3.571300
C      -6.376300     8.052600     2.152300
H      -6.995600     8.743500     2.196200
C      -0.597000     5.735100     2.214500
H      -0.338300     6.413200     1.633000
C      -7.460100     8.077900     5.515200
H      -7.746000     8.963100     5.491400
C      -0.122900    10.698300     7.806500
H       0.325400    10.696800     8.622100
C      -4.090000    10.475200     8.194200
H      -3.345000    10.693200     7.680300
C      -1.761100     6.155300     7.246900
H      -2.374500     5.619400     6.797100
C      -0.019700     7.707200     8.607400
H       0.560400     8.260800     9.079200
C      -5.729800     6.466000     5.778500
H      -4.834900     6.260800     5.924800
C      -2.000400     4.918600     3.957200
H      -2.699600     5.043300     4.557000
C      -2.563800    12.197300     2.680800
H      -3.163000    11.837100     2.068200
C      -6.177000     9.373900     8.444700
H      -6.848700     8.834600     8.093600
C      -2.222800    14.076300     1.115500
C      -0.313900    11.766300     6.981800
H      -0.004700    12.632700     7.117100
C      -1.958200    13.399800     2.419300
C      -0.466900     9.244000     2.423000
H      -0.094500     9.090300     3.262300
C      -2.176900     8.866200     0.795500
H      -2.970400     8.454500     0.537600
C      -0.977200     5.569100     8.203300
H      -1.039500     4.657300     8.378800
C      -8.367400     7.050200     5.345100
H      -9.263500     7.250300     5.195200
C      -0.094000     6.365400     8.900000
H       0.448500     5.997900     9.560200
C      -6.279200    11.522800     5.496900
H      -6.380400    11.587600     6.420400
C      -4.532300     6.005900     2.026100
H      -3.920700     5.306100     1.976800
C      -1.352200     3.705500     3.920600
H      -1.614500     3.018600     4.489300
C      -5.975700    11.391600     2.739300
H      -5.859800    11.347600     1.815800
C      -4.193700    10.959200     9.509000
H      -3.516800    11.485400     9.869200
C      -6.737000     6.820300     1.675000
H      -7.615700     6.674400     1.406200
C       0.049000     4.505100     2.181600
H       0.734100     4.358600     1.570800
C      -1.101400    13.926100     3.331800
H      -0.706500    14.750900     3.165400
C      -6.682000    12.419900     3.311700
H      -7.069200    13.068600     2.770400
C      -6.824500    12.501400     4.674000
H      -7.287100    13.215000     5.048900
C       0.172800    10.095600     1.534200
H       0.965200    10.514000     1.782900
C      -0.314200     3.512800     3.041000
H       0.140800     2.702100     3.030100
C      -0.807800    13.263000     4.491200
H      -0.215700    13.632200     5.107400
C      -5.833600     5.806500     1.589100
H      -6.088100     4.983500     1.238000
C      -0.352500    10.319700     0.299900
H       0.083300    10.889200    -0.292600
C      -6.646700     5.439400     5.621300
H      -6.377000     4.551000     5.670600
C      -7.973500     5.762900     5.392700
H      -8.599300     5.085300     5.270200
C      -1.538400     9.703300    -0.078600
H      -1.896300     9.858400    -0.923500
C      -6.289600     9.848400     9.722900
H      -7.031600     9.632900    10.240400
C      -5.280600    10.657500    10.244100
H      -5.359800    10.993000    11.107200
