31
Refcode: LABMIL_comp_0 | Dataset: tmPHOTO | Charge: 0 | Potential Spins: [1, 3, 5]
Pd      1.799400    -0.526400    15.185800
S       0.854900    -0.266800    13.072500
C       0.913100     1.385900    12.930600
C       1.453600     2.277700    13.942100
S       2.052600     1.779700    15.401800
S       2.691200    -0.820000    17.245100
C       2.675800    -2.544100    17.405400
C       2.196700    -3.362100    16.439600
S       1.548400    -2.752700    14.951500
C       3.191600    -3.103500    18.618300
N       3.611300    -3.575800    19.560400
C       2.225800    -4.786000    16.579100
N       2.273100    -5.923100    16.665600
N       0.486900     2.156800    11.910800
C      -0.069800     1.654400    10.649300
H      -0.643800     2.333200    10.260200
H      -0.611900     0.870000    10.828200
C       1.011000     1.295900     9.663900
H       0.610200     0.972700     8.853000
H       1.571100     0.611400    10.038100
H       1.539900     2.073200     9.471700
C       0.728400     3.501300    12.187600
S       0.364300     4.784700    11.260600
N       1.337000     3.528400    13.444300
C       1.785500     4.749400    14.131500
H       2.138300     5.372100    13.475600
H       2.502800     4.524500    14.744100
C       0.681000     5.417100    14.896200
H       1.019900     6.207000    15.324000
H       0.340700     4.812700    15.559500
H      -0.025400     5.658800    14.292400
