112
Refcode: LATTEG_comp_0 | Dataset: tmPHOTO | Charge: 1 | Potential Spins: [1, 3, 5]
Ag    -10.097800     7.190700    13.074100
P     -12.352700     7.620800    13.926100
P      -9.289300     8.160500    10.961900
C      -9.526900     4.005100    13.553800
H     -10.192000     3.926300    12.908600
C      -9.018400     2.838800    14.116900
H      -9.340500     2.008300    13.851000
C      -8.041200     2.933200    15.059400
H      -7.688500     2.164000    15.446500
C      -7.566900     4.211000    15.449100
C      -6.530800     4.446300    16.388200
C      -6.090100     5.692000    16.730700
C      -6.650300     6.864300    16.126200
C      -6.227400     8.170400    16.394800
H      -5.557600     8.326900    17.020500
C      -6.808600     9.221100    15.724200
H      -6.524500    10.094100    15.872800
C      -7.816700     8.957700    14.828700
H      -8.212100     9.678700    14.394600
C      -8.144900     5.338900    14.828700
C      -7.687500     6.680700    15.169500
C      -4.861200     4.315200    17.814700
C      -3.821900     3.743300    18.666600
C      -3.660900     2.369100    18.793900
H      -4.230200     1.792700    18.336400
C      -2.649100     1.847600    19.605300
H      -2.554500     0.925300    19.671800
C      -1.792800     2.656700    20.307300
C      -1.983500     4.057800    20.203700
H      -1.436300     4.637000    20.682700
C      -2.981600     4.559400    19.390300
H      -3.089300     5.480300    19.331600
C      -0.553800     0.734000    21.148000
H      -1.252800     0.289700    20.661200
H      -0.571600     0.450000    22.065100
H       0.295900     0.513300    20.760900
C       0.168600     3.006600    21.752200
H      -0.086700     3.923500    21.625100
H       1.047800     2.867300    21.392500
H       0.168200     2.802600    22.688800
C     -12.351000     8.239300    15.640100
C     -13.263700     7.827900    16.598200
H     -13.931200     7.215500    16.387000
C     -13.159200     8.350700    17.882800
H     -13.758700     8.074700    18.535800
C     -12.201200     9.258100    18.201500
H     -12.145100     9.590000    19.067700
C     -11.321200     9.681600    17.251200
H     -10.687700    10.328300    17.466300
C     -11.359300     9.160800    15.970500
H     -10.731500     9.423800    15.337000
C     -13.354900     8.823100    13.002400
C     -13.434800     8.681300    11.616200
H     -12.961700     7.997800    11.199700
C     -14.202400     9.539000    10.847800
H     -14.266300     9.408000     9.928800
C     -14.852300    10.553300    11.420600
H     -15.362300    11.133300    10.900500
C     -14.770400    10.739600    12.762000
H     -15.223900    11.448200    13.158900
C     -14.004100     9.869000    13.549900
H     -13.942900    10.016500    14.466900
C     -13.441400     6.160300    13.991800
C     -14.770000     6.178900    13.624200
H     -15.160000     6.965200    13.315300
C     -15.525900     5.009900    13.720000
H     -16.409200     5.011700    13.430700
C     -14.998600     3.878700    14.222500
H     -15.524900     3.116800    14.304600
C     -13.653000     3.853200    14.621400
H     -13.281600     3.076400    14.975300
C     -12.889100     4.988100    14.482600
H     -11.990300     4.968400    14.721100
C      -8.940500     9.899000    11.391300
C      -7.734100    10.513900    11.158600
H      -7.067000    10.076200    10.679600
C      -7.524100    11.793400    11.643500
H      -6.697800    12.197600    11.510600
C      -8.488200    12.468700    12.302500
H      -8.341300    13.347000    12.572300
C      -9.684000    11.858900    12.574200
H     -10.340600    12.301900    13.061100
C      -9.894300    10.588000    12.116700
H     -10.706500    10.173400    12.300500
C     -10.482300     8.260400     9.588600
C     -10.723600     9.429100     8.898400
H     -10.258300    10.202600     9.121300
C     -11.663500     9.455000     7.864000
H     -11.788000    10.237100     7.375200
C     -12.377800     8.381900     7.574700
H     -13.028400     8.419900     6.909900
C     -12.155900     7.207800     8.257000
H     -12.653100     6.451100     8.045900
C     -11.200000     7.142000     9.258100
H     -11.045800     6.340600     9.703900
C      -7.770500     7.567200    10.145800
C      -6.851300     6.861100    10.888800
H      -7.034400     6.674600    11.780400
C      -5.656200     6.423200    10.335500
H      -5.041100     5.955900    10.851700
C      -5.394000     6.695300     8.988300
H      -4.599200     6.407100     8.601200
C      -6.316400     7.390300     8.239400
H      -6.141900     7.571100     7.342000
C      -7.495400     7.821600     8.806500
H      -8.113200     8.287600     8.290300
N      -9.120400     5.217600    13.885600
N      -8.265000     7.741900    14.545100
N      -5.740500     3.574300    17.085600
N      -5.042800     5.619700    17.617200
H      -4.602700     6.270700    17.966800
N      -0.756000     2.163200    21.083500
