89
Refcode: LEJLEU_comp_0 | Dataset: tmPHOTO | Charge: unknown | Potential Spins: [1, 3, 5]
Ir     20.977300    10.350400     7.815300
N      21.009300    12.312700     9.995600
N      20.825700    10.399000    11.009900
N      18.929500    10.259900     7.850600
N      23.002400    10.190700     7.635200
C      20.945600    10.966500     9.771500
C      21.084100     8.967000    11.260000
H      20.284300     8.447200    11.039400
H      21.308600     8.834800    12.204800
H      21.831600     8.665600    10.702500
C      20.776500    11.372600    12.003400
C      20.545700    11.261900    13.424100
C      19.927400    10.163700    14.177900
C      18.983000     9.185400    13.630800
C      18.346300     9.351600    12.380300
H      18.540100    10.120600    11.854000
C      17.435700     8.401000    11.913100
H      16.986600     8.548700    11.088100
C      17.171200     7.232100    12.642500
H      16.620500     6.546100    12.279500
C      17.731000     7.096700    13.905200
H      17.534200     6.327700    14.422800
C      18.583100     8.078000    14.429700
C      19.056900     7.967300    15.770600
H      18.844600     7.195200    16.284700
C      19.832100     8.985500    16.335100
H      20.096600     8.924000    17.245200
C      20.232000    10.123700    15.551800
C      20.767200    11.258800    16.184000
H      20.945600    11.221900    17.114900
C      21.028700    12.378500    15.530900
H      21.268600    13.156800    16.020700
C      20.961000    12.446200    14.122300
C      21.259400    13.661300    13.436300
H      21.490100    14.427200    13.946900
C      21.228600    13.765900    12.093700
H      21.370200    14.596400    11.654300
C      20.976400    12.575400    11.365900
C      21.013300    13.156800     8.835400
C      20.902600    14.522600     8.889200
H      20.838000    14.965600     9.728100
C      20.884100    15.245500     7.718600
H      20.831800    16.193000     7.756800
C      20.939500    14.618000     6.485400
C      20.999800    13.224500     6.468000
H      21.016400    12.784600     5.625700
C      21.037600    12.443100     7.628200
C      20.951800    15.430100     5.215800
H      20.370400    16.211400     5.321700
H      20.628800    14.879400     4.472400
H      21.868500    15.728500     5.028200
C      18.115600    11.304900     7.643900
H      18.506200    12.147800     7.447600
C      16.749700    11.224900     7.702900
H      16.211400    11.994000     7.569200
C      16.177600     9.991400     7.961700
H      15.233200     9.899100     8.005100
C      16.995800     8.893200     8.156200
H      16.605200     8.044200     8.317800
C      18.374000     9.016300     8.121500
C      19.370600     7.958100     8.298700
C      19.093800     6.629100     8.614800
C      20.044300     5.660200     8.743300
H      19.822800     4.768100     8.974300
C      21.351700     6.066200     8.514000
C      21.696200     7.352000     8.227500
H      22.612900     7.573500     8.093700
C      20.724200     8.354900     8.130200
C      23.858800    10.295900     8.653000
H      23.523500    10.578900     9.497100
C      25.215400    10.019100     8.543600
H      25.796800    10.105200     9.290400
C      25.682900     9.613000     7.319100
H      26.593500     9.360800     7.213100
C      24.827800     9.573000     6.250900
H      25.163100     9.336200     5.392900
C      23.477300     9.868400     6.395100
C      22.471400     9.806800     5.351200
C      22.699100     9.582300     4.003400
C      21.702400     9.517700     3.084600
H      21.890000     9.379200     2.162400
C      20.416500     9.653000     3.532800
C      20.108900     9.874500     4.852800
H      19.201500     9.960600     5.113300
C      21.136400     9.972900     5.832300
F      17.795000     6.242800     8.821500
F      22.312100     5.120300     8.613000
F      23.973800     9.483800     3.536200
F      19.410600     9.551500     2.633100
