71
Refcode: LEYXAQ_comp_0 | Dataset: tmPHOTO | Charge: unknown | Potential Spins: [1, 3, 5]
Ni      4.024100     7.845500    10.735900
S       4.991000     9.448200     9.727800
C       5.311000    10.614500    10.932400
C       6.062300    11.859300    10.494600
C       5.234700    12.863500     9.704200
C       6.037300    14.088900     9.296300
C       5.219800    15.138700     8.550100
C       4.929000    10.366100    12.231200
S       4.136100     8.887100    12.581000
C       5.180300    11.270800    13.379600
C       5.918200    10.817400    14.465400
C       6.167500    11.674100    15.541300
C       5.641800    12.978000    15.502300
N       6.025900    13.626700    16.649300
C       5.700700    14.995900    16.981000
C       6.779000    12.752100    17.404900
C       6.892100    11.561100    16.769500
C       4.872900    13.445600    14.434900
C       4.662600    12.579500    13.381500
H       6.440100    12.292300    11.294200
H       6.794200    11.559600     9.911400
H       4.467800    13.128700    10.242100
H       4.902400    12.416300     8.893700
H       6.389400    14.485900    10.124000
H       6.762700    13.781400     8.713300
H       5.756300    15.913800     8.324600
H       4.460700    15.416400     9.084800
H       4.910300    14.727600     7.723400
H       6.259700     9.945000    14.444100
H       6.115300    15.220300    17.806600
H       5.982700    15.590600    16.282100
H       4.744700    15.079100    17.078700
H       7.147500    12.981200    18.246800
H       7.372700    10.809500    17.059400
H       4.498500    14.319600    14.429100
H       4.155500    12.890200    12.646900
S       3.057200     6.242800    11.744000
C       2.737200     5.076500    10.539500
C       1.985900     3.831700    10.977300
C       2.813500     2.827500    11.767700
C       2.010900     1.602100    12.175600
C       2.828400     0.552300    12.921800
C       3.119200     5.324900     9.240600
S       3.912100     6.803900     8.890900
C       2.867900     4.420200     8.092300
C       2.130000     4.873600     7.006500
C       1.880700     4.016900     5.930500
C       2.406300     2.713000     5.969600
N       2.022300     2.064300     4.822600
C       2.347500     0.695100     4.490800
C       1.269200     2.938900     4.067000
C       1.156100     4.129900     4.702300
C       3.175300     2.245400     7.037000
C       3.385600     3.111500     8.090400
H       1.608100     3.398700    10.177700
H       1.254000     4.131400    11.560500
H       3.580400     2.562300    11.229800
H       3.145800     3.274700    12.578200
H       1.658800     1.205100    11.347900
H       1.285400     1.909600    12.758600
H       2.291800    -0.222800    13.147200
H       3.587500     0.274600    12.387100
H       3.137900     0.963400    13.748400
H       1.788500     5.746000     7.027700
H       1.932800     0.470700     3.665300
H       2.065500     0.100400     5.189800
H       3.303500     0.611900     4.393100
H       0.900700     2.709800     3.225100
H       0.675500     4.881500     4.412500
H       3.549700     1.371400     7.042800
H       3.892700     2.800800     8.824900
