42
Refcode: LIFFIP_comp_0 | Dataset: tmPHOTO | Charge: unknown | Potential Spins: [1, 3, 5]
Re      3.005200     1.994300     1.362600
Cl      1.257200     1.838600     3.108000
O       1.782600    -0.226100    -0.335900
O       5.277900     2.135100    -0.642600
O       4.506800    -0.179400     2.875900
N       3.754500     3.718100     2.594300
N       1.662900     3.515300     0.354400
C       2.859600     4.618000     2.952600
C       3.175400     5.861000     3.502700
C       4.451000     6.201000     3.695700
C       5.471000     5.251200     3.378400
C       6.829500     5.517900     3.605800
C       7.777800     4.607100     3.349300
C       7.397800     3.343800     2.861400
C       6.103200     3.050600     2.583700
C       5.093700     4.008200     2.836200
C       0.380300     3.181600     0.264500
C      -0.609100     4.026900    -0.247300
C      -0.283100     5.252700    -0.658500
C       1.079300     5.666000    -0.617500
C       1.481600     6.946500    -1.056500
C       2.770000     7.283300    -1.060400
C       3.754600     6.366300    -0.669100
C       3.393500     5.121700    -0.187800
C       2.036900     4.766100    -0.145400
C       2.235900     0.609800     0.306800
C       4.404200     2.102300     0.093900
C       3.956900     0.655000     2.306000
H       1.910900     4.398100     2.829600
H       2.457700     6.487900     3.742000
H       4.683400     7.080600     4.046100
H       7.090700     6.394400     3.966800
H       8.727300     4.819200     3.504000
H       8.082100     2.651300     2.723800
H       5.863100     2.183400     2.208200
H       0.113900     2.292600     0.581800
H      -1.537200     3.727400    -0.304100
H      -0.978100     5.864100    -0.991700
H       0.806500     7.595300    -1.361900
H       3.031400     8.187900    -1.335500
H       4.700900     6.612700    -0.740500
H       4.079900     4.491600     0.119000
