115
Refcode: LINVEK_comp_0 | Dataset: tmPHOTO | Charge: 0 | Potential Spins: [1, 3, 5]
Cu      1.083900     9.229000     6.076900
P      -0.604300     9.980500     7.489700
P       0.405700     7.823800     4.327900
P       2.567700    10.831600     5.297400
C       1.826400    12.333000     4.538900
C       0.617700    12.788200     5.030200
H       0.171900    12.292500     5.706100
C      -0.948200     6.130300     6.043100
H      -0.146800     6.182800     6.552000
C       1.474900     6.511300     3.582800
C       0.538400     7.745300     8.605300
C      -1.712500     7.029400    10.173700
H      -2.479600     6.783000    10.679200
C       4.839600    13.429100     7.599400
H       5.000200    14.364200     7.659900
C       4.370800    10.716500     7.423800
H       4.210800     9.782000     7.374400
C      -2.237500     6.727800     4.100100
H      -2.323400     7.187500     3.274900
N       1.539700     8.039400     7.715500
C      -2.393800    10.374900     7.172600
H      -2.863200    10.399400     8.054100
C      -0.547900     6.270200    10.249800
C       5.219600    11.214100     8.397800
H       5.651300    10.618800     8.998000
C      -2.575200    11.734500     6.506600
H      -2.188900    11.711700     5.605900
H      -2.121100    12.421600     7.037800
H      -3.529800    11.944000     6.447600
C       3.657200    10.223400     3.950300
C       3.675800     7.302600     6.860900
H       3.292000     7.271400     5.991600
C       5.245000     9.112300     1.920000
H       5.783200     8.745000     1.229400
C       2.829400     6.748200     3.385700
H       3.201600     7.581200     3.647800
C       4.000700    12.939000     6.607600
H       3.598900    13.538100     5.989400
C       1.891000    14.240700     3.060800
H       2.337500    14.740700     2.386400
C       4.820000     7.342400     9.361500
H       5.210200     7.353100    10.227400
C       3.469300     7.620500     9.224900
H       2.948900     7.811400     9.997300
C       5.712000     9.165800     3.216700
H       6.574200     8.822500     3.421900
C       3.747000    11.571800     6.514700
C       5.442400    12.568500     8.499000
H       6.006700    12.910000     9.183400
C      -1.045100     6.821800     4.830800
C      -1.998900     5.376100     6.505500
H      -1.917700     4.907100     7.327500
C       4.927500     9.719100     4.229700
H       5.262300     9.751800     5.118000
C      -3.185100     5.295200     5.776800
H      -3.916100     4.782300     6.102400
C       3.983900     9.601000     1.639200
H       3.654300     9.569000     0.747900
C       0.677000    14.681800     3.550600
H       0.280900    15.472100     3.204600
C      -1.122000    11.649300     9.750800
H      -1.309000    10.829600    10.253000
H      -1.949800    11.976300     9.341100
H      -0.765100    12.331300    10.357400
C      -3.282700     5.969900     4.576400
H      -4.085200     5.909600     4.071800
C       2.859500     7.623300     7.958700
C       5.611200     7.048500     8.266800
H       6.536800     6.862600     8.371600
C       1.781900     4.304500     2.630200
H       1.419400     3.465700     2.369400
C      -1.743600     8.150800     9.351300
H      -2.534600     8.676200     9.317600
C      -3.036000     9.270600     6.329900
H      -4.010000     9.384000     6.332500
H      -2.807400     8.396500     6.707500
H      -2.702600     9.325900     5.409900
C       0.952700     5.263600     3.203300
H       0.031700     5.074900     3.338800
C      -0.092300    11.353100     8.656500
H       0.010800    12.185000     8.111600
C       2.460500    13.081000     3.542100
H       3.293000    12.787300     3.191800
C      -0.655700     8.523200     8.582100
C       0.040000    13.964700     4.550400
H      -0.785100    14.271700     4.907000
C      -0.380900     8.171300     1.605500
H      -0.073100     7.286500     1.440400
C       0.552400     6.630500     9.488900
H       1.346300     6.114000     9.560500
C      -0.249100     8.724800     2.865800
C       1.273800    11.039600     9.271200
H       1.572900    11.802000     9.809800
H       1.923200    10.870500     8.557000
H       1.201000    10.246600     9.841800
C      -0.719900    10.018000     3.076100
H      -0.640000    10.403700     3.939700
C       3.195500    10.136300     2.645500
H       2.322800    10.448900     2.437500
C       3.120600     4.559300     2.438600
H       3.681700     3.896000     2.054000
C      -1.299800    10.750900     2.064500
H      -1.608600    11.634200     2.224500
C       3.647300     5.783800     2.808700
H       4.569700     5.965600     2.667700
C       5.018600     7.033200     7.011800
H       5.545900     6.834700     6.247300
C      -0.486600     5.046100    11.153700
H      -0.763400     5.294300    12.059900
H       0.430300     4.700600    11.175600
H      -1.087900     4.354200    10.807000
C      -1.423900    10.179300     0.818000
H      -1.832800    10.670400     0.115100
C      -0.962200     8.907500     0.577000
H      -1.040900     8.529900    -0.291900
