71
Refcode: LODVIK_comp_0 | Dataset: tmPHOTO | Charge: 1 | Potential Spins: [1, 3, 5]
Mn      8.202300     6.939000    19.086100
P       6.540400     6.175600    20.506600
P       9.107000     5.258000    20.393700
N       8.920600     8.776200    21.462300
C       7.635000     5.049700    21.466500
C       9.718000     7.388400    18.177000
O      10.651500     7.704100    17.586500
C       7.735400     5.724800    17.787300
O       7.457600     4.985700    16.969800
C       7.246500     8.249700    18.251100
O       6.665400     9.075800    17.699400
C       8.665500     8.129300    20.545900
C       9.170800     9.526100    22.710000
C      10.542300    10.149600    22.620700
H      10.562200    10.776000    21.894300
H      11.197500     9.464100    22.470000
H      10.740500    10.606100    23.441200
C       8.083900    10.578000    22.818400
H       8.158900    11.191200    22.084500
H       8.182500    11.055200    23.646400
H       7.224200    10.152600    22.792900
C       9.087800     8.528900    23.847700
H       9.786000     7.875900    23.754100
H       8.234200     8.088700    23.826700
H       9.189900     8.988400    24.685200
C       5.133500     5.196200    19.914600
C       4.567800     5.470700    18.678100
H       4.961800     6.100100    18.117200
C       3.417800     4.808900    18.275400
H       3.034000     5.000900    17.448900
C       2.847500     3.870700    19.098400
H       2.078000     3.424600    18.825500
C       3.402900     3.579700    20.328400
H       3.011200     2.937000    20.875500
C       4.543700     4.245000    20.748900
H       4.914000     4.058400    21.581400
C       9.512400     3.640300    19.696100
C      10.119300     3.578200    18.441600
H      10.235000     4.352400    17.939500
C      10.551200     2.352000    17.944500
H      10.957300     2.307700    17.108400
C      10.381300     1.208500    18.681400
H      10.660600     0.391500    18.337400
C       9.797200     1.261700    19.936100
H       9.697900     0.484600    20.437500
C       9.361200     2.465500    20.443000
H       8.964500     2.498200    21.283500
C       5.755100     7.290700    21.707800
C       5.307200     8.552600    21.303100
H       5.473300     8.845100    20.435000
C       4.617700     9.367300    22.182900
H       4.318800    10.202800    21.904300
C       4.374700     8.947500    23.469500
H       3.906600     9.496600    24.056900
C       4.826600     7.704200    23.890700
H       4.668600     7.425300    24.765300
C       5.508900     6.878400    23.018400
H       5.805900     6.045400    23.306000
C      10.534000     5.536500    21.481500
C      11.544500     6.399400    21.113800
H      11.443000     6.931900    20.357400
C      12.708100     6.479800    21.859000
H      13.381000     7.070700    21.606400
C      12.870800     5.686700    22.974600
H      13.665500     5.718900    23.458700
C      11.851200     4.843700    23.371400
H      11.949600     4.328700    24.139500
C      10.688800     4.762200    22.637700
H      10.006500     4.192800    22.910500
H       7.303200     4.225300    21.551400
H       7.784400     5.422000    22.272300
