61
Refcode: LOKSOV_comp_0 | Dataset: tmPHOTO | Charge: 0 | Potential Spins: [1, 3, 5]
C      11.474400     1.270600     9.610700
H      11.368200     1.502400     8.715700
C      11.945400     0.002100     9.952400
H      12.132300    -0.625000     9.291700
C      12.129900    -0.307600    11.275200
H      12.471300    -1.141200    11.507000
C      11.824400     0.576100    12.244300
H      11.939400     0.347500    13.138100
C      11.342700     1.813400    11.908500
H      11.130800     2.419200    12.581300
C      11.169200     2.173600    10.592900
C      12.399500     4.884300    11.145000
H      13.035700     4.279900    10.835500
C      12.788300     6.045300    11.777100
H      13.697300     6.208200    11.893000
C      11.886200     6.971100    12.243100
H      12.161500     7.765800    12.641000
C      10.553600     6.664700    12.092500
H       9.917200     7.247600    12.440300
C      10.122100     5.511700    11.437700
H       9.215400     5.344300    11.315800
C      11.062600     4.632400    10.977700
C       9.694500     3.580800     9.261800
C       9.451200     4.653500     8.483900
H       9.950600     5.436700     8.516200
C       8.373000     4.466600     7.627100
H       8.081600     5.121400     7.034500
C       7.777700     3.246900     7.726300
C       6.620400     2.745900     7.020100
C       5.957600     3.538700     6.064200
H       6.295900     4.374700     5.838400
C       4.817300     3.080900     5.466700
C       4.022100     3.875200     4.482100
C       4.340300     5.153300     4.096200
H       5.107400     5.566000     4.421200
C       3.502000     5.819400     3.215500
H       3.702700     6.683900     2.937100
C       2.379500     5.189700     2.762600
H       1.803400     5.617900     2.171200
C       2.109800     3.903300     3.198800
H       1.340500     3.477400     2.895300
C       6.056800     1.491000     7.303300
H       6.471000     0.919500     7.909100
C       4.893700     1.110100     6.685500
C       4.137300    -0.142800     7.011800
C       4.531400    -1.046200     7.971300
H       5.327100    -0.921000     8.436100
C       3.731000    -2.142900     8.237700
H       3.974400    -2.760800     8.889000
C       2.568200    -2.300600     7.518400
H       2.011000    -3.028700     7.677300
C       2.242100    -1.376900     6.572000
H       1.459900    -1.495000     6.084500
Cl      0.438400     1.699100     5.591000
Cl      2.757500     0.027300     2.941000
N      10.640600     3.453900    10.257100
N       4.285600     1.886600     5.767900
N       3.006800    -0.302300     6.315100
N       2.918600     3.254600     4.040000
S       8.575900     2.308300     8.924100
Zn      2.527900     1.230900     4.827500
