75
Refcode: LOPCAW_comp_0 | Dataset: tmCAT;tmPHOTO | Charge: 0 | Potential Spins: [1, 3, 5]
Ni      1.377800     5.513700     0.413100
N       0.575600     3.837500     0.999800
N       2.284100     7.121100    -0.237300
N       0.346400     5.442300    -1.237400
N       2.336000     5.631100     2.108200
N       4.798900     8.345900     2.265800
N       4.888800     9.565500     2.080800
C       2.147000     7.731600    -1.469200
C       1.176600     7.435400    -2.422800
C       3.126400     8.767500    -1.630100
H       3.243200     9.316200    -2.397500
N       5.148700    10.670600     2.026800
C       2.672700     1.503000     6.192900
H       3.494100     1.199100     6.559300
C       0.802200     3.152900     2.181600
C      -1.352300     1.815200    -2.916100
H      -0.561600     2.126100    -3.342600
C      -1.665000     2.264800    -1.636600
C       0.994900    10.398000    -4.787600
H       0.913200    11.342600    -4.728100
C       1.502000     2.820400     4.533700
C       2.690700     2.357700     5.098300
H       3.522900     2.630800     4.729400
C      -0.334400     1.702600     0.905600
H      -0.772200     0.931500     0.564900
C       0.978000     9.635700    -3.622900
H       0.867400    10.064700    -2.783000
C       3.627900     6.436000     3.856400
H       4.238000     6.981500     4.339900
C       3.850200     8.821200    -0.496900
H       4.569600     9.412600    -0.309200
C       1.122200     8.251300    -3.676200
C       1.476000     1.085000     6.761500
C      -2.812700     1.775900    -1.017500
H      -3.030400     2.058100    -0.136500
C       1.487200     3.645600     3.289200
C       0.299700     6.373600    -2.256400
C      -2.183100     0.917300    -3.579100
H      -1.959600     0.618300    -4.452300
C      -3.334300     0.460100    -2.963500
H      -3.912400    -0.138500    -3.421600
C       0.259300     1.824300     2.110200
H       0.309000     1.157800     2.784400
C      -0.178000     2.961500     0.238500
C       3.322800     7.811700     0.370400
C      -3.641800     0.875700    -1.680300
H      -4.422400     0.545200    -1.250300
C       2.187500     4.841300     3.234400
C      -1.297600     4.894000    -2.780100
H      -2.016100     4.430500    -3.194000
C       1.238400     7.648400    -4.936000
H       1.325500     6.704600    -4.998500
C       2.967800     5.364300     4.326500
H       3.007600     5.017900     5.210000
C      -0.787100     3.271000    -0.968400
C      -0.747500     6.048200    -3.190500
H      -1.000800     6.554500    -3.953000
C      -0.591100     4.494200    -1.595100
C       0.303800     2.436900     5.136900
H      -0.518900     2.765700     4.795000
C       1.227600     8.413000    -6.091500
H       1.288600     7.981000    -6.935500
C       3.736700     7.596300     1.670200
C       0.297200     1.583600     6.227800
H      -0.532200     1.335200     6.618200
C       3.239000     6.597900     2.491700
C       1.129600     9.802000    -6.040200
C       1.440200     0.090700     7.903100
H       0.964100    -0.717400     7.618200
H       0.976500     0.488900     8.669000
H       2.355500    -0.144400     8.161700
C       1.159700    10.635400    -7.306600
H       0.301900    10.551700    -7.773500
H       1.880900    10.317800    -7.889900
H       1.315700    11.574400    -7.076000
