119
Refcode: MAFSAQ_comp_0 | Dataset: tmPHOTO | Charge: unknown | Potential Spins: [1, 3, 5]
Ir     -0.980000     4.223100     3.687600
O       0.194200     5.747400     2.762500
N      -2.111400     4.100200     2.006500
C      -0.434000     2.535900     1.423600
C       0.059700     2.845400     2.711000
C       1.251000     2.224500     3.112500
H       1.577300     2.378300     3.969300
C       1.963300     1.379900     2.258300
C       1.456800     1.094800     0.985500
H       1.919900     0.523700     0.416000
C       0.254600     1.666200     0.578100
H      -0.089300     1.468000    -0.262600
C      -1.690300     3.202400     1.070000
C      -2.452900     2.967700    -0.064900
H      -2.165700     2.348200    -0.697700
C      -3.638600     3.656100    -0.262100
H      -4.149300     3.505400    -1.023700
C      -4.051800     4.571700     0.698100
H      -4.842400     5.049100     0.587100
C      -3.270700     4.766800     1.814600
H      -3.550600     5.376900     2.458900
C       3.308900     0.874000     2.703000
C       4.681600     1.680500     2.049000
C       4.391600     2.725000     1.004500
C       4.751400     2.474500    -0.321300
H       5.221400     1.703100    -0.536900
C       4.404500     3.376200    -1.317100
H       4.647500     3.203700    -2.197800
C       3.701500     4.528100    -1.011900
H       3.461900     5.122200    -1.686000
C       3.361800     4.791000     0.303400
H       2.898200     5.568900     0.514800
C       3.702100     3.896100     1.310900
H       3.472700     4.080000     2.193400
C       0.897100     7.874500     2.068200
H       1.829300     7.655900     2.273000
H       0.724900     8.814300     2.289300
H       0.729900     7.727700     1.113700
C      -0.018400     6.990600     2.883100
C      -0.980000     7.612000     3.687600
H      -0.980000     8.562300     3.687600
B       4.320900     0.053200     1.573000
H       3.994500    -0.219400     0.559000
B       5.983600     0.579000     1.914500
H       6.746800     0.633400     1.124000
B       5.927000     1.764400     3.231500
H       6.653300     2.587200     3.301200
B       4.230900     1.974000     3.687000
H       3.846800     2.943800     4.037200
B       3.678100    -0.767500     3.010300
H       2.946400    -1.586800     2.936800
B       5.380600    -0.977000     2.535700
H       5.760200    -1.935500     2.153600
B       6.376700     0.082300     3.574200
H       7.398300    -0.195900     3.869000
B       5.277100     0.956500     4.672600
H       5.584800     1.253800     5.686300
B       3.615700     0.428200     4.323500
H       2.840200     0.391800     5.102200
B       4.949500    -0.742600     4.256700
H       5.049900    -1.550200     4.996000
O      -2.154100     5.747400     4.612800
C      -2.857100     7.874500     5.307100
H      -3.789200     7.655900     5.102200
H      -2.684800     8.814300     5.086000
H      -2.689800     7.727700     6.261600
C      -1.941500     6.990600     4.492100
N       0.151500     4.100200     5.368700
C      -1.525900     2.535900     5.951700
C      -2.019600     2.845400     4.664200
C      -3.210900     2.224500     4.262700
H      -3.537200     2.378300     3.405900
C      -3.923300     1.379900     5.116900
C      -3.416700     1.094800     6.389700
H      -3.879800     0.523700     6.959300
C      -2.214500     1.666200     6.797200
H      -1.870600     1.468000     7.637800
C      -0.269600     3.202400     6.305200
C       0.493000     2.967700     7.440100
H       0.205800     2.348200     8.072900
C       1.678700     3.656100     7.637300
H       2.189400     3.505400     8.398900
C       2.091900     4.571700     6.677100
H       2.882500     5.049100     6.788200
C       1.310800     4.766800     5.560600
H       1.590700     5.376900     4.916300
C      -5.268800     0.874000     4.672200
C      -6.641500     1.680500     5.326200
C      -6.351500     2.725000     6.370700
C      -6.711300     2.474500     7.696500
H      -7.181300     1.703100     7.912100
C      -6.364400     3.376200     8.692300
H      -6.607500     3.203700     9.573000
C      -5.661400     4.528100     8.387100
H      -5.421800     5.122200     9.061200
C      -5.321700     4.791000     7.071800
H      -4.858100     5.568900     6.860400
C      -5.662100     3.896100     6.064400
H      -5.432600     4.080000     5.181800
B      -6.280800     0.053200     5.802200
H      -5.954400    -0.219400     6.816200
B      -7.943500     0.579000     5.460800
H      -8.706700     0.633400     6.251200
B      -7.886900     1.764400     4.143700
H      -8.613200     2.587200     4.074100
B      -6.190800     1.974000     3.688200
H      -5.806700     2.943800     3.338000
B      -5.638000    -0.767500     4.365000
H      -4.906300    -1.586800     4.438400
B      -7.340500    -0.977000     4.839500
H      -7.720100    -1.935500     5.221700
B      -8.336600     0.082300     3.801000
H      -9.358300    -0.195900     3.506200
B      -7.237000     0.956500     2.702600
H      -7.544700     1.253800     1.688900
B      -5.575600     0.428200     3.051700
H      -4.800100     0.391800     2.273000
B      -6.909400    -0.742600     3.118500
H      -7.009800    -1.550200     2.379200
