72
Refcode: MAMKAN_comp_0 | Dataset: tmPHOTO | Charge: 0 | Potential Spins: [1, 3, 5]
Pt      2.468800     1.936200     2.391800
P       1.155600     0.742600     3.880300
N       2.445200     0.764600     0.636200
C       3.791000     3.003300     1.225200
C       2.592800     3.299300     3.801300
C       2.682700     4.176100     4.619700
C       2.801700     5.173000     5.650100
C       1.786000     5.335600     6.600500
H       1.024100     4.804100     6.553300
C       1.901900     6.277900     7.607300
H       1.223900     6.369400     8.237200
C       3.017600     7.079700     7.678000
H       3.092100     7.713900     8.353500
C       4.023100     6.943900     6.748100
H       4.773900     7.490400     6.793700
C       3.919100     5.999700     5.747500
H       4.607300     5.912900     5.128600
C       0.594700    -0.867400     3.424300
C       0.280700    -1.938400     3.011200
C      -0.019200    -3.203900     2.386000
C      -0.475100    -3.234800     1.069700
H      -0.660100    -2.442000     0.620500
C      -0.654200    -4.449700     0.433500
H      -0.954800    -4.473200    -0.447700
C      -0.387300    -5.630800     1.102700
H      -0.484800    -6.443800     0.664400
C       0.024500    -5.605000     2.419000
H       0.172200    -6.404100     2.873000
C       0.216500    -4.399000     3.067800
H       0.502100    -4.383600     3.952100
C      -0.408000     1.505500     4.439100
C      -0.761300     2.773700     4.021200
H      -0.180100     3.277000     3.498200
C      -2.009500     3.291600     4.396600
H      -2.257800     4.141300     4.112300
C      -2.868300     2.564400     5.177300
H      -3.693700     2.919500     5.419200
C      -2.500100     1.294800     5.607700
H      -3.079500     0.797800     6.138700
C      -1.271500     0.767500     5.243300
H      -1.023900    -0.079300     5.537000
C       2.021800     0.359500     5.449100
C       2.634600    -0.862300     5.658000
H       2.584900    -1.525500     5.009300
C       3.326100    -1.094800     6.839200
H       3.744800    -1.914500     6.974300
C       3.395100    -0.123400     7.811500
H       3.859000    -0.284400     8.601700
C       2.774100     1.092700     7.608900
H       2.816200     1.749300     8.265500
C       2.094300     1.335400     6.440200
H       1.678600     2.156600     6.309900
C       3.219300     1.288100    -0.373800
C       3.940000     2.471100    -0.051800
C       4.585500     4.070400     1.575500
H       4.547500     4.411900     2.439400
C       5.457000     4.647500     0.631500
H       5.978700     5.375400     0.879600
C       5.553500     4.159900    -0.642500
H       6.122100     4.570800    -1.253500
C       4.794100     3.035400    -1.033600
C       4.858300     2.428000    -2.321600
H       5.397300     2.813100    -2.975100
C       4.162700     1.314600    -2.621700
H       4.230900     0.946200    -3.473000
C       3.315400     0.687800    -1.643000
C       2.596200    -0.478000    -1.875500
H       2.648100    -0.907100    -2.698600
C       1.804700    -0.994100    -0.870200
H       1.308700    -1.766700    -1.013200
C       1.755000    -0.344800     0.366000
H       1.214300    -0.702900     1.032000
