106
Refcode: MAXYUG_comp_0 | Dataset: tmPHOTO | Charge: 0 | Potential Spins: [1, 3, 5]
Ir      3.149800     6.883100     9.353400
N       3.895000     5.740300     7.738500
N       3.861900     4.386300     7.995600
N       3.654700     8.725800     8.435000
N       2.691800     9.222400     7.646200
N       5.025200     6.758700    10.279800
N       5.043400     7.379800    11.507900
C       4.644600     5.864800     6.647600
H       4.859700     6.691300     6.230800
C       5.070800     4.618100     6.198300
H       5.614200     4.436500     5.439400
C       4.558800     3.725300     7.057000
H       4.669700     2.783400     7.009600
C       3.089300     3.983300     9.101500
C       2.843400     2.649800     9.336200
H       3.253300     1.978500     8.804400
C       1.975200     2.301600    10.379600
C       1.415100     3.291400    11.161000
C       1.700500     4.654600    10.928800
H       1.294900     5.320200    11.470500
C       2.566000     5.030200     9.915300
C       1.539400     0.907600    10.838900
C       0.584400     1.275200    11.972300
C      -0.211900     0.464700    12.748600
H      -0.200100    -0.474900    12.608800
C      -1.035100     0.997800    13.734600
H      -1.577000     0.420100    14.256400
C      -1.070000     2.386100    13.961800
H      -1.605900     2.749100    14.658300
C      -0.300000     3.224100    13.138000
H      -0.337700     4.167100    13.252900
C       0.520700     2.676100    12.157000
C       2.734900     0.107300    11.350700
H       3.382800    -0.012600    10.624300
H       2.430400    -0.769500    11.665200
H       3.160900     0.590200    12.089600
C       0.821700     0.147300     9.723100
H       0.071200     0.683900     9.393600
H       0.487300    -0.704400    10.072600
H       1.448000    -0.024000     8.989200
C       4.716800     9.528400     8.302700
H       5.550200     9.417600     8.744500
C       4.399400    10.563900     7.401500
H       4.961500    11.277400     7.124400
C       3.122600    10.325300     7.014600
H       2.620000    10.847000     6.400500
C       1.406500     8.555700     7.691100
C       0.327400     9.141400     7.079500
H       0.420100     9.928000     6.555300
C      -0.894300     8.538500     7.256700
C      -0.985300     7.377500     8.033100
C       0.121500     6.794100     8.604700
H       0.027800     5.981200     9.086500
C       1.393700     7.387700     8.484900
C      -2.254000     9.004400     6.804900
C      -3.168200     7.975700     7.444000
C      -4.540800     7.919800     7.486400
H      -5.055000     8.583100     7.042100
C      -5.176400     6.906000     8.172900
H      -6.124700     6.869400     8.195400
C      -4.424800     5.936700     8.829400
H      -4.870900     5.238000     9.293700
C      -3.039000     5.972100     8.821900
H      -2.530000     5.306500     9.268800
C      -2.418300     7.006400     8.140400
C      -2.375500     8.978100     5.284700
H      -2.220000     8.065900     4.960100
H      -1.711000     9.582000     4.892700
H      -3.275100     9.268100     5.025100
C      -2.579100    10.436000     7.289200
H      -3.473200    10.690600     6.977200
H      -1.917400    11.062800     6.927200
H      -2.555500    10.463400     8.267700
C       6.269400     6.411600    10.002700
H       6.544500     5.959500     9.213800
C       7.116500     6.800900    11.031100
H       8.057400     6.681100    11.078600
C       6.302000     7.400300    11.972300
H       6.583300     7.763400    12.806000
C       3.799400     7.813600    12.037200
C       3.719000     8.276000    13.352700
H       4.500900     8.398100    13.876900
C       2.458900     8.554500    13.869400
C       1.327500     8.343300    13.075600
C       1.453500     7.938000    11.747600
H       0.667400     7.847800    11.220900
C       2.693300     7.659500    11.161000
C       2.090300     9.069400    15.257400
C       0.585200     9.050000    15.197500
C      -0.318900     9.372000    16.203500
H      -0.019900     9.668800    17.057200
C      -1.656000     9.248700    15.928900
H      -2.289600     9.454200    16.605400
C      -2.113900     8.827400    14.673300
H      -3.046300     8.750900    14.511000
C      -1.202100     8.521400    13.667200
H      -1.506300     8.247400    12.808500
C       0.155900     8.620800    13.929400
C       2.641900     8.176600    16.395700
H       2.368700     8.545400    17.261900
H       3.620200     8.151500    16.345800
H       2.286700     7.269000    16.298300
C       2.597500    10.519300    15.444600
H       2.299100    11.069600    14.690700
H       3.576800    10.520500    15.484500
H       2.236700    10.885800    16.278400
