88
Refcode: MEWZIA_comp_0 | Dataset: tmPHOTO | Charge: 1 | Potential Spins: [1, 3, 5]
Cu      2.629900     9.576500     9.823100
P       4.420100    10.814800     9.931800
P       2.704100     7.756900    11.086000
Br      1.259300    12.131300    11.637800
O       5.295300     7.900300     9.823700
N       0.837500    10.485300     9.512800
C       0.195400    11.401100    10.339300
C      -1.113000    11.781700    10.069400
C      -1.780800    11.247800     8.972900
C      -1.138600    10.332000     8.146400
C       0.171300     9.951400     8.416300
N       2.271300     8.905700     7.930400
C       0.913200     8.987600     7.645600
C       0.367800     8.204300     6.634700
C       1.180300     7.339200     5.910600
C       2.536900     7.257300     6.197300
C       3.083800     8.040600     7.208100
C       5.198000    11.251700    11.519600
C       4.473300    11.121800    12.698000
C       5.056800    11.460800    13.913600
C       6.365200    11.929700    13.949000
C       7.089900    12.059600    12.770600
C       6.506300    11.721900    11.555000
C       4.203100    12.392200     9.060400
C       3.769700    12.340200     7.740500
C       3.719800    13.502800     6.981000
C       4.103500    14.717300     7.539500
C       4.537000    14.768000     8.859400
C       4.586800    13.605400     9.620800
C       5.858300    10.093000     8.941300
C       6.623000    10.865900     8.075600
C       7.613100    10.269700     7.303100
C       7.839900     8.901800     7.396100
C       7.075200     8.129000     8.263600
C       6.085100     8.725200     9.036200
C       5.467900     7.986100    11.169600
C       6.662000     8.361500    11.772800
C       6.724100     8.513400    13.154100
C       5.593600     8.287400    13.930400
C       4.399600     7.912000    13.325300
C       4.336100     7.761300    11.944000
C       2.514500     6.242800    10.075000
C       1.224500     5.980500     9.628200
C       1.020200     5.094600     8.576400
C       2.105800     4.469800     7.973200
C       3.395800     4.730800     8.420000
C       3.600100     5.618000     9.471800
C       1.521300     7.592500    12.431800
C       0.753600     8.708300    12.748200
C       0.002600     8.725200    13.919200
C       0.018000     7.626300    14.769900
C       0.784300     6.511700    14.453500
C       1.536700     6.494900    13.284400
H      -1.555000    12.405200    10.635300
H      -2.680700    11.503700     8.794200
H      -1.599500     9.963100     7.401700
H      -0.564000     8.260200     6.441100
H       0.803000     6.802700     5.221800
H       3.088200     6.665000     5.705800
H       4.006600     7.983500     7.405400
H       3.577900    10.797000    12.675600
H       4.560100    11.367300    14.721500
H       6.760800    12.159700    14.781100
H       7.979200    12.383100    12.796600
H       6.997000    11.814100    10.750700
H       3.509400    11.511500     7.355200
H       3.424300    13.469000     6.076300
H       4.068300    15.512300     7.018200
H       4.797300    15.598000     9.241000
H       4.882400    13.640500    10.519900
H       6.465900    11.799800     8.012300
H       8.132700    10.797000     6.712900
H       8.513600     8.492700     6.873000
H       7.226200     7.192400     8.332500
H       7.434700     8.516000    11.245900
H       7.539800     8.770600    13.571100
H       5.633600     8.392600    14.876100
H       3.623800     7.760000    13.857800
H       0.481100     6.405200    10.043300
H       0.138200     4.914000     8.273000
H       1.965700     3.864400     7.256500
H       4.137600     4.307400     8.008600
H       4.480500     5.798600     9.779000
H       0.742900     9.457800    12.163700
H      -0.520700     9.487700    14.133300
H      -0.494600     7.640500    15.568600
H       0.795000     5.762200    15.036100
H       2.058700     5.732400    13.066600
