65
Refcode: MIMXUD_comp_0 | Dataset: tmPHOTO | Charge: 1 | Potential Spins: [1, 3, 5]
Ir      3.233300     8.500400    10.138800
N       3.349700     9.438600     8.234600
N       2.279300     7.066900     8.789600
C       4.069300    10.546700     7.964500
H       4.621300    10.914300     8.644900
C       4.027400    11.164500     6.728900
H       4.556800    11.933500     6.553300
C       3.201400    10.640800     5.754700
H       3.140100    11.061900     4.906200
C       2.463700     9.502200     6.021400
H       1.896900     9.129200     5.356100
C       2.562400     8.912600     7.272100
C       1.879800     7.652900     7.624100
C       0.908100     7.093600     6.809900
H       0.623000     7.541200     6.022300
C       0.357300     5.870300     7.162100
H      -0.340900     5.488800     6.642400
C       0.837400     5.215300     8.276700
H       0.510000     4.352300     8.500300
C       1.806700     5.826600     9.074600
C       2.381000     5.048400    10.195000
C       3.666800     4.531700    10.060600
H       4.201900     4.778600     9.315100
C       4.167500     3.656900    11.012900
H       5.033000     3.278600    10.904100
C       3.401700     3.334600    12.127200
H       3.750600     2.748800    12.789000
C       2.135600     3.863000    12.274500
H       1.620400     3.652800    13.044400
C       1.614600     4.702100    11.298400
H       0.731500     5.039600    11.386500
N       1.481900     9.555800    10.462300
C       0.243900     9.197300    10.063800
H       0.133400     8.366700     9.615100
C      -0.867700     9.982400    10.279900
H      -1.721800     9.705100     9.969100
C      -0.718500    11.186800    10.959500
H      -1.471700    11.743400    11.123000
C       0.534100    11.564300    11.391900
H       0.649500    12.380000    11.866100
C       1.635400    10.744000    11.131000
C       3.006900    10.997400    11.481700
C       3.952400    10.067800    11.134100
C       5.249900    10.477100    11.554400
H       6.035300     9.960300    11.418900
C       5.243800    11.696600    12.174200
H       6.024300    12.121200    12.510700
S       3.680800    12.373800    12.279100
N       5.033000     7.535000    10.082700
C       5.859600     7.500400     9.017200
H       5.618100     7.977500     8.231400
C       7.044800     6.797300     9.029500
H       7.605000     6.780300     8.262500
C       7.407400     6.110000    10.184700
H       8.213000     5.607200    10.210900
C       6.588400     6.165700    11.284900
H       6.839100     5.719900    12.086400
C       5.392600     6.874600    11.227400
C       4.391300     6.975500    12.251400
C       3.217200     7.633700    11.952100
C       2.355100     7.652800    13.090100
H       1.500800     8.067000    13.091700
C       2.883600     7.016200    14.172400
H       2.435100     6.937700    15.006300
S       4.441800     6.373500    13.870800
