59
Refcode: MIVROA_comp_0 | Dataset: tmPHOTO | Charge: unknown | Potential Spins: [1, 3, 5]
Pt      0.629300     1.867800    -0.199300
Cl     -1.669500     2.436700     0.305300
N       0.767200     2.620200    -2.091900
N       2.030700     3.063300    -3.894800
N       1.183600     0.988300     1.555700
N       2.769100    -0.063500     2.752500
C       2.494400     1.518500    -0.567000
C       3.075700     2.011500    -1.759600
C       4.451400     1.936200    -1.941100
H       4.848500     2.257000    -2.742700
C       5.247800     1.381100    -0.925900
H       6.189400     1.355500    -1.044600
C       4.694600     0.864700     0.258300
H       5.248200     0.483100     0.928700
C       3.303600     0.929400     0.421700
C       2.006900     2.556900    -2.619800
C      -0.065800     3.191700    -3.063900
C      -1.437800     3.451700    -3.052700
H      -1.972700     3.296900    -2.281800
C      -1.976000     3.946900    -4.229900
H      -2.912200     4.101700    -4.271800
C      -1.188800     4.233000    -5.372200
H      -1.601900     4.589900    -6.148700
C       0.176400     3.995200    -5.369500
H       0.714900     4.180400    -6.129100
C       0.724000     3.469700    -4.192200
C       3.120500     3.042700    -4.833200
C       3.509200     4.235600    -5.437900
H       3.083000     5.053100    -5.210300
C       4.536800     4.211500    -6.383300
H       4.814900     5.017800    -6.800800
C       5.151300     3.021400    -6.711500
H       5.860900     3.016600    -7.344100
C       4.749900     1.848800    -6.137500
H       5.163200     1.032900    -6.394500
C       3.737400     1.838800    -5.172500
H       3.474700     1.027000    -4.755000
C       2.458200     0.573300     1.572400
C       1.622900     0.005600     3.561000
C       1.387900    -0.450100     4.873700
H       2.054800    -0.895700     5.384800
C       0.110700    -0.203000     5.370800
H      -0.103000    -0.493200     6.249200
C      -0.875100     0.462100     4.616800
H      -1.724000     0.621300     5.013400
C      -0.651400     0.893100     3.309600
H      -1.326900     1.322200     2.798500
C       0.632700     0.653400     2.799900
C       3.926400    -0.865500     3.029000
C       4.306300    -1.837000     2.115700
H       3.844000    -1.934500     1.291700
C       5.374600    -2.661200     2.427100
H       5.646500    -3.325800     1.805600
C       6.057500    -2.534700     3.635000
H       6.757800    -3.136600     3.855700
C       5.705300    -1.528600     4.505000
H       6.199000    -1.408800     5.308000
C       4.626300    -0.677900     4.221500
H       4.377400     0.011200     4.826200
