48
Refcode: MIVTUI_comp_0 | Dataset: tmPHOTO | Charge: -2 | Potential Spins: [1, 3, 5]
Pt      9.126100     1.424500     7.828000
O       5.849700     0.242600     3.561400
O       7.360200     2.453200     7.975800
N      10.666400    -0.336000     6.224600
N      11.966600     0.163200     7.852300
N       9.665900     2.105000     9.683400
C      10.713700     0.384900     7.372800
C      12.657000    -0.694700     7.011600
C      11.838700    -1.013200     5.990400
C       9.451200    -0.241700     5.475700
C       8.538600     0.655400     6.077900
C       7.330400     0.823800     5.408000
C       7.049200     0.121300     4.250800
C       7.957500    -0.780200     3.723200
C       9.181400    -0.962600     4.338100
C       5.183200     1.497600     3.618200
C      12.534100     0.716500     9.074600
C       9.613200     3.358100    11.759900
C       9.017900     2.939300    10.442800
C       7.779600     3.510900    10.082900
C       7.044300     3.257800     8.946200
C       5.766900     4.016200     8.734500
C       4.886800     4.237800     9.790600
C       3.745800     5.025000     9.606700
C       3.492600     5.586200     8.385100
C       4.347300     5.338300     7.326400
C       5.468200     4.545000     7.493100
H      13.547000    -1.002700     7.133400
H      12.032800    -1.587400     5.257800
H      10.425200     1.797800    10.004000
H       6.686400     1.432100     5.752400
H       7.740400    -1.273300     2.941800
H       9.819400    -1.570900     3.983600
H       4.731300     1.588300     4.482000
H       4.521800     1.549900     2.896800
H       5.836700     2.220100     3.515200
H      12.379200     1.684300     9.099000
H      13.498600     0.540200     9.097100
H      12.107400     0.297600     9.852200
H      10.362000     2.768200    11.982700
H       8.931100     3.297900    12.460500
H       9.932700     4.282300    11.694100
H       7.411700     4.141000    10.691600
H       5.063400     3.853000    10.641100
H       3.146700     5.169000    10.328100
H       2.733700     6.143800     8.263300
H       4.162600     5.717100     6.475700
H       6.034300     4.364400     6.753000
