59
Refcode: MODYUB_comp_0 | Dataset: tmPHOTO | Charge: unknown | Potential Spins: [1, 3, 5]
Re     25.319100     3.758100    15.830400
C      21.020800     5.814500    22.676600
H      20.320600     5.352300    23.120600
C      22.364900     7.648100    22.409500
H      22.596000     8.528500    22.682500
N      23.073200     7.123200    21.403700
C      22.685800     5.905700    21.044200
H      23.139500     5.486000    20.323300
C      21.697500     5.237800    21.637500
C      21.344000     3.948500    21.116900
C      21.055600     2.871700    20.618000
C      20.797200     1.631800    19.985500
C      21.581400     1.230600    18.920800
H      22.274400     1.787900    18.588800
C      21.326600    -0.006200    18.351100
C      20.274200    -0.756000    18.855900
H      20.072500    -1.606300    18.484700
C      19.535100    -0.269800    19.883300
C      18.456600    -1.039700    20.433300
C      17.593300    -1.624800    20.959800
C      16.481200    -2.209200    21.668900
C      15.861300    -3.385700    21.107100
H      16.184500    -3.732800    20.286000
N      14.852200    -3.985600    21.706200
C      14.423000    -3.498600    22.867200
H      13.739400    -3.962400    23.336700
C      15.940500    -1.702900    22.767000
H      16.267600    -0.875800    23.099000
C      22.098200    -0.520200    17.202000
H      22.324400    -1.470200    17.363000
H      21.536100    -0.477700    16.390700
C      24.518600     0.015500    17.553600
H      24.767800    -0.715000    18.105600
C      25.292600     1.082200    17.184300
C      26.612200     1.516600    17.453400
C      27.511100     0.781500    18.170400
H      27.287700    -0.085000    18.490600
C      28.733500     1.321100    18.417900
H      29.381200     0.841800    18.922700
C      29.020600     2.578000    17.922900
H      29.866200     2.977600    18.087900
C      28.111800     3.214900    17.219600
H      28.325100     4.077600    16.885700
C      21.385700     7.065200    23.053800
H      20.941100     7.512000    23.766900
N      19.781700     0.940700    20.484400
C      14.948200    -2.315100    23.419200
H      14.609800    -1.963400    24.234400
N      23.322400     0.221900    16.964300
N      23.290500     1.368200    16.284600
N      24.476900     1.879200    16.414200
N      26.908000     2.727900    16.952500
C      23.755100     4.509700    14.980300
O      22.849400     4.941800    14.520600
C      25.967900     3.101300    14.176800
O      26.319300     2.751100    13.141600
C      26.194200     5.419500    15.489000
O      26.734200     6.409700    15.282800
Cl     24.499700     4.391400    18.073900
