66
Refcode: MOYLIX_comp_0 | Dataset: tmPHOTO | Charge: 1 | Potential Spins: [1, 3, 5]
C       9.394500     3.990400     5.325300
C       8.118100     2.365200     7.467800
C       8.974300     2.939400     8.399100
H       9.540700     3.631200     8.145100
C       8.984200     2.478400     9.710700
H       9.556400     2.862600    10.334900
C       8.136700     1.443900    10.089500
H       8.143500     1.135300    10.967700
C       7.280400     0.869800     9.158200
H       6.713900     0.176400     9.410700
C       7.271500     1.329600     7.846600
C       6.278100     1.313400     3.327800
C       5.693800     0.931100     2.075000
H       5.075200     0.239800     2.023400
C       6.070400     1.604100     0.988700
C       6.981400     2.655000     1.028900
C       7.508500     2.981200     2.323300
H       8.107900     3.687300     2.413700
C       5.462700     1.363000    -0.387500
H       4.811200     0.725400    -0.569700
C       6.064100     2.306100    -1.430700
H       5.728300     2.161100    -2.339100
C       5.948100     3.745500    -0.954300
H       5.200300     3.908400    -0.358800
H       5.985100     4.403900    -1.666000
C       7.369000     3.504100    -0.192300
H       7.996400     4.249000    -0.087500
C       7.603500     2.432700    -1.343200
C       8.228100     3.157700    -2.548600
H       9.061700     3.554000    -2.286000
H       7.630600     3.842200    -2.855700
H       8.383300     2.526800    -3.256000
C       8.369800     1.154600    -1.007400
H       8.379700     0.577500    -1.773700
H       7.939600     0.707400    -0.274100
H       9.270500     1.377500    -0.762000
C      10.858700     5.828200     4.955100
C      11.597100     6.275700     6.044200
C      12.628000     7.189200     5.857700
H      13.121600     7.489200     6.586700
C      12.920400     7.655800     4.580500
H      13.610400     8.266800     4.455700
C      12.183000     7.208300     3.491400
H      12.378300     7.519300     2.637500
C      11.152100     6.294800     3.677900
C      11.652600     5.743000     7.444800
H      12.409300     5.158400     7.535200
H      10.847500     5.257200     7.635600
H      11.738800     6.473900     8.061800
C      10.171700     6.020400     2.574400
H      10.466800     6.452200     1.769400
H       9.308500     6.359200     2.822600
H      10.113400     5.073800     2.426600
C       6.415400     0.662400     6.921000
C       5.437800    -0.294500     7.167800
H       5.304400    -0.609600     8.033100
C       4.661600    -0.781700     6.123200
H       4.007600    -1.421200     6.289600
C       4.862000    -0.310900     4.831700
H       4.342100    -0.637000     4.131400
C       5.839400     0.645500     4.583400
N       6.615600     1.132700     5.628100
N       7.147600     2.283000     3.396700
N       9.941000     4.907000     5.277900
Pt      7.880300     2.573400     5.410500
H       4.686000     2.095500    -0.172900
