48
Refcode: MULDAZ_comp_0 | Dataset: tmCAT;tmPHOTO | Charge: 1 | Potential Spins: [1, 3, 5]
Ag      7.181300    10.353600     5.988300
C       9.004200     8.093200     4.963500
C       9.495800     8.803300     6.075800
C      10.410100     9.990100     5.862800
H      11.131800     9.740000     5.248900
H      10.793400    10.265600     6.722500
H       9.898400    10.732500     5.480000
C       9.105700     8.410400     7.368200
C       8.329000     7.261600     7.555100
C       7.896700     6.812900     8.924500
H       7.396400     5.973700     8.850900
H       7.325300     7.499500     9.327700
H       8.686900     6.673300     9.486300
C       7.925400     6.537400     6.438200
H       7.428900     5.737600     6.564000
C       8.226800     6.947000     5.144700
C       7.697700     6.163400     3.973500
H       7.140400     6.746400     3.416200
H       7.160400     5.411800     4.299700
H       8.447600     5.824100     3.442300
C       9.176400     8.627300     3.566900
H       9.960800     9.232300     3.539700
H       9.347300     7.876500     2.945000
N       7.968000     9.366500     3.129600
C       7.129100    10.077800     3.913500
N       6.212400    10.578900     3.058300
C       6.469600    10.188200     1.762500
H       5.960800    10.410500     0.991100
C       7.582300     9.429600     1.801000
H       8.016400     9.017800     1.062500
C       5.074200    11.387200     3.457000
H       4.268700    10.829300     3.481900
H       4.947900    12.114000     2.811400
H       5.236900    11.764700     4.346200
C       5.191800    11.910900     8.366100
H       5.183000    11.892900     7.386300
H       5.195200    12.841200     8.674200
H       4.395100    11.455600     8.708200
N       6.382900    11.234800     8.852000
C       7.253200    10.570100     8.068200
N       8.169200    10.067200     8.931300
C       7.871700    10.428400    10.235000
H       8.367000    10.206300    11.014300
C       6.740500    11.158300    10.178400
H       6.278400    11.546800    10.913500
C       9.366400     9.279700     8.571100
H       9.628600     8.711400     9.337900
H      10.117200     9.895600     8.375200
