91
Refcode: NASZOY_comp_0 | Dataset: tmPHOTO | Charge: 0 | Potential Spins: [1, 3, 5]
Cd      4.616500     2.014000     9.636700
Cl      6.673600     4.288300     7.716300
Cl      2.541100    -0.603000    10.682200
S       2.804500     6.309800     9.652200
S       6.378500    -2.299600     9.352900
O       6.482600     3.195900     8.653900
O       7.310200     5.364400     8.355600
O       5.388200     4.706800     7.238100
O       7.465000     3.807200     6.629400
O       2.893700     0.820100    10.810100
O       2.367600    -0.911700     9.297500
O       3.625300    -1.379900    11.228800
O       1.344300    -0.837300    11.414100
N       6.098400     1.171400    11.240100
N       3.275900     3.825600     9.317000
C       2.421500     4.187400     8.296100
N       4.999300     3.517300    11.385700
N       5.441300     0.024400     8.881000
C       6.536000    -0.076900    11.065200
C       7.338900    -0.703300    12.016400
H       7.648400    -1.592500    11.887300
C       7.668300     0.010400    13.151700
H       8.207500    -0.393700    13.821500
C       7.219200     1.314100    13.326300
H       7.454300     1.811700    14.101800
C       6.418100     1.870900    12.338100
C       5.847500     3.247300    12.381200
C       6.157300     4.210300    13.335600
H       6.757400     4.014000    14.045300
C       5.571900     5.458900    13.227300
H       5.775700     6.132100    13.865800
C       4.686300     5.735300    12.188800
H       4.265800     6.582900    12.109100
C       4.442300     4.719300    11.274800
C       3.548800     4.842900    10.109800
C       1.855900     3.175600     7.392600
C       1.389700     1.976900     7.940900
H       1.561700     1.784700     8.856000
C       0.680800     1.062700     7.176700
H       0.409500     0.237900     7.561200
C       0.362300     1.343200     5.852900
C       0.852300     2.537800     5.257100
C       0.508400     2.856700     3.903200
C       1.034900     4.014000     3.301200
C       0.626800     4.348500     1.993200
H       0.978700     5.123400     1.571100
C      -0.279400     3.557900     1.327500
H      -0.570900     3.810400     0.459800
C      -0.775400     2.400700     1.900300
H      -1.387800     1.861500     1.413800
C      -0.388000     2.015300     3.187200
C      -0.839900     0.811300     3.811000
H      -1.415700     0.230600     3.327800
C      -0.474100     0.477900     5.060100
H      -0.772900    -0.345900     5.427300
C       1.952200     4.826300     4.040300
H       2.365800     5.567000     3.614200
C       2.241700     4.561400     5.333800
H       2.842900     5.127600     5.802500
C       1.655300     3.438500     6.015200
C       2.080500     5.508800     8.333000
H       1.510700     5.929500     7.700300
C       6.102900    -0.670000     9.789400
C       5.569500    -2.024600     7.873800
H       5.431900    -2.688400     7.208200
C       5.142800    -0.727200     7.767100
C       4.611900    -0.061300     6.553700
C       5.207700     1.151000     6.192900
H       5.822200     1.562400     6.790700
C       4.922900     1.766000     4.985600
H       5.341900     2.590800     4.767800
C       4.028600     1.187400     4.089600
C       3.366400    -0.013500     4.459700
C       3.632500    -0.624300     5.721200
C       2.844200    -1.767000     6.100200
H       2.976100    -2.164900     6.952100
C       1.918500    -2.284300     5.262400
H       1.402300    -3.027100     5.550400
C       1.692600    -1.748300     3.956400
C       2.426500    -0.600400     3.561100
C       2.192700    -0.008300     2.291100
C       1.253000    -0.599400     1.434400
H       1.104700    -0.232700     0.570800
C       0.538600    -1.714000     1.839200
H      -0.106700    -2.092200     1.254500
C       0.747600    -2.284300     3.073900
H       0.245600    -3.049900     3.329800
C       2.893000     1.188400     1.945900
H       2.745100     1.584200     1.095100
C       3.756400     1.769100     2.799000
H       4.193300     2.574200     2.547300
