48
Refcode: NESHUP_comp_0 | Dataset: tmCAT;tmPHOTO | Charge: 0 | Potential Spins: [1, 3, 5]
Pd      8.603600     2.285600     3.469200
Cl      9.869400     0.745900     2.389500
Cl      7.592600     2.744100     1.476400
N       9.229900     1.738700     5.310800
N       7.473500     3.535700     4.622600
O       7.909300     5.564400     2.639700
O       5.680300     5.431600     2.276500
C       8.093900     6.206800     1.326500
H       9.015800     6.447900     1.215400
H       7.548200     6.995100     1.276700
H       7.836500     5.595500     0.633400
C       6.664900     5.174500     2.901600
C       6.609200     4.516200     4.254600
C       5.680300     5.020100     5.135100
H       5.067100     5.656800     4.846600
C       5.653900     4.585900     6.445000
H       5.021600     4.918300     7.038600
C       6.573600     3.656300     6.856200
H       6.605500     3.379400     7.743200
C       7.456500     3.138200     5.917700
C       8.613000     1.722600     7.703400
H       9.316700     1.073700     7.779700
H       7.786200     1.332700     7.996900
H       8.819900     2.484600     8.247300
C       8.482600     2.150200     6.274200
C      10.331800     0.911700     5.552900
C      11.598700     1.469300     5.674000
C      12.707600     0.646100     5.841400
H      13.555200     1.019100     5.922700
C      12.546900    -0.733700     5.887800
H      13.287700    -1.284700     6.000600
C      11.278700    -1.291300     5.766800
H      11.171900    -2.214300     5.798300
C      10.171100    -0.468100     5.599300
C       8.842700    -1.068100     5.413600
H       8.163400    -0.399300     5.596000
H       8.745500    -1.347800     4.490100
C       8.635500    -2.166300     6.251000
H       7.791600    -2.571300     6.048700
H       8.646300    -1.879900     7.166200
H       9.339300    -2.809500     6.111700
C      11.761000     2.980000     5.650700
H      11.050800     3.356800     5.108500
H      12.603200     3.191900     5.218000
C      11.737100     3.652500     7.015300
H      11.890800     4.594300     6.910900
H      12.424800     3.275800     7.570800
H      10.882000     3.511200     7.426500
