36
Refcode: NESJEB_comp_0 | Dataset: tmCAT;tmPHOTO | Charge: 0 | Potential Spins: [1, 3, 5]
Pd      2.271900     9.821100     2.626600
N       0.756800    10.013600     1.243200
N       1.124900    11.229900     3.513500
Cl      3.383700     8.053600     1.695600
Cl      3.728700     9.725100     4.367900
F       2.920500    13.263200     3.304100
F       0.346700    10.533900     6.088600
O       2.786600     9.829300    -0.909700
O       1.817900     7.790700    -1.090900
C       0.638700     9.484300     0.026600
C      -0.572900     9.457000    -0.669500
H      -0.622800     9.065300    -1.511600
C      -1.697300    10.020600    -0.090600
H      -2.518700     9.993700    -0.525100
C      -1.572800    10.627700     1.156800
H      -2.308200    11.031400     1.557200
C      -0.342400    10.623800     1.795800
C      -0.085200    11.335600     3.070200
C      -1.159700    12.141700     3.717300
H      -0.823800    12.531500     4.527400
H      -1.907100    11.573700     3.920300
H      -1.440700    12.839000     3.119800
C       1.587300    11.922600     4.676200
C       2.567100    12.898700     4.551900
C       3.209900    13.452200     5.637200
H       3.867600    14.099700     5.524800
C       2.845800    13.013500     6.903100
H       3.274900    13.368400     7.647200
C       1.859100    12.060600     7.081400
H       1.606200    11.788500     7.933500
C       1.259600    11.523500     5.960600
C       1.898500     9.043700    -0.679600
C       3.018200     7.288400    -1.750100
H       2.879100     6.377300    -2.016700
H       3.760300     7.333900    -1.143300
H       3.205800     7.823400    -2.525400
