34
Refcode: NESSUC_comp_0 | Dataset: tmPHOTO | Charge: unknown | Potential Spins: [1, 3, 5]
Pt      2.680100     2.961500    13.954400
Cl      0.307800     2.962500    14.355100
F       9.183800     4.314300    12.510100
F       9.211300     2.198700    12.579600
F       9.439000     3.317100    14.369900
N       2.757000     4.062300    12.244800
N       3.261600     1.865200    15.567300
C       4.571700     3.057700    13.719500
C       5.081800     3.769200    12.646900
C       6.463500     3.873700    12.501200
H       6.836700     4.362900    11.776400
C       7.286200     3.251200    13.433700
C       6.774400     2.534700    14.525800
H       7.357400     2.118000    15.148800
C       5.390400     2.447400    14.675400
C       4.030700     4.327500    11.783800
C       4.211800     5.048100    10.620400
H       5.090800     5.239900    10.314900
C       3.117700     5.490300     9.898800
H       3.238100     5.981900     9.094500
C       1.852700     5.211100    10.360100
H       1.088300     5.499300     9.874100
C       1.709000     4.505400    11.538600
H       0.832900     4.327500    11.861100
C       4.622600     1.763900    15.728400
C       5.153000     1.074700    16.797900
H       6.093900     1.027700    16.914300
C       4.308300     0.451300    17.699500
H       4.665200    -0.030500    18.436500
C       2.941600     0.535300    17.519700
H       2.348400     0.112800    18.130400
C       2.450900     1.245100    16.436300
H       1.510500     1.293700    16.304100
C       8.760300     3.277500    13.231300
