131
Refcode: NIPTIS_comp_0 | Dataset: tmCAT;tmPHOTO | Charge: 1 | Potential Spins: [1, 3, 5]
Ag     10.307900     8.452300    11.978000
N       8.241500     6.247100    12.657200
N       8.113300     6.690400    10.568300
N      12.030400    10.763000    13.199300
N      12.763800    10.231000    11.259700
C       8.761000     7.064200    11.704700
C       7.303000     5.372000    12.125800
H       6.815600     4.705700    12.596000
C       7.221200     5.654400    10.816000
H       6.660100     5.227200    10.179500
C       8.590400     6.305800    14.062300
C       7.964800     7.270500    14.871100
C       8.359800     7.323900    16.207900
H       7.975000     7.976300    16.781400
C       9.303400     6.443100    16.716300
H       9.569400     6.505800    17.626100
C       9.856700     5.474700    15.901300
H      10.478100     4.856500    16.267100
C       9.518200     5.388600    14.547700
C       6.864000     8.175500    14.339400
H       7.104500     8.438400    13.405000
C       6.674300     9.455900    15.157000
H       6.330100     9.227900    16.045800
H       6.036300    10.043400    14.700500
H       7.534700     9.915900    15.248000
C       5.531300     7.429200    14.292000
H       5.612500     6.652900    13.699300
H       4.833600     8.027800    13.952300
H       5.293100     7.128300    15.193700
C      10.123500     4.294800    13.691000
H       9.858800     4.460400    12.741000
C      11.637600     4.287900    13.765500
H      11.985900     5.133400    13.413500
H      11.987400     3.543300    13.232800
H      11.918200     4.182000    14.698500
C       9.547900     2.940500    14.118200
H       9.747000     2.785300    15.065100
H       9.952300     2.229200    13.578700
H       8.577500     2.941000    13.983900
C       8.174600     7.358500     9.287900
C       7.348700     8.471200     9.087100
C       7.348400     9.046400     7.818300
H       6.775700     9.783100     7.639900
C       8.169200     8.562200     6.812000
H       8.171800     8.983800     5.960700
C       8.984400     7.469000     7.040100
H       9.551800     7.155800     6.345500
C       8.986400     6.816800     8.278300
C       6.463100     9.032400    10.187400
H       6.877400     8.788600    11.064200
C       6.367700    10.558500    10.127700
H       7.268700    10.940300    10.074000
H       5.920200    10.889600    10.934300
H       5.853100    10.823000     9.336800
C       5.062200     8.421700    10.150600
H       4.625200     8.657000     9.305500
H       4.534200     8.769600    10.899300
H       5.128900     7.446600    10.223200
C       9.836300     5.586900     8.515000
H       9.343100     4.992400     9.150000
C      11.170200     5.965900     9.168200
H      11.671000     6.557700     8.568700
H      11.692900     5.154600     9.338000
H      10.999400     6.427900    10.015500
C      10.094000     4.790800     7.233100
H       9.243900     4.626600     6.774100
H      10.514100     3.934800     7.459100
H      10.689100     5.301700     6.645400
C      11.837200     9.876400    12.188100
C      13.047600    11.656900    12.903300
H      13.360300    12.364500    13.454600
C      13.507300    11.324600    11.677400
H      14.203500    11.755600    11.195800
C      11.339800    10.732100    14.465300
C      10.248500    11.587400    14.651200
C       9.604700    11.534600    15.887000
H       8.867400    12.109600    16.055300
C      10.023900    10.656800    16.872800
H       9.552600    10.614700    17.696500
C      11.118500     9.843700    16.670000
H      11.401200     9.255700    17.360500
C      11.816400     9.874800    15.460500
C       9.763000    12.526500    13.564100
H      10.511800    12.648800    12.912600
C       9.392900    13.891800    14.098400
H       8.628800    13.808500    14.706200
H       9.154400    14.480900    13.352500
H      10.155900    14.270800    14.582900
C       8.600800    11.910700    12.816300
H       8.877600    11.052700    12.431800
H       8.317700    12.514300    12.098100
H       7.854400    11.765900    13.434600
C      13.050000     9.008200    15.276200
H      13.462500     9.233600    14.393600
C      14.080000     9.288000    16.372900
H      14.286900    10.245700    16.390000
H      14.898100     8.780300    16.189800
H      13.714800     9.017000    17.240900
C      12.667900     7.530300    15.262200
H      12.291200     7.282000    16.132200
H      13.465100     6.988500    15.085000
H      12.002400     7.371500    14.560700
C      13.041800     9.524000    10.031200
C      12.495600    10.017800     8.841100
C      12.819200     9.341000     7.663400
H      12.444700     9.628800     6.839200
C      13.680900     8.253100     7.681400
H      13.894200     7.807700     6.869900
C      14.231500     7.812600     8.870000
H      14.835500     7.079400     8.862000
C      13.913800     8.428800    10.083600
C      11.579400    11.230900     8.831500
H      11.827900    11.805400     9.611300
C      11.725900    12.075300     7.567900
H      12.670800    12.296500     7.430500
H      11.208000    12.901600     7.665200
H      11.393300    11.570200     6.796900
C      10.127400    10.808800     9.012000
H       9.860300    10.230400     8.267200
H       9.555600    11.604500     9.028900
H      10.031800    10.319700     9.855800
C      14.534000     7.928600    11.377100
H      14.152100     8.458800    12.134200
C      16.047800     8.120700    11.373100
H      16.435900     7.640700    10.612000
H      16.423800     7.769300    12.207100
H      16.255700     9.075400    11.297700
C      14.205100     6.458100    11.608300
H      13.232600     6.337600    11.613200
H      14.574000     6.172300    12.470200
H      14.597500     5.918700    10.890200
