38
Refcode: NOCCAL_comp_0 | Dataset: tmPHOTO | Charge: 0 | Potential Spins: [1, 3, 5]
Pt      1.537200     1.655800     4.797600
S       1.874600     2.722400     6.816900
S       1.414900     0.597000     2.805700
S       1.793700    -0.379100     5.855900
S       1.095200     3.630800     3.793000
C       3.666100     2.901000     9.250300
H       3.840000     3.445600     8.466600
H       4.499400     2.801500     9.737400
C       2.591700    -0.127500    10.530800
H       2.546500     0.430900    11.324100
H       2.820200    -1.028700    10.808100
N       1.293700    -0.632000     8.466600
N       0.241800     5.035500     0.501600
C       2.355100     1.458000     7.813100
C       0.951700     3.179200     2.112400
C       3.656600     0.403200     9.592700
H       4.439800     0.652700    10.108800
H       3.915800    -0.298500     8.975400
C       1.241500    -0.133300     9.831500
H       0.626200    -0.683700    10.342700
H       0.889600     0.770400     9.821800
C       0.578400     4.213000     1.210500
N       3.186700     1.574400     8.828300
C       1.111700     1.884100     1.697700
C       1.807700     0.090400     7.492400
C      -0.846700    -1.786900     8.015600
H      -1.210900    -1.335100     8.782500
H      -1.249900    -2.654000     7.936100
H      -1.027900    -1.273900     7.224700
C       2.663500     3.590100    10.120800
H       1.843600     3.705900     9.633700
H       3.003800     4.448300    10.383700
H       2.497500     3.057600    10.902100
C       0.658700    -1.942100     8.186800
H       0.840100    -2.551700     8.919900
H       1.039000    -2.321300     7.379000
N       0.928600     1.330700    -0.781300
C       1.014800     1.570800     0.311100
