48
Refcode: NOHPIL_comp_0 | Dataset: tmPHOTO | Charge: 0 | Potential Spins: [1, 3, 5]
Pt      1.961000     4.092500     4.619600
Cl      0.282900     4.299700     2.897800
Cl      7.376300     4.884400    16.079400
N       3.222800     5.614100     3.931400
N       1.093700     2.557400     5.736100
N       5.220200     3.949100    10.630800
C       3.207700     4.091100     6.077900
C       4.369400     4.851200     5.999900
C       5.188800     4.951300     7.119800
H       5.984700     5.468500     7.084600
C       4.830300     4.277800     8.311500
C       3.657900     3.498900     8.360000
H       3.433200     3.025400     9.152400
C       2.837100     3.423800     7.257400
C       4.567300     5.464000     4.632000
H       5.162800     4.887000     4.090600
H       4.996200     6.351900     4.723100
C       2.627800     6.926300     4.315700
H       3.208700     7.651600     4.004200
H       2.542800     6.972700     5.291600
H       1.742800     7.016500     3.905900
C       3.443400     5.606000     2.456800
H       2.588900     5.747200     1.998000
H       3.820200     4.742300     2.187400
H       4.066900     6.322400     2.215900
C       1.468500     2.796800     7.192500
H       0.804300     3.396100     7.616400
H       1.469500     1.937500     7.683900
C       1.694100     1.258600     5.308100
H       1.320700     0.532400     5.850600
H       2.665800     1.291600     5.431300
H       1.490600     1.100500     4.363000
C      -0.387800     2.432300     5.645800
H      -0.642000     2.221500     4.723100
H      -0.803900     3.277300     5.914500
H      -0.690800     1.714100     6.240200
C       5.618400     4.464500     9.530200
H       6.423200     4.967400     9.504200
C       5.855300     4.204500    11.866900
C       6.654400     5.307700    12.163000
H       6.873000     5.927600    11.478400
C       7.135000     5.508700    13.452700
H       7.679200     6.261700    13.649300
C       6.811200     4.601100    14.447500
C       6.037200     3.484600    14.179900
H       5.837600     2.857500    14.865600
C       5.558300     3.297900    12.891800
H       5.018200     2.540400    12.700700
