79
Refcode: NOMXOE_comp_0 | Dataset: tmPHOTO | Charge: -1 | Potential Spins: [1, 3, 5]
C       4.490400     4.490100    12.505600
C       3.384900     6.578900    12.398500
C       2.149700     5.914000    12.343800
H       1.365100     6.408300    12.277800
C       2.084100     4.560300    12.387100
H       1.257100     4.136100    12.382600
C       3.249300     2.383800    12.421300
H       2.441400     1.926200    12.384800
C       4.427700     1.704500    12.457700
H       4.420400     0.774900    12.446400
C       5.639600     2.379000    12.512400
H       6.433000     1.894300    12.530700
C       5.686300     3.751900    12.542000
H       6.504500     4.190300    12.585300
C       2.512800     8.822400    12.924800
H       1.935300     8.419000    13.530800
C       2.437000    10.185700    12.706100
H       1.812800    10.692700    13.173100
C       3.281400    10.799500    11.803900
H       3.243500    11.719600    11.671700
C       4.173900    10.034200    11.109000
H       4.722300    10.440800    10.477900
C       4.286200     8.650200    11.320900
H       4.911900     8.146300    10.851500
C       3.441800     8.050600    12.243600
C       3.274100     3.791700    12.439500
C       8.219500     7.645600    13.018200
C       9.291500     8.112800    13.154900
C      10.644900     8.570400    13.325800
C      11.652600     7.618500    13.539900
H      11.428000     6.716000    13.530800
C      12.959300     7.975700    13.758700
C      13.302100     9.323000    13.751800
H      14.187300     9.575000    13.881700
C      12.332200    10.294100    13.549100
H      12.559700    11.195000    13.551300
C      10.992000     9.892300    13.337200
H      10.335700    10.538100    13.205000
C      13.655000     5.733800    14.155100
H      14.454200     5.222000    14.303200
H      13.210200     5.413300    13.366800
H      13.071600     5.639700    14.911500
C       6.800500     6.480000    10.844700
C       6.863200     6.266400     9.644000
C       6.756800     6.073500     8.231500
C       5.625000     5.521800     7.687000
H       4.949800     5.234700     8.256600
C       5.447100     5.376700     6.324600
C       6.418400     5.808800     5.472500
H       6.307600     5.719500     4.552000
C       7.579300     6.387600     5.987400
H       8.242900     6.688900     5.408700
C       7.748500     6.515100     7.336100
H       8.528700     6.899400     7.668800
C       4.041200     4.743600     4.540700
H       3.209900     4.289200     4.381200
H       4.752900     4.268500     4.105500
H       3.990200     5.636600     4.189800
C       6.055300     7.132200    14.722400
C       5.842400     7.286900    15.891100
C       5.680500     7.390500    17.321900
C       6.737800     7.132200    18.178600
H       7.561800     6.894600    17.820900
C       6.594900     7.221500    19.572900
C       5.400500     7.481400    20.110600
H       5.295500     7.486200    21.033300
C       4.309600     7.744500    19.281300
H       3.490000     7.948600    19.670800
C       4.400000     7.712600    17.889200
H       3.663500     7.894400    17.351500
C       7.633300     6.910600    21.696300
H       8.501000     6.760700    22.079000
H       7.052800     6.178700    21.919500
H       7.267200     7.726900    22.044800
N       4.551700     5.883700    12.519300
O      13.994800     7.108300    13.984200
O       4.289200     4.796300     5.921300
O       7.747000     7.009400    20.283700
Pt      6.449000     6.825000    12.777500
