33
Refcode: NUVWOQ_comp_0 | Dataset: tmPHOTO | Charge: 0 | Potential Spins: [1, 3, 5]
Pt     -0.354900     2.196100     6.529600
S       1.287400     1.398800     5.224000
S       0.941200     3.974100     7.002500
N      -1.683000     0.693100     6.109200
N      -1.921700     2.766600     7.718900
C      -1.487300    -0.296700     5.228800
C      -2.458600    -1.247600     4.970800
C      -3.645400    -1.181100     5.639500
C      -3.858400    -0.179900     6.548700
C      -2.859900     0.764100     6.763600
C      -3.013300     1.908600     7.663200
C      -4.156500     2.205300     8.402000
C      -4.182000     3.331400     9.193300
C      -3.095400     4.126500     9.266600
C      -1.975600     3.827400     8.526200
C       2.543200     2.633700     5.268600
C       3.732400     2.439000     4.529800
C       4.729900     3.416200     4.548900
C       4.532700     4.558300     5.302000
C       3.390000     4.747400     6.028000
C       2.385800     3.772500     6.020100
H      -0.658600    -0.347100     4.768600
H      -2.300800    -1.937200     4.337100
H      -4.322700    -1.827200     5.475500
H      -4.677300    -0.129500     7.026300
H      -4.913700     1.634800     8.359000
H      -4.963900     3.547900     9.688500
H      -3.103200     4.892900     9.827000
H      -1.216200     4.395700     8.591500
H       3.852600     1.645100     4.021900
H       5.530600     3.298200     4.050500
H       5.207200     5.227400     5.316300
H       3.276800     5.540100     6.537500
