50
Refcode: OJATEZ_comp_0 | Dataset: tmPHOTO | Charge: 0 | Potential Spins: [1, 3, 5]
C       2.343100     1.180500     6.040500
H       1.825500     1.520900     5.347100
C       1.830200     1.196200     7.318800
H       0.977800     1.529900     7.481300
C       2.600500     0.711500     8.355000
H       2.265800     0.680000     9.221900
C       3.875000     0.274600     8.074900
H       4.419500    -0.024700     8.766800
C       4.354800     0.275300     6.776100
C       5.707200    -0.101000     6.357400
C       6.628000    -0.717400     7.194400
H       6.415400    -0.865600     8.088700
C       7.865600    -1.113900     6.699600
H       8.492600    -1.506700     7.263700
C       8.155800    -0.919400     5.370100
H       8.973000    -1.205200     5.029800
C       7.233600    -0.297700     4.528300
H       7.444500    -0.184000     3.630000
C       6.004500     0.157100     5.001200
C       1.592700     0.085300     3.015300
H       1.296700     0.026200     3.894700
C       0.860300    -0.383000     1.914400
H       0.023300    -0.786300     1.932900
C       1.623600    -0.127200     0.810000
H       1.402100    -0.319400    -0.072500
C       2.824200     0.490000     1.268300
C       3.945700     0.803500     0.492800
C       5.185900     1.247100     0.966300
C       6.219700     1.859800     0.197100
H       6.248300     1.936900    -0.728900
C       7.165500     2.316100     1.084700
H       7.949500     2.772500     0.877600
C       6.718500     1.958600     2.357500
H       7.174900     2.151600     3.144100
C       3.798700     0.660600    -0.983300
C       2.789200     1.318200    -1.676700
H       2.222000     1.895700    -1.218500
C       2.615200     1.129600    -3.030800
H       1.935500     1.576300    -3.481300
C       3.462300     0.265600    -3.722100
C       4.492700    -0.380000    -3.042900
H       5.067400    -0.947100    -3.503100
C       4.662900    -0.180300    -1.689500
H       5.357200    -0.608200    -1.243900
C       3.261600     0.038200    -5.127500
N       3.559500     0.692000     5.757800
N       2.759900     0.623900     2.661800
N       5.548100     1.300200     2.305800
N       3.107700    -0.130200    -6.248500
Pd      4.459900     0.765500     3.917200
