67
Refcode: OTIYIB_comp_0 | Dataset: tmPHOTO | Charge: 0 | Potential Spins: [1, 3, 5]
Pd      3.691200     0.927500     5.271800
O       3.757800     1.684200     3.420900
O       1.841800     1.941100     1.765200
H       2.353500     1.778400     2.441300
O       1.813600     1.630800     5.397800
O      -0.270100     0.776400     4.144600
H       0.559800     0.871800     4.620200
N       5.564000     0.176700     5.144600
N       3.586700     0.126700     7.125300
C       5.716400    -0.502100     3.822200
H       5.013000    -1.208800     3.772100
H       6.620800    -1.046100     3.875200
C       5.706100     0.460300     2.649100
C       4.722300     1.464500     2.510700
C       4.730800     2.282800     1.363600
C       5.725400     2.084100     0.391700
H       5.677800     2.615300    -0.522500
C       6.673300     1.101900     0.532300
H       7.355700     0.929900    -0.208500
C       6.667800     0.310300     1.656900
H       7.308700    -0.418400     1.745500
C       3.707200     3.339400     1.145500
C       2.326000     3.122000     1.296800
C       1.413000     4.092600     0.946100
H       0.487700     3.905500     1.159700
C       1.838600     5.306100     0.438100
H       1.236100     5.974400     0.180400
C       3.179900     5.572300     0.334800
H       3.420800     6.404500     0.058600
C       4.098500     4.604000     0.684400
H       4.895700     4.742300     0.557600
C       5.640200    -0.832200     6.249500
H       6.488900    -0.999600     6.344600
H       5.199700    -1.697000     5.878400
C       4.980500    -0.289400     7.466400
H       5.360200     0.662500     7.675400
H       4.963400    -0.988000     8.146300
C       3.124500     1.183300     8.068300
H       3.754800     1.906200     8.033900
H       3.195600     0.836900     8.889000
C       1.727600     1.697000     7.821400
C       1.184100     1.941100     6.548400
C      -0.088400     2.573400     6.443000
C      -0.776700     2.907000     7.616100
H      -1.651700     3.277800     7.504400
C      -0.254700     2.631500     8.856000
H      -0.715800     2.905900     9.666900
C       0.980200     2.038700     8.952000
H       1.249300     1.836500     9.755900
C      -0.690600     2.930300     5.140600
C      -0.786100     2.044600     4.068200
C      -1.459000     2.395600     2.911300
H      -1.542900     1.697000     2.303100
C      -2.005100     3.654400     2.783400
H      -2.470000     3.789200     2.038300
C      -1.879900     4.569200     3.800200
H      -2.236400     5.358400     3.701800
C      -1.253200     4.214600     4.981000
H      -1.170300     4.881800     5.763600
C       6.600300     1.229800     5.316100
H       7.405500     0.743900     5.191900
H       6.502300     1.894600     4.491400
H       6.523400     1.708600     6.098600
C       2.669600    -1.042600     7.142400
H       2.983900    -1.673800     6.609400
H       1.836600    -0.720700     6.888200
H       2.584500    -1.359900     8.036200
