60
Refcode: OYAZEU_comp_0 | Dataset: tmPHOTO | Charge: -4 | Potential Spins: [1, 3, 5]
Ir      2.497700    12.733900     4.891500
C       4.643000    14.657900     7.993100
H       5.216900    15.287500     8.366500
C       3.969000    13.705200     8.718000
H       3.990700    13.559400     9.636800
C       3.236600    13.004400     7.742400
C       2.310700    11.924100     7.768000
C       1.863500    11.281300     8.913800
H       2.163800    11.554700     9.750300
C       0.981000    10.247400     8.811300
H       0.665700     9.829900     9.580100
C       0.553900     9.820000     7.570300
H      -0.015000     9.089300     7.482500
C       0.997700    10.510900     6.468500
H       0.690700    10.249100     5.632000
C       0.827500    13.889100     5.013300
C      -0.830800    15.375300     5.139600
H      -1.329700    16.104300     5.425200
C      -1.161200    14.563400     4.158600
H      -1.925300    14.604900     3.627800
C       1.041100    15.602300     6.797900
H       1.942000    15.274200     6.860200
H       0.568900    15.393500     7.608800
H       1.054400    16.553300     6.671600
C       1.343000    11.896000     3.431900
C       0.106800    12.538800     3.208600
C      -0.794100    12.136200     2.245800
H      -1.598300    12.588500     2.136000
C      -0.485500    11.057600     1.446000
H      -1.076100    10.762700     0.790700
C       0.709000    10.436300     1.645500
C       1.606600    10.824000     2.597300
H       2.409100    10.361800     2.685100
C       4.175900    11.707100     4.385500
C       6.072800    11.541400     3.208600
H       6.756800    11.745200     2.611900
C       6.009400    10.487700     3.992000
H       6.636700     9.801700     4.043200
C       4.384400     9.579700     5.683200
H       4.664700     9.831600     6.567300
H       4.761500     8.726500     5.458100
H       3.426800     9.523400     5.655800
C       3.296700    13.932200     3.466700
C       2.777800    15.128400     2.950500
H       1.978700    15.468100     3.285500
C       3.441800    15.804400     1.958500
C       4.608000    15.372000     1.405700
H       5.031700    15.850800     0.730300
C       5.130200    14.202300     1.883400
H       5.926000    13.872600     1.535700
C       4.472800    13.509700     2.886500
F       1.021000     9.363800     0.850900
F       2.886200    16.954900     1.473100
N       3.506900    13.556100     6.535400
N       4.372700    14.570100     6.668900
N       1.838500    11.524800     6.537800
N       0.375400    14.974300     5.677700
N      -0.131800    13.635600     4.082200
N       4.943300    12.283700     3.437400
N       4.839900    10.582100     4.724100
