35
Refcode: OZUXOX_comp_0 | Dataset: tmPHOTO | Charge: unknown | Potential Spins: [1, 3, 5]
Mn      7.801400     3.355600     4.561600
O       8.858100     1.060700     6.041800
O       8.692700     5.048500     6.789700
O       7.491700     2.806500     0.576100
N       9.333700     3.659600     3.277700
C       6.734200     3.611000     2.736400
C       6.400300     2.342500     3.290200
H       6.528100     1.451300     2.855700
C       5.810800     2.588800     4.568900
H       5.453100     1.894200     5.193000
C       5.786800     3.988300     4.784100
H       5.403300     4.451800     5.583400
C       6.347600     4.624800     3.642200
H       6.431300     5.611400     3.497000
C       8.476400     1.965400     5.417300
C       8.372200     4.411100     5.879000
C      10.631600     3.703500     3.657900
H      10.843000     3.535100     4.568400
C      11.660800     3.981800     2.785100
H      12.559800     3.996800     3.092500
C      11.369000     4.240700     1.450400
H      12.059900     4.456100     0.834600
C      10.053800     4.177900     1.044000
H       9.826800     4.335300     0.135700
C       9.064500     3.884200     1.969000
C       7.612200     3.843000     1.540400
H       7.368800     4.715800     1.117500
C       6.393100     3.058200    -0.333200
H       5.586200     3.297600     0.188200
H       6.192500     2.230400    -0.839700
C       6.700600     4.150200    -1.285500
H       7.517800     4.097800    -1.766400
C       5.932600     5.174600    -1.511800
H       5.107200     5.259900    -1.049600
H       6.197000     5.837400    -2.138900
