17
Refcode: PAGMNT_comp_1 | Dataset: tmPHOTO | Charge: -2 | Potential Spins: [1, 3, 5]
C      11.992100     8.299700    -4.044300
C      14.311500     8.744800    -2.453100
C      13.199300     8.064100    -1.892300
C      12.064100     7.845400    -2.655400
Ni     11.290500     6.507500     0.000000
N      11.964100     8.630200    -5.139700
N      15.203500     9.284900    -2.824000
S      10.646200     7.072400    -2.013400
S      13.238500     7.427700    -0.286000
S      11.934800     5.942600     2.013400
S       9.342500     5.587300     0.286000
C      10.516900     5.169600     2.655400
C       9.381700     4.950900     1.892300
C      10.588900     4.715300     4.044300
C       8.269500     4.270200     2.453100
N      10.616900     4.384800     5.139700
N       7.377500     3.730100     2.824000
