55
Refcode: PAQPUV_comp_0 | Dataset: tmPHOTO | Charge: 0 | Potential Spins: [1, 3, 5]
Ni     -1.594600     2.798000    10.877600
O      -0.205300     4.241900    10.452700
O       0.799900     7.399600     7.108500
O      -0.240100     1.340500    10.193700
N      -2.087900     3.213100     8.939700
N      -1.106200     6.456600     5.510500
C      -1.458200     4.218500     8.409500
C      -1.683700     4.786500     7.119400
C      -0.938500     5.846900     6.685400
C       0.154700     6.440600     7.556700
C       0.360700     5.866000     8.838100
C      -0.376100     4.812000     9.300400
C      -3.097000     2.519100     8.157100
C      -2.148100     6.088600     4.579500
C      -0.615700     0.012200     9.896400
H       0.416400     1.357700    10.562200
H      -2.357800     4.423300     6.557500
H      -0.559200     7.110800     5.293500
H       1.038000     6.228500     9.397200
H      -3.479300     1.790800     8.688500
H      -3.805600     3.148400     7.906500
H      -2.685700     2.151800     7.346500
H      -2.092500     6.659500     3.784800
H      -2.035100     5.151200     4.316600
H      -3.022900     6.205400     5.005000
H       0.170100    -0.490500     9.596200
H      -0.986200    -0.410100    10.699700
H      -1.292200     0.014900     9.187400
O      -2.983900     1.354200    11.302500
O      -3.989100    -1.803500    14.646700
O      -2.949100     4.255600    11.561500
N      -1.101300     2.383000    12.815600
N      -2.083000    -0.860600    16.244700
C      -1.731000     1.377600    13.345700
C      -1.505500     0.809600    14.635800
C      -2.250700    -0.250800    15.069800
C      -3.343900    -0.844500    14.198500
C      -3.549900    -0.269900    12.917200
C      -2.813100     0.784100    12.454900
C      -0.092200     3.077000    13.598100
C      -1.041100    -0.492500    17.175700
C      -2.573500     5.583900    11.858800
H      -3.605600     4.238400    11.193100
H      -0.831400     1.172800    15.197800
H      -2.630000    -1.514700    16.461700
H      -4.227200    -0.632400    12.358100
H       0.290100     3.805300    13.066700
H       0.616400     2.447600    13.848700
H      -0.503500     3.444300    14.408700
H      -1.096700    -1.063400    17.970500
H      -1.154100     0.444900    17.438700
H      -0.166300    -0.609300    16.750200
H      -3.359300     6.086600    12.159000
H      -2.203000     6.006200    11.055600
H      -1.897000     5.581200    12.567800
