55
Refcode: PAQQAC_comp_0 | Dataset: tmPHOTO | Charge: 0 | Potential Spins: [1, 3, 5]
Ni      1.942600    -2.143800     9.892800
O       0.578700    -3.315900    10.337900
O      -2.846700    -3.746500    13.525400
N       1.351500    -1.143600    11.371100
N      -2.110900    -1.506200    14.730900
C       0.343300    -1.676900    12.015100
C      -0.315300    -1.191900    13.172900
C      -1.393400    -1.884800    13.673700
C      -1.871000    -3.171100    13.022500
C      -1.178600    -3.640200    11.878200
C      -0.102900    -2.955100    11.375800
C       1.912400     0.148900    11.769200
C       1.310300     1.275600    10.949100
C      -1.801000    -0.313100    15.497800
C      -2.903400     0.054700    16.460800
H      -0.016100    -0.397000    13.598200
H      -2.799300    -1.998100    14.973400
H      -1.463700    -4.440800    11.453600
H       2.894000     0.135900    11.641400
H       1.730100     0.306100    12.729500
H       1.699700     2.129500    11.231700
H       1.502800     1.127400     9.999600
H       0.340400     1.297400    11.086300
H      -1.648200     0.441700    14.875600
H      -0.963700    -0.462200    16.005000
H      -2.650500     0.863000    16.954100
H      -3.730500     0.222300    15.962100
H      -3.045900    -0.681600    17.091400
O       3.306500    -0.971600     9.447700
O       6.731900    -0.541100     6.260300
N       2.533700    -3.144000     8.414500
N       5.996100    -2.781300     5.054700
C       3.541900    -2.610600     7.770500
C       4.200500    -3.095600     6.612800
C       5.278600    -2.402800     6.111900
C       5.756200    -1.116400     6.763100
C       5.063800    -0.647300     7.907400
C       3.988100    -1.332400     8.409800
C       1.972800    -4.436400     8.016400
C       2.574800    -5.563100     8.836600
C       5.686200    -3.974500     4.287800
C       6.788600    -4.342300     3.324800
H       3.901300    -3.890600     6.187500
H       6.684500    -2.289400     4.812300
H       5.348900     0.153200     8.332000
H       0.991200    -4.423400     8.144300
H       2.155100    -4.593600     7.056100
H       2.185500    -6.417000     8.553900
H       2.382300    -5.414900     9.786100
H       3.544800    -5.585000     8.699300
H       5.533400    -4.729200     4.910000
H       4.848900    -3.825300     3.780600
H       6.535700    -5.150500     2.831500
H       7.615700    -4.509800     3.823600
H       6.931100    -3.605900     2.694200
