42
Refcode: PAYCUN_comp_0 | Dataset: tmPHOTO | Charge: 0 | Potential Spins: [1, 3, 5]
Re      3.577800    13.108500     3.036100
Cl      1.460600    13.068000     1.779400
N       2.510200    11.604300     4.275600
N       0.730400     9.710800     5.284100
N       4.014200    11.180600     2.163500
N       0.776700     8.488300     2.038100
C       4.466700    14.099900     1.667200
C       3.068500    14.793200     3.787200
C       5.188600    13.055800     4.098700
O       4.979000    14.649300     0.807900
O       2.754400    15.819000     4.203000
O       6.095000    13.031500     4.731000
C       2.337100    10.420300     3.680200
C       1.348600     9.512100     4.140900
C       0.355000    11.050800     7.227200
C       0.536400    12.216500     7.891100
C       1.369700    13.199800     7.376300
C       2.035100    13.031500     6.188300
C       1.848800    11.841500     5.466200
C       1.012400    10.848100     5.982400
C       3.322300    10.126400     2.597800
C       4.982900    10.996100     1.236900
C       5.286400     9.751300     0.740500
C       4.616500     8.662700     1.223700
C       3.629800     8.843100     2.172800
C       0.834900     8.344400     3.366100
C       0.268900     7.464500     1.341200
C      -0.206000     6.304900     1.915400
C      -0.148600     6.179200     3.277600
C       0.383500     7.225300     4.036700
H      -0.211000    10.367600     7.596800
H       0.077000    12.372600     8.720100
H       1.501900    14.010700     7.872700
H       2.608200    13.722800     5.846400
H       5.474400    11.756300     0.914800
H       5.958100     9.647900     0.062000
H       4.832600     7.782800     0.909500
H       3.157000     8.088900     2.533100
H       0.248500     7.537500     0.384100
H      -0.583200     5.609500     1.371500
H      -0.464000     5.372300     3.692100
H       0.433900     7.164500     4.992400
