44
Refcode: PAYTER_comp_0 | Dataset: tmPHOTO | Charge: 0 | Potential Spins: [1, 3, 5]
Au      0.449200     3.692300     2.077600
C       2.162000     4.523200     2.763900
C      -0.263200     4.605800     3.709600
C       0.610100     5.473000     4.367200
C       1.977600     5.438100     3.830700
C       3.443700     4.305100     2.304700
H       3.589800     3.666300     1.617900
C       3.057000     6.168100     4.344200
H       2.923200     6.801900     5.037300
C       0.162600     6.195400     5.454800
H       0.747000     6.795900     5.903600
C      -1.570100     4.439700     4.152200
H      -2.153100     3.834100     3.711700
C      -2.014500     5.173200     5.254400
H      -2.908100     5.074400     5.561300
C      -1.160600     6.036100     5.893200
H      -1.469300     6.533500     6.640500
C       4.539400     5.010500     2.837000
H       5.418100     4.839200     2.519700
C       4.327700     5.951700     3.822300
H       5.060800     6.459400     4.150100
O      -1.392800     2.938800     1.567800
N       0.953500     2.663700     0.273500
C      -1.362300     2.156000     0.494800
C       2.112000     2.578500    -0.390400
H       2.852300     3.092100    -0.087700
C      -0.134200     1.989000    -0.215000
C      -2.484700     1.526500     0.004200
C      -1.222200     0.485500    -1.828700
C      -2.389500     0.706200    -1.131500
H      -3.179100     0.276000    -1.436200
C       1.219400     1.046000    -1.979000
H       1.335000     0.472800    -2.726400
C      -0.050000     1.144900    -1.361100
C       2.273400     1.762400    -1.513500
H       3.116100     1.709600    -1.947700
C      -3.803400     1.728400     0.686800
H      -3.809400     1.240300     1.536400
H      -4.522200     1.391900     0.110600
H      -3.941200     2.683300     0.855900
C      -1.169700    -0.378200    -3.049900
H      -2.028500    -0.836500    -3.162700
H      -0.455600    -1.042600    -2.949700
H      -0.990700     0.178000    -3.836900
