78
Refcode: PIVLUD_comp_0 | Dataset: tmPHOTO | Charge: 0 | Potential Spins: [1, 3, 5]
Rh      8.704000     7.226800     1.266400
N       7.758300     8.872200     2.091300
N       8.217600     6.329800     3.090800
N       6.092600     7.504800     3.165900
C       6.485600     8.618000     2.597700
C       6.486500     5.398400     4.310800
C      10.048400     4.839100     3.780400
C       6.874100     6.476600     3.452900
C       7.607900     4.631700     4.467400
H       7.674700     3.835300     4.981500
C       5.178300     5.183600     4.934400
C       4.350200     9.999300     3.079000
C       8.645000     5.234600     3.728200
C      10.307400    10.302300     1.800700
H      10.355400     9.492100     2.293900
C       9.028400    12.048300     0.769400
H       8.193300    12.449100     0.557500
C      10.405300     3.508900     3.782200
H       9.734200     2.841100     3.704800
C       9.062700    10.842500     1.487200
C       6.600800    10.810600     2.212400
H       6.411800    11.739900     2.150500
C       3.038500     5.947000     5.709700
H       2.408700     6.652000     5.807500
C       5.733100     9.849300     2.623200
C       3.431800     8.963600     2.982000
H       3.699100     8.134200     2.605700
C       4.256800     6.206500     5.111600
H       4.464000     7.086900     4.822200
C      10.192700    12.651100     0.375000
H      10.156000    13.463500    -0.116100
C      11.050200     5.800300     3.895100
H      10.824500     6.723200     3.891400
C       3.912900    11.200800     3.603800
H       4.516600    11.931300     3.670700
C       7.838600    10.191700     1.889500
C       2.722400     4.712500     6.156800
H       1.882400     4.552000     6.569900
C      11.456400    10.920100     1.409600
H      12.297900    10.542600     1.638500
C      11.401600    12.101400     0.677500
H      12.203000    12.522500     0.389100
C       1.724300    10.315100     3.955400
H       0.833000    10.420300     4.266900
C       4.839700     3.919300     5.395600
H       5.453800     3.202700     5.288700
C      12.357000     5.417500     4.013200
H      13.033200     6.079900     4.091700
C      11.730300     3.137800     3.894600
H      11.964400     2.217000     3.884600
C      12.707400     4.082000     4.019100
H      13.617600     3.824700     4.107600
C       3.629500     3.689700     6.006200
H       3.420200     2.819900     6.326400
C       2.603600    11.349700     4.033400
H       2.316500    12.183300     4.385200
C      10.107000     5.784400     0.563000
H      10.575700     5.287800     1.294900
C      10.351700     7.419700    -1.333500
H      11.027100     8.066200    -1.661200
H       9.953500     6.968900    -2.118700
C       8.831500     5.333500     0.315000
H       8.553000     4.570100     0.898900
C       9.269900     8.167200    -0.586400
H       9.418300     9.153900    -0.521100
C      11.036300     6.384100    -0.452400
H      11.399800     5.662100    -1.024100
H      11.796300     6.810400     0.015900
C       7.941600     7.789700    -0.609400
H       7.303100     8.558500    -0.571200
C       8.178100     5.323900    -1.054500
H       8.876500     5.216500    -1.747700
H       7.564000     4.549900    -1.117400
C       7.402200     6.599900    -1.321700
H       7.409000     6.779600    -2.296200
H       6.460500     6.463800    -1.049100
C       2.130400     9.122100     3.427200
H       1.518700     8.399000     3.365700
