83
Refcode: QAPCEP_comp_0 | Dataset: tmPHOTO | Charge: 0 | Potential Spins: [1, 3, 5]
Ta      3.781100     0.572000     8.205500
Si      0.628300    -0.219900     6.667800
N       5.586500    -0.272400     7.613500
N       3.731100     1.508600     6.308100
C       3.484300     1.521300    10.174200
C       2.635100     0.378900    10.323900
C       3.453500    -0.749900    10.552800
C       4.802900    -0.343700    10.540300
C       4.834700     1.039900    10.274000
C       3.192600     2.503600     9.188200
C       1.135300     0.411100    10.455000
C       2.937600    -2.117900    10.873100
C       6.010200    -1.187300    10.852300
C       6.074400     1.909900    10.234500
C       5.915100    -1.628700     7.725800
C       5.085500    -2.705700     8.069000
C       5.667200    -3.965300     8.143900
C       7.004600    -4.189900     7.877600
C       7.810200    -3.141200     7.459500
C       7.259100    -1.851300     7.388800
C       7.792400    -0.583900     6.989400
C       9.048700    -0.191400     6.502600
C       9.246900     1.127800     6.186500
C       8.221400     2.058300     6.355000
C       6.969700     1.695100     6.825100
C       6.749200     0.351500     7.141300
C       3.442200     2.847300     5.886900
C       2.822000     3.901800     6.531800
C       2.655900     5.117500     5.895200
C       3.123500     5.329400     4.615900
C       3.698500     4.292400     3.929500
C       3.855200     3.051300     4.553500
C       4.334400     1.800500     4.066800
C       4.782200     1.413900     2.802000
C       5.107200     0.106400     2.587700
C       4.983300    -0.818200     3.605000
C       4.537300    -0.455000     4.869700
C       4.225500     0.887600     5.115200
C       2.205400    -0.737200     7.578100
C      -0.083000     1.416800     7.168300
C      -0.633100    -1.559400     6.981100
C       0.954500    -0.160100     4.823900
H       4.176700    -2.577800     8.237500
H       5.127600    -4.686900     8.383100
H       7.369200    -5.038400     7.967100
H       8.705400    -3.290600     7.239000
H       9.739800    -0.810400     6.407000
H      10.068100     1.406100     5.866100
H       8.385500     2.948800     6.136500
H       6.290200     2.323900     6.927000
H       2.517400     3.788500     7.405400
H       2.211900     5.809800     6.344600
H       3.042100     6.171000     4.222800
H       3.979000     4.413500     3.057900
H       4.848900     2.040700     2.121800
H       5.406200    -0.166000     1.747400
H       5.206100    -1.708800     3.432300
H       4.445900    -1.093600     5.533300
H       3.808600     3.241700     9.111200
H       2.264500     2.773100     9.111200
H       0.749600    -0.312500     9.943300
H       0.807000     1.249800    10.109700
H       0.892500     0.322200    11.378600
H       2.515600    -2.109100    11.732200
H       3.671500    -2.743800    10.879300
H       2.292600    -2.382500    10.213700
H       6.271700    -1.044800    11.753000
H       6.733600    -0.947100    10.255300
H       5.791800    -2.109100    10.733700
H       6.434100     2.001700    11.129000
H       5.848200     2.782800     9.901700
H       6.738800     1.503700     9.672800
H       2.630000    -1.406100     7.010200
H       1.902100    -1.201000     8.383100
H      -0.770400     1.669700     6.552600
H       0.612700     2.079800     7.155800
H      -0.443100     1.347500     8.050300
H      -1.456700    -1.327900     6.552600
H      -0.777800    -1.650200     7.925500
H      -0.311400    -2.392300     6.615000
H       1.441100    -0.947100     4.555600
H       1.471100     0.624900     4.618000
H       0.116900    -0.126900     4.347600
