51
Refcode: QAVDOJ_comp_0 | Dataset: tmPHOTO | Charge: unknown | Potential Spins: [1, 3, 5]
Ru      6.738300     6.856800     2.094300
P       5.715300     5.195800     3.226800
O       4.939600     7.821000     1.764100
C       3.736800     7.403000     1.704100
C       2.751400     8.404200     1.130200
H       3.071000     9.294400     1.289100
H       1.896900     8.290300     1.552200
H       2.662100     8.260300     0.183600
C       3.270500     6.145900     2.064300
C       1.955100     5.657900     1.857700
H       1.256200     6.124300     1.458600
C       1.888800     4.397400     2.341500
H       1.141500     3.845800     2.299200
C       3.148100     4.038800     2.933100
H       3.347700     3.235000     3.355100
C       4.005600     5.106800     2.756500
C       5.755500     5.380600     5.045100
C       4.657600     5.834800     5.737300
H       3.857300     5.968700     5.283500
C       4.719000     6.095600     7.097000
H       3.965100     6.399500     7.549100
C       5.895600     5.902700     7.771600
H       5.942100     6.090000     8.681000
C       7.014000     5.432900     7.111100
H       7.807300     5.292900     7.573800
C       6.942700     5.169100     5.742600
H       7.692100     4.850700     5.294100
C       6.326700     3.480700     2.963100
C       6.164500     2.486800     3.914900
H       5.819300     2.713300     4.748400
C       6.493200     1.186500     3.669500
H       6.378800     0.544600     4.333400
C       7.002800     0.821900     2.426300
H       7.236700    -0.061700     2.251500
C       7.156000     1.802100     1.446200
H       7.493800     1.581000     0.609200
C       6.800300     3.104600     1.732300
H       6.883600     3.748700     1.066600
C       8.377100     7.538000     3.492900
H       8.458300     7.525900     4.420000
C       8.749700     6.396400     2.749500
H       9.021400     5.622300     3.187400
C       8.708500     6.433200     1.324400
H       8.942500     5.684900     0.822900
C       8.308300     7.620000     0.688700
H       8.336500     7.678400    -0.240200
C       7.878700     8.686600     1.418000
H       7.567200     9.443300     0.974800
C       7.895900     8.670300     2.871300
H       7.592800     9.398600     3.364000
H       6.224900     5.701500     1.024200
