87
Refcode: QAXMAF_comp_0 | Dataset: tmPHOTO | Charge: unknown | Potential Spins: [1, 3, 5]
Ir      4.024600     5.929500     3.158100
N       4.052000     5.082400     5.016400
N       4.031500     6.964800     1.408600
N       2.375300     4.707200     2.408400
N       4.449500     3.997700     2.212600
N       2.713900     2.579900     1.290700
C       5.780000     6.678600     3.813200
C       3.192800     7.640300     3.779900
C       6.066100     6.348200     5.164700
C       7.204600     6.828300     5.798600
H       7.353000     6.630600     6.716800
C       8.114000     7.585700     5.104800
H       8.899500     7.907200     5.532500
C       7.869900     7.880900     3.761800
H       8.500100     8.398500     3.272400
C       6.723600     7.428700     3.137400
H       6.580600     7.640300     2.222100
C       5.096400     5.520300     5.840500
C       5.173500     4.959400     7.124500
H       5.915700     5.176100     7.677700
C       4.227100     4.127700     7.596900
H       4.269000     3.810500     8.491200
C       3.183300     3.740800     6.760500
H       2.520700     3.129600     7.057000
C       3.142100     4.263100     5.499300
H       2.414300     4.023200     4.938500
C       2.762800     7.988500     5.072500
H       2.878000     7.373400     5.786300
C       2.173200     9.214800     5.322500
H       1.897000     9.427500     6.206400
C       1.976300    10.147100     4.301700
H       1.557800    10.978800     4.485100
C       2.394800     9.846100     3.025300
H       2.284700    10.479800     2.325700
C       2.984000     8.600100     2.762900
C       3.460400     8.202800     1.422800
C       3.301800     8.940100     0.257600
H       2.875200     9.787300     0.278500
C       3.764400     8.429500    -0.919100
H       3.645900     8.913000    -1.727900
C       4.400000     7.222500    -0.931400
H       4.763100     6.878200    -1.739300
C       4.508000     6.511500     0.230000
H       4.935400     5.663500     0.207200
C       3.178300     3.762900     1.975000
C       0.956800     4.802000     2.076700
H       0.708300     4.038700     1.478900
C       0.668500     6.121500     1.353400
H       0.869600     6.870500     1.951300
H      -0.275800     6.154800     1.094900
H       1.229300     6.185700     0.552200
C       0.130800     4.727300     3.351300
H       0.229800     3.837600     3.753300
H      -0.813800     4.885900     3.139300
H       0.441800     5.408200     3.984200
C       6.097600     2.781500     3.531800
H       6.419400     3.644100     3.874900
H       6.848200     2.154800     3.466300
H       5.421600     2.421700     4.142000
C       5.481500     2.983800     2.151800
H       5.060400     2.123800     1.866700
C       6.538500     3.365600     1.120600
H       6.120200     3.446800     0.238600
H       7.232600     2.677000     1.091100
H       6.942300     4.224400     1.369600
C       2.022200     1.401200     3.278100
H       2.768900     1.767900     3.735200
C       1.824800     1.709500     1.943700
C       0.725100     1.176800     1.297400
H       0.569900     1.377200     0.382100
C       0.066000     0.023200     3.315100
H      -0.525300    -0.564800     3.770400
C       1.150500     0.564800     3.964300
H       1.303400     0.367500     4.880500
C      -0.149900     0.348200     1.982600
H      -0.910600     0.000000     1.534000
C       2.998300     2.457700    -0.099800
C       3.291500     3.462300    -2.261100
H       3.301800     4.236000    -2.812400
C       3.317500     1.215100    -0.640600
H       3.348500     0.444900    -0.083600
C       3.003700     3.585700    -0.910500
H       2.810200     4.437200    -0.539900
C       3.561300     2.236000    -2.808600
H       3.729500     2.154800    -3.740900
C       3.589000     1.102500    -1.990200
H       3.796800     0.255300    -2.363700
