55
Refcode: QEVQOX_comp_0 | Dataset: tmPHOTO | Charge: 0 | Potential Spins: [1, 3, 5]
Pt      6.749700     0.204800     8.405700
N       5.717700     1.789000     9.228400
C       7.980600    -1.142200     7.725400
C       8.883900    -1.862200     7.392600
C       9.961600    -2.766100     7.035000
C      10.597000    -3.548800     7.988800
C      11.572100    -4.446400     7.652600
C      11.983800    -4.601000     6.341300
C      11.366300    -3.816300     5.379700
C      10.391200    -2.907100     5.710300
C      13.038500    -5.603200     5.978200
C       4.735000     1.753500    10.149700
C       4.193900     2.906100    10.685400
C       4.637500     4.130800    10.276300
C       5.675400     4.212300     9.332600
C       6.199500     3.006400     8.859700
C       6.245200     5.436000     8.842800
H      10.344800    -3.458900     8.901100
H      11.973800    -4.974100     8.332900
H      11.625300    -3.908200     4.469600
H      10.002000    -2.367900     5.032200
H      13.199700    -5.572900     5.012100
H      12.736400    -6.500800     6.231500
H      13.869100    -5.391100     6.454500
H       4.403900     0.911200    10.438800
H       3.511200     2.845500    11.342100
H       4.245700     4.922900    10.627100
H       5.897400     6.264700     9.147700
C       7.299900     3.006400     7.951800
N       7.781700     1.789000     7.583100
C       5.518800    -1.142200     9.086000
C       4.615500    -1.862200     9.418900
C       3.537800    -2.766100     9.776400
C       2.902500    -3.548800     8.822700
C       1.927400    -4.446400     9.158900
C       1.515700    -4.601000    10.470200
C       2.133100    -3.816300    11.431800
C       3.108300    -2.907100    11.101200
H       3.497400    -2.367900    11.779200
H       1.874100    -3.908200    12.341900
C       0.461000    -5.603200    10.833300
H       0.299800    -5.572900    11.799400
H       0.763000    -6.500800    10.580000
H      -0.369600    -5.391100    10.357000
H       1.525600    -4.974100     8.478600
H       3.154600    -3.458900     7.910400
C       8.764400     1.753500     6.661800
C       9.305600     2.906100     6.126100
C       8.861900     4.130800     6.535200
C       7.824000     4.212300     7.478900
C       7.254200     5.436000     7.968600
H       7.602100     6.264700     7.663800
H       9.253700     4.922900     6.184400
H       9.988200     2.845500     5.469300
H       9.095500     0.911200     6.372700
