75
Refcode: QOHGEZ_comp_0 | Dataset: tmCAT;tmPHOTO | Charge: 0 | Potential Spins: [1, 3, 5]
Ni     -2.111100     6.405000     5.980600
N      -3.102900     4.932600     5.322800
N      -2.603400     5.932600     7.750000
N      -1.020100     7.797700     6.645700
N      -1.500100     6.770100     4.227000
C      -3.510200     4.736300     4.065600
C      -3.852000     3.371200     3.854400
C      -3.643000     2.720900     5.057100
C      -3.191400     3.693300     5.986700
C      -3.012600     3.530700     7.353200
C      -2.768200     4.616700     8.210000
C      -2.764600     4.641200     9.616600
C      -2.626500     5.954100    10.009800
C      -2.534400     6.727100     8.833800
C      -2.399800     8.218000     8.673600
C      -1.167100     8.451100     7.816800
C      -0.056700     9.294700     8.053400
C       0.800500     9.116800     7.007300
C       0.205400     8.196500     6.106800
C       0.619900     7.871300     4.818000
C      -0.214300     7.236300     3.900500
C      -0.039000     7.116700     2.508500
C      -1.200800     6.613600     1.987900
C      -2.089800     6.411200     3.077700
C      -3.506700     5.889700     3.078900
C      -3.099300     2.141100     7.947900
C      -1.735600     1.472400     7.977000
C      -3.646600     8.745600     7.924800
C      -3.644800    10.245600     7.667500
C      -2.217400     8.920400    10.053500
C      -3.446500     8.963400    10.941800
C       1.974700     8.377500     4.343500
C       1.875500     9.794700     3.739100
C      -3.906900     5.423400     1.671100
C      -5.387500     5.043000     1.469700
C      -4.436500     7.021600     3.599500
C      -4.390400     8.285400     2.760900
H      -4.158400     2.981700     3.043700
H      -3.783000     1.797600     5.229400
H      -2.844300     3.889700    10.191800
H      -2.598100     6.279300    10.903000
H       0.070800     9.871400     8.796200
H       1.647100     9.533900     6.899300
H       0.743800     7.343700     2.019400
H      -1.379600     6.432600     1.072800
H      -3.722700     1.589000     7.410200
H      -3.457100     2.196400     8.869000
H      -1.347800     1.475500     7.075300
H      -1.831300     0.546000     8.284000
H      -1.145900     1.960200     8.588600
H      -3.715700     8.276200     7.055900
H      -4.454200     8.518600     8.452700
H      -3.724500    10.721100     8.518300
H      -4.399300    10.478700     7.088600
H      -2.805300    10.497200     7.228200
H      -1.494800     8.454200    10.545000
H      -1.912700     9.846800     9.893300
H      -4.124800     9.537000    10.531600
H      -3.203800     9.322300    11.820500
H      -3.806000     8.058500    11.048600
H       2.337800     7.754800     3.661400
H       2.605200     8.389700     5.106800
H       1.317700     9.767100     2.935700
H       2.773500    10.110600     3.502400
H       1.478800    10.402100     4.395700
H      -3.350800     4.638100     1.434500
H      -3.683800     6.147400     1.031600
H      -5.644300     4.365100     2.128700
H      -5.513300     4.684100     0.565500
H      -5.949000     5.837500     1.585000
H      -5.368100     6.684200     3.616500
H      -4.179700     7.245500     4.529200
H      -3.458900     8.549300     2.621400
H      -4.868600     9.003300     3.227000
H      -4.819000     8.119800     1.894400
