39
Refcode: QOPGUY_comp_0 | Dataset: tmPHOTO | Charge: 0 | Potential Spins: [1, 3, 5]
C      12.186400     5.156400     6.675800
H      12.581400     4.464500     6.195900
C      12.340700     5.192900     8.059500
H      12.859300     4.552200     8.493500
C      11.724500     6.175900     8.770800
H      11.809200     6.203700     9.696200
C      10.966900     7.141400     8.114100
C      10.888500     7.065300     6.714600
C      10.261700     8.182900     8.803800
H      10.306700     8.235600     9.730600
C       9.537800     9.079600     8.122800
H       9.072000     9.732000     8.594100
C       9.456900     9.067900     6.704500
C      10.145600     8.063000     5.983200
C       8.732100     9.995300     5.960200
H       8.262900    10.669700     6.397000
C       8.700400     9.928000     4.612400
H       8.196500    10.540900     4.128200
C       9.439200     8.920200     3.934200
C       9.548300     8.901100     2.472900
C      10.817300     8.832400     1.876600
H      11.567200     8.781200     2.424000
C      10.991100     8.839700     0.523000
H      11.843600     8.785600     0.155200
C       9.890800     8.927500    -0.283100
H      10.001200     8.933300    -1.205600
C       8.617500     9.006500     0.248600
H       7.879700     9.066400    -0.314700
C       8.444600     8.997700     1.622300
C       6.090800     9.297600     1.432600
H       6.270900    10.020200     0.827700
H       5.346100     9.525800     1.993000
H       5.884000     8.504700     0.932500
Cl      9.387800     4.490500     3.219800
Cl     13.230000     6.214100     2.654800
Hg     11.102700     6.059900     3.690400
N      11.493500     6.073500     6.019100
N      10.119100     8.013200     4.632500
O       7.232600     9.063500     2.240100
