93
Refcode: QOPLIS_comp_0 | Dataset: tmPHOTO | Charge: unknown | Potential Spins: [1, 3, 5]
Pt      3.428100     6.120300     7.101300
B       1.979900     2.590300     1.930700
F       2.080100    10.499500     3.578900
F       1.458700    11.768100     5.162700
F       3.480800    11.813500     4.528100
C       9.089600     2.804300    10.650300
H       9.972300     3.039000    10.910900
C       8.028700     3.141800    11.457400
H       8.170700     3.626200    12.261200
C       6.747400     2.767100    11.080100
H       6.008900     2.994200    11.631700
C       6.535900     2.067800     9.910800
C       7.598500     1.756100     9.110400
H       7.460100     1.279300     8.301600
C       8.883400     2.134100     9.482700
H       9.618700     1.925900     8.919200
C       5.150700     1.618400     9.560500
H       5.180500     0.681600     9.244100
H       4.582100     1.648700    10.371100
C       4.132900     2.110200     7.276200
H       4.158500     1.244000     6.887000
C       3.669300     3.260100     6.707600
C       3.115400     3.746000     5.447000
C       2.812500     2.923300     4.362300
H       2.944000     1.985600     4.430000
C       2.314200     3.477100     3.174400
C       2.139800     4.874200     3.145700
H       1.798700     5.273900     2.353800
C       2.446800     5.688900     4.221900
H       2.308600     6.626600     4.154200
C       2.958100     5.147100     5.409700
C       2.519200     1.103100     1.829200
C       3.891200     0.809500     1.810600
C       4.326000    -0.498400     1.578800
H       5.260000    -0.674300     1.565200
C       3.456200    -1.538100     1.372300
C       2.085400    -1.260400     1.443400
H       1.463900    -1.970900     1.341900
C       1.607600     0.032000     1.656600
C       4.960200     1.874300     2.001800
H       5.747800     1.647500     1.463700
H       5.213500     1.918300     2.947700
H       4.609400     2.744300     1.717500
C       0.118900     0.245600     1.746300
H      -0.341000    -0.614800     1.651500
H      -0.168800     0.848800     1.030500
H      -0.103400     0.641600     2.614300
C       3.943000    -2.928400     1.074500
H       4.898300    -2.991900     1.282600
H       3.800900    -3.127600     0.125200
H       3.446400    -3.572800     1.621100
C       1.148500     3.239700     0.744500
C       1.685800     3.328100    -0.553300
C       3.017700     2.709400    -0.937400
H       3.172000     2.837500    -1.896900
H       3.003200     1.751200    -0.732700
H       3.737100     3.140400    -0.429800
C       1.011200     4.058000    -1.541500
H       1.392400     4.108500    -2.411300
C      -0.185400     4.707800    -1.302900
C      -0.872000     5.505200    -2.384200
H      -1.213300     6.342400    -2.006900
H      -1.617600     4.984300    -2.751400
H      -0.232500     5.707000    -3.100000
C      -0.726800     4.568800    -0.047400
H      -1.564000     4.977100     0.133700
C      -0.096300     3.848700     0.979700
C      -0.842800     3.718900     2.287800
H      -0.974500     4.607600     2.678600
H      -0.323800     3.163100     2.907100
H      -1.714600     3.300700     2.127000
C       2.787900     9.914700     5.726200
C       2.467300    10.988600     4.741400
C       3.329900     8.961900     7.470800
C       3.746200     8.524400     8.799100
C       3.976300     9.383900     9.860000
H       3.891700    10.322700     9.743300
C       4.329700     8.863600    11.093600
C       4.603800     9.762900    12.266300
H       4.434900     9.274500    13.098800
H       4.016700    10.546300    12.220600
H       5.539600    10.053900    12.242600
C       4.408200     7.489300    11.212100
H       4.614000     7.098300    12.053000
C       4.188500     6.675500    10.107100
H       4.271100     5.733500    10.203500
N       3.836100     4.241400     7.651800
N       4.368500     3.763100     8.755100
N       4.550300     2.466900     8.514800
N       3.860200     7.182100     8.900600
N       3.096100     8.011700     6.558700
N       2.732800     8.629300     5.387700
N       3.157700    10.197400     6.993600
