56
Refcode: QUBXUI_comp_0 | Dataset: tmPHOTO | Charge: 1 | Potential Spins: [1, 3, 5]
Pt      4.401600     7.522700     6.299300
N       6.460500     6.566300     4.071500
N       4.891500     7.886800     3.499600
N       2.093700     9.092300     6.922000
N       2.597700     8.282200     8.817000
N       5.577300     6.487400     7.652800
C       2.239200     9.303000     5.508100
C       3.358800     8.571000     5.076900
C       5.400600     7.206000     4.566200
C       5.626600     7.656000     2.362500
H       5.468200     8.000100     1.513800
C       7.325500     5.682400     4.859000
H       7.613900     4.944500     4.298400
H       6.811200     5.311300     5.592000
C       6.603400     6.844200     2.725700
H       7.273600     6.516000     2.169600
C       9.437400     5.362500     6.120800
H       8.962100     4.994000     6.881100
H       9.632300     4.633000     5.510300
C      10.738900     5.974500     6.595200
H      10.562200     6.573900     7.325900
H      11.146700     6.458900     5.875700
H      11.331200     5.277700     6.890200
C       8.541200     6.372400     5.417300
H       8.268500     7.058300     6.045900
H       9.034800     6.799700     4.697900
C       1.480700     9.080500     8.989500
H       1.036500     9.231700     9.792900
C       1.158600     9.598500     7.802500
H       0.454600    10.174400     7.609600
C       3.699100     8.636500     3.724200
C       2.938000     9.353400     2.814200
H       3.158800     9.375200     1.910900
C       1.839200    10.032500     3.297600
H       1.314400    10.511000     2.696200
C       3.260100     7.532600     9.883700
H       3.626400     6.714100     9.511500
H       2.602900     7.287400    10.553200
C       4.348500     8.284700    10.537300
H       4.927800     8.655800     9.851900
H       4.878500     7.670200    11.068400
C       3.852400     9.439000    11.451900
H       3.291300    10.032500    10.927600
H       3.304300     9.062900    12.157700
C       6.972200     5.320600     9.495600
H       7.676200     5.908200     9.777000
H       7.351500     4.504600     9.162000
H       6.400700     5.126600    10.242300
C       6.190300     5.968600     8.433500
C       4.979800    10.260800    12.089600
H       5.691600    10.373300    11.456400
H       5.309700     9.801700    12.865800
H       4.642100    11.121300    12.346100
C       1.483300    10.035000     4.636600
H       0.750700    10.522800     4.933900
C       2.974400     8.301500     7.532500
