122
Refcode: RAKNOH_comp_0 | Dataset: tmPHOTO | Charge: unknown | Potential Spins: [1, 3, 5]
Ir     16.326900     3.704100     4.120700
N      14.556300     4.793300     4.223500
N      18.121700     2.754900     3.652800
B      15.902300     2.316500     8.047400
P      15.000800     1.964300     5.156700
P      17.452700     4.181500     6.221400
C      14.099300     5.402900     5.325600
H      14.623200     5.376900     6.092700
C      12.890500     6.067300     5.381100
H      12.601900     6.481000     6.162000
C      12.110500     6.094700     4.207400
H      11.290900     6.534400     4.193500
C      12.568200     5.475500     3.109900
H      12.061900     5.493300     2.328900
C      13.812500     4.794700     3.116800
C      14.370600     4.048100     2.026300
C      13.691800     3.953500     0.737000
H      12.892100     4.400100     0.573000
C      14.286300     3.179500    -0.217200
H      13.906600     3.154900    -1.067400
C      15.415900     2.437100     0.016200
C      16.016900     2.532900     1.243000
H      16.797800     2.050700     1.397800
C      15.502000     3.333000     2.273500
C      15.992300     1.515100    -1.062800
H      15.918900     0.601400    -0.776300
H      16.916900     1.731600    -1.208400
H      15.504100     1.632900    -1.880700
C      18.484700     1.543900     4.047900
H      17.908500     1.083600     4.611700
C      19.648800     0.920600     3.685200
H      19.856200     0.058900     3.969400
C      20.543300     1.685000     2.828000
H      21.358800     1.330200     2.555400
C      20.173300     2.890500     2.446800
H      20.726000     3.368600     1.871500
C      18.980200     3.474100     2.876500
C      18.541100     4.805600     2.532300
C      19.254400     5.728900     1.737500
H      20.061700     5.459100     1.363200
C      18.824500     6.965900     1.497200
H      19.349300     7.549500     0.998100
C      17.589400     7.393400     1.996200
C      16.830800     6.523500     2.788700
H      16.018000     6.816600     3.135300
C      17.278000     5.187800     3.079900
C      17.039500     8.779700     1.728200
H      17.459200     9.409800     2.319700
H      16.091900     8.782400     1.880700
H      17.219400     9.026300     0.817900
C      13.281900     1.909600     4.450000
C      12.227300     2.463100     5.115400
H      12.365300     2.876800     5.937900
C      10.971200     2.412400     4.584000
H      10.272900     2.835700     5.029900
C      10.712400     1.754800     3.412600
H       9.843800     1.686300     3.086800
C      11.729400     1.215100     2.749500
H      11.567900     0.793200     1.936200
C      13.044000     1.267200     3.243900
H      13.742300     0.878100     2.770200
C      15.877800    -0.309600     3.724500
H      16.026900     0.271200     3.015200
C      16.101000    -1.656200     3.585800
H      16.414200    -1.979500     2.770200
C      15.884500    -2.520600     4.586300
H      16.051400    -3.427500     4.468400
C      15.417200    -2.059000     5.764600
H      15.239800    -2.660300     6.453100
C      15.201900    -0.723300     5.970200
H      14.901200    -0.424700     6.799700
C      15.422000     0.171200     4.962900
C      19.265500     4.419300     5.944800
C      20.186500     3.474100     6.321400
H      19.903500     2.711000     6.769700
C      21.558900     3.641200     6.034900
H      22.180700     2.979500     6.233600
C      21.930000     4.823400     5.452700
H      22.836500     4.998800     5.330200
C      21.031200     5.738500     5.050700
H      21.324600     6.485100     4.581700
C      19.690500     5.598800     5.316400
H      19.085500     6.264600     5.085300
C      17.146900     5.741300     7.150900
C      16.795000     6.893300     6.478500
H      16.647100     6.852200     5.561300
C      16.659100     8.092000     7.120900
H      16.434400     8.853700     6.638000
C      16.851200     8.172800     8.474800
H      16.748500     8.986500     8.913800
C      17.193200     7.057700     9.172500
H      17.303000     7.105700    10.094400
C      17.379500     5.833000     8.511800
H      17.658900     5.085100     8.987700
C      14.690100     2.282300     6.910600
H      14.236800     3.139800     6.961400
H      14.051000     1.615100     7.204000
C      17.364200     2.794600     7.402700
H      17.749400     2.020600     6.961400
H      17.947200     3.013800     8.144400
C      15.471200     3.328900     9.278800
C      16.198400     3.241200    10.494100
H      16.865600     2.598700    10.568100
C      15.962100     4.056300    11.545400
H      16.486500     3.983700    12.310200
C      14.930800     5.008400    11.496900
H      14.734300     5.539900    12.233900
C      14.251000     5.127500    10.374000
H      13.583900     5.774100    10.320800
C      14.505700     4.297400     9.234900
H      14.008900     4.416600     8.458600
C      16.042700     0.839700     8.726600
C      17.190200     0.043800     8.733600
H      17.967400     0.357500     8.331500
C      17.185700    -1.208300     9.329700
H      17.962800    -1.717900     9.301900
C      16.089200    -1.720600     9.951200
H      16.110900    -2.560300    10.350900
C      14.969500    -0.964400     9.967300
H      14.199800    -1.293200    10.374000
C      14.948800     0.264400     9.401300
H      14.163600     0.760300     9.461400
