96
Refcode: RAVROY_comp_0 | Dataset: tmPHOTO | Charge: 1 | Potential Spins: [1, 3, 5]
Ir     11.043300    11.115600     5.675200
N      12.795800    11.385000     6.723200
N      10.943100     9.078400     6.361500
C      13.761900    10.910400     4.618000
N       9.524100    11.022700     4.300900
C       8.033700    15.186800     6.249500
H       7.594600    15.416500     5.439800
C      10.130700     8.884500     7.458700
C       8.077700    17.636300     6.933700
N       9.049300    12.125000     8.014700
C      14.003500    12.043300     8.667800
H      14.014400    12.252500     9.593600
C       9.768400    11.237000     7.284600
N       9.524100    10.032700     7.908100
C      14.840600    10.634900     3.754300
H      15.732600    10.731800     4.068700
C      12.447200    10.721600     4.205000
C      13.962300    11.313600     5.995800
N       7.471100    20.295000     6.383100
C       9.296300    12.150500     3.500600
C       8.890100    13.502800     7.715100
C      12.787600    11.716700     8.029500
H      11.972400    11.732000     8.515300
C       7.100500    18.013900     5.994500
H       6.606500    17.340300     5.542400
C      15.194700    12.058600     7.928300
H      16.023600    12.308700     8.319700
C       8.407000    16.222800     7.198200
C       6.850800    19.315200     5.721900
C      11.530500     7.976100     5.901400
H      12.104100     8.078200     5.149700
C       8.327400    13.834500     6.534300
H       8.127100    13.160900     5.896000
C      12.219400    10.318500     2.893300
H      11.332900    10.216400     2.573500
C      13.289800    10.073500     2.060700
H      13.122400     9.792800     1.168700
C       8.717200    18.682400     7.578800
H       9.375900    18.488500     8.234600
C      11.398700     6.731000     6.396600
H      11.837900     5.991000     5.987700
C       8.409800    11.533000     9.136100
H       7.896500    11.971900     9.808200
C      10.147200    13.263000     4.001300
C       8.854400     9.905100     4.028300
H       9.019100     9.139700     4.566700
C      14.623800    10.231700     2.484400
H      15.348400    10.058200     1.896000
C       9.933100     7.603600     8.010600
H       9.334700     7.476000     8.738000
C       5.846200    19.682700     4.669300
N      10.078500    20.861500     8.731300
C       8.448200    12.038200     2.483100
H       8.332900    12.783300     1.904100
C       8.689700    10.206200     9.041700
H       8.382300     9.517300     9.621900
C      15.098600    11.686100     6.613900
H      15.897300    11.696300     6.097000
C       9.027300    21.157500     7.997100
C      10.602800     6.572800     7.489700
H      10.523200     5.715500     7.894600
N       5.343900    18.708000     3.994500
C       8.423500    19.988800     7.298100
C       9.192000    14.457100     8.653000
H       9.573500    14.196800     9.482900
C       8.947700    15.778800     8.403300
H       9.156300    16.421800     9.075400
C      10.328300    23.208900     9.163100
H      10.778400    23.913100     9.619200
C       7.778500    10.966600     2.226700
H       7.171900    10.961500     1.492500
C       8.593700    22.407700     7.746100
H       7.836100    22.555700     7.200900
C      10.753700    21.861700     9.379000
H      11.489300    21.667800     9.940400
C       4.449200    19.044800     3.036400
H       4.166500    18.366100     2.427800
C       5.374100    20.978800     4.534300
H       5.676000    21.657600     5.122700
C       4.462900    21.279900     3.535700
H       4.224100    22.178100     3.326500
C       7.926700     9.803100     2.995900
H       7.429900     9.007000     2.829900
C       3.944100    20.269500     2.887900
H       3.203100    20.407300     2.310300
C       9.282600    23.510000     8.326400
H       9.035600    24.403000     8.140200
C      11.670500    15.385800     4.952700
H      12.194700    16.105400     5.296800
C      11.066600    13.043500     5.035000
C      11.783000    14.059000     5.441200
H      12.433500    13.895700     6.114600
C       9.979700    14.492800     3.400700
H       9.392400    14.600000     2.657200
C      10.693400    15.559400     3.900100
H      10.539600    16.426900     3.551900
