73
Refcode: RAYQOA_comp_0 | Dataset: tmPHOTO | Charge: unknown | Potential Spins: [1, 3, 5]
Ir      4.067700     8.107600    16.859600
P       2.246400     9.462700    16.562600
Cl      5.479200     9.987300    17.017400
N       3.082400     6.283400    16.591000
O       5.792100     6.935500    17.075500
O       4.031400     8.303200    18.994000
C       4.403200     7.831900    14.908800
C       5.126000     8.662200    14.048200
H       5.414600     9.515100    14.354200
C       5.430700     8.261300    12.754900
H       5.922600     8.842400    12.186100
C       5.021000     7.018100    12.284300
H       5.226300     6.755300    11.394700
C       4.316200     6.166700    13.114000
H       4.037100     5.313800    12.800600
C       4.015300     6.570600    14.426000
C       3.283900     5.744800    15.369800
C       2.756000     4.476000    15.026600
H       2.903600     4.121600    14.157800
C       2.038900     3.756800    15.935500
H       1.686000     2.906900    15.699800
C       1.821300     4.280800    17.226200
C       1.104100     3.566100    18.212100
H       0.744600     2.713200    17.998200
C       0.916800     4.073600    19.462400
H       0.441800     3.578100    20.117700
C       1.439000     5.351400    19.767300
H       1.311300     5.714700    20.634900
C       2.127800     6.070600    18.828500
H       2.461800     6.931000    19.054100
C       2.348200     5.561600    17.541000
C       6.484600     6.836400    18.136300
C       7.784600     6.064600    17.974900
H       7.610500     5.105100    18.077900
H       8.425100     6.355900    18.657400
H       8.156400     6.234300    17.084300
C       6.161100     7.312400    19.402100
H       6.811000     7.187700    20.084600
C       4.980300     7.953500    19.773700
C       4.716400     8.238800    21.224700
H       4.456200     9.177200    21.331100
H       5.528100     8.064600    21.745200
H       3.991600     7.660700    21.544900
C       2.535600    10.750800    15.233300
H       3.513900    10.953500    15.262300
C       2.257400    10.264300    13.809000
H       1.290500    10.234300    13.658100
H       2.635900     9.367900    13.691200
H       2.669900    10.879900    13.168100
C       1.824100    12.103700    15.415900
H       2.112700    12.722300    14.712000
H       2.052100    12.477500    16.290900
H       0.854300    11.973000    15.357600
C       0.668900     8.560100    16.216100
H       0.581900     7.893400    16.956000
C       0.632900     7.732800    14.922400
H       0.016100     6.979000    15.034800
H       1.530800     7.391900    14.727600
H       0.329200     8.297300    14.181200
C      -0.611200     9.401000    16.281200
H      -0.568600    10.114200    15.612300
H      -0.696300     9.797400    17.173700
H      -1.386100     8.828900    16.102300
C       1.755000    10.459500    18.059300
H       1.026500    11.076600    17.762900
C       2.879000    11.348400    18.616000
H       2.506200    11.974500    19.271800
H       3.291500    11.851400    17.883500
H       3.555500    10.786800    19.048200
C       1.173200     9.617200    19.201400
H       1.873300     9.036100    19.567400
H       0.438000     9.066100    18.859600
H       0.838300    10.208800    19.905700
