60
Refcode: RAYQEQ_comp_0 | Dataset: tmPHOTO | Charge: 0 | Potential Spins: [1, 3, 5]
Ir     12.584000    -1.287000     2.053900
Cl     10.896100    -2.897500     1.561200
Cl     14.105800    -3.070700     2.173500
P      14.205600     0.192900     2.731600
N      11.026300     0.029700     2.016400
C      12.703100    -0.656700     0.182600
C      13.615900    -1.128300    -0.770300
H      14.258600    -1.786000    -0.531400
C      13.573200    -0.628900    -2.063800
H      14.205400    -0.933700    -2.705000
C      12.625600     0.306800    -2.434500
H      12.609300     0.641300    -3.322900
C      11.703100     0.754500    -1.511800
H      11.047500     1.391000    -1.769900
C      11.728500     0.276100    -0.197700
C      10.763700     0.609700     0.841700
C       9.624600     1.418800     0.670100
H       9.463900     1.843500    -0.163400
C       8.756900     1.589400     1.699900
H       7.993800     2.142600     1.587300
C       8.984000     0.945200     2.943900
C       8.088300     1.030500     4.038300
H       7.297700     1.549200     3.965500
C       8.365100     0.367200     5.195800
H       7.757200     0.427600     5.924900
C       9.524400    -0.401700     5.330300
H       9.707000    -0.848400     6.148700
C      10.401900    -0.511900     4.282700
H      11.183200    -1.044000     4.374700
C      10.151800     0.156300     3.073000
C      13.746400     1.918300     3.219900
H      14.608900     2.388000     3.405300
C      13.079300     2.702400     2.080200
H      12.132000     2.453200     2.022600
H      13.524800     2.491500     1.234400
H      13.152300     3.664000     2.258700
C      12.926100     2.037100     4.501000
H      12.748700     2.982400     4.689100
H      13.425500     1.644100     5.246600
H      12.075900     1.561600     4.391100
C      15.524800     0.487000     1.437600
H      15.041600     0.551200     0.564300
C      16.351100     1.778300     1.554300
H      16.877200     1.755300     2.380900
H      15.747500     2.551000     1.573600
H      16.952600     1.852100     0.785400
C      16.479600    -0.698900     1.297600
H      17.000600    -0.603000     0.473700
H      15.964500    -1.531000     1.263200
H      17.086100    -0.721900     2.067900
C      15.085100    -0.529200     4.193400
H      15.637100    -1.280800     3.830900
C      16.070500     0.405500     4.893700
H      15.586300     1.173400     5.263100
H      16.737000     0.720900     4.247000
H      16.521400    -0.076700     5.617300
C      14.109700    -1.174300     5.191700
H      14.617500    -1.593300     5.918000
H      13.574800    -1.854000     4.731700
H      13.519200    -0.486000     5.561000
