82
Refcode: RAZHUY_comp_0 | Dataset: tmPHOTO | Charge: 1 | Potential Spins: [1, 3, 5]
C       7.722600    30.529600     8.158200
H       7.193200    31.292400     8.109900
C       4.433700    26.835600    11.177700
H       4.866300    26.477800    11.919800
C       3.007300    22.129700     6.901300
H       2.294200    21.708900     7.325900
C       4.827900    27.983400    10.459100
H       5.563800    28.515800    10.651100
C       9.884200    29.506200     8.176500
H      10.810400    29.577800     8.133400
C       6.749700    21.085200     8.723900
C       7.888300    21.345100     7.975300
H       8.079500    22.221300     7.724400
C       6.446600    19.773900     9.109400
H       5.685000    19.593500     9.612400
C       8.750800    20.323500     7.589800
H       9.514300    20.489500     7.084200
C       9.101000    30.630900     8.121600
H       9.500700    31.467000     8.058900
C       3.437300    28.233300     5.968400
H       4.227900    28.627500     6.261100
C       2.418200    29.028200     5.469300
H       2.529300    29.949900     5.415700
C       3.868100    21.394000     6.112100
H       3.742600    20.478000     6.019400
C       1.229700    28.444300     5.051200
H       0.532600    28.979500     4.745400
C       4.912800    22.012300     5.460100
H       5.482700    21.514200     4.920500
C       1.080700    27.073100     5.086500
H       0.291600    26.681000     4.786000
C       8.398200    19.023900     8.013200
N       4.869800    22.226400     9.923400
O      10.263800    18.213800     6.877800
C       7.298700    18.752000     8.731800
H       7.108600    17.873200     8.976100
N       9.313300    17.939000     7.583300
O       9.069800    16.837600     8.000100
H       4.427900    21.697400    10.308800
Ru      4.926100    26.255300     9.083400
P       7.128700    26.459100     8.448900
P       4.613100    25.880900     6.838800
N       6.171300    23.477300     8.761800
C       7.902100    28.126500     8.343700
N       5.217100    24.213300     9.356300
N       4.399600    23.479900    10.061900
C       3.252800    26.320300    10.562300
H       2.778800    25.564600    10.826200
C      10.231300    23.993100     9.639800
H      10.921100    23.509400     9.245300
C       8.337700    25.488800     9.432100
C       9.398400    24.798600     8.842800
H       9.553300    24.871900     7.929500
C       3.286300    26.839300     6.035000
C       5.117400    23.383400     5.610400
H       5.821300    23.798500     5.164900
C       5.938200    22.223300     9.123800
C       6.142500    26.320000     5.901800
H       6.141400    25.882400     5.036800
H       6.183400    27.279200     5.759300
C       2.105800    26.277400     5.569900
H       2.002900    25.352800     5.581700
C       2.937700    27.159000     9.488300
H       2.204600    27.058800     8.925200
C       3.204400    23.503700     7.065900
H       2.627800    23.998900     7.601600
C       7.343400    25.860600     6.721000
H       8.160700    26.220100     6.343400
H       7.401200    24.892000     6.710500
C      10.033300    23.915900    10.994800
H      10.597200    23.394900    11.518700
C       7.130500    29.264600     8.268000
H       6.204000    29.191400     8.290200
C       4.278000    24.130500     6.416500
C       8.978800    24.620000    11.586600
H       8.842000    24.571400    12.505100
C       3.911500    28.186600     9.391600
H       3.943900    28.865000     8.754000
C       8.141700    25.395700    10.802700
H       7.438600    25.859500    11.198600
C       9.283000    28.255100     8.299300
H       9.816500    27.493900     8.350300
