43
Refcode: REXPAO_comp_0 | Dataset: tmPHOTO | Charge: 0 | Potential Spins: [1, 3, 5]
Zn      5.019000     6.981800     2.356500
Cl      6.862100     8.224700     2.025200
Cl      4.324000     6.802800     4.525400
O      -2.046600     4.336500    -3.099000
H      -2.515800     3.854500    -3.567500
N       5.856500     4.967200     2.252200
N       3.924400     6.016900     0.853600
N       3.525800     8.456700     1.679800
C       6.881700     4.510000     2.992800
H       7.289500     5.089000     3.595400
C       7.352400     3.217200     2.895700
H       8.074700     2.935300     3.409600
C       6.733600     2.351500     2.023400
H       7.023900     1.471500     1.947400
C       5.668400     2.811100     1.255400
H       5.237700     2.241600     0.659500
C       5.258200     4.119800     1.389800
C       4.136900     4.725200     0.606600
C       3.326900     4.011200    -0.275800
H       3.492000     3.110200    -0.434200
C       2.265200     4.653300    -0.923200
C       2.086500     6.011100    -0.668300
H       1.407800     6.480200    -1.097000
C       2.922600     6.663700     0.226600
C       2.769500     8.084800     0.624000
C       1.905300     8.972100    -0.000300
H       1.422500     8.713200    -0.751600
C       1.776000    10.249600     0.515100
H       1.192500    10.857300     0.121700
C       2.520100    10.610800     1.616800
H       2.429800    11.457400     1.991800
C       3.400400     9.699300     2.152300
H       3.928700     9.958200     2.871700
C       1.326600     3.901300    -1.810500
C       0.054400     4.411500    -2.065600
H      -0.190400     5.232300    -1.704000
C      -0.852200     3.712100    -2.853100
C      -0.531200     2.468100    -3.343900
H      -1.156100     1.974100    -3.824000
C       0.737800     1.962600    -3.111900
H       0.968900     1.131300    -3.460500
C       1.676400     2.675400    -2.366800
H       2.532100     2.333300    -2.241800
