165
Refcode: RIDKEV_comp_0 | Dataset: tmPHOTO | Charge: 0 | Potential Spins: [1, 3, 5]
C      -5.291900    10.289100    13.746500
C      -5.526800    10.400000    15.139300
H      -6.322200    10.674800    15.536200
C      -4.407300    10.042800    15.788100
H      -4.282100    10.040900    16.708500
C      -3.437300     9.663800    14.795200
C      -2.156300     9.190000    15.063100
C      -1.697500     9.141700    16.497600
C      -2.272000     8.307900    17.445300
H      -3.002300     7.782900    17.212200
C      -1.769600     8.246300    18.734300
H      -2.181000     7.696700    19.361400
C      -0.660900     8.994800    19.099900
C      -0.122900     9.872200    18.184400
H       0.589300    10.419900    18.426900
C      -0.641400     9.937600    16.903900
H      -0.268400    10.535500    16.296500
C      -0.876300     8.497400    21.503300
C      -2.070200     9.159700    21.764800
H      -2.374300     9.814400    21.178700
C      -2.794100     8.851700    22.875900
H      -3.597900     9.290400    23.033600
C      -2.354500     7.899500    23.768000
H      -2.843000     7.708100    24.535400
C      -1.176800     7.237200    23.502000
H      -0.877000     6.589100    24.097600
C      -0.428200     7.510000    22.369800
H       0.355500     7.043900    22.195600
C       1.258800     9.250600    20.649000
C       1.526300    10.150800    21.651800
H       0.830300    10.526000    22.141400
C       2.845300    10.501400    21.934300
H       3.027300    11.103000    22.619300
C       3.863200     9.967900    21.209300
H       4.738500    10.247400    21.362300
C       3.603300     9.006200    20.244100
H       4.306800     8.600600    19.792200
C       2.289200     8.646100    19.949900
H       2.109500     8.010300    19.295500
C      -1.252000     8.801500    14.094600
C       0.037600     8.227300    14.349800
H       0.393200     8.043500    15.190200
C       0.630700     8.001800    13.192400
H       1.485100     7.651200    13.074000
C      -0.272400     8.392200    12.146500
C      -6.202100    10.624500    12.740600
C      -7.561600    11.088800    13.186700
C      -7.740000    12.322500    13.763700
H      -7.010200    12.891000    13.860200
C      -8.996200    12.737500    14.208600
H      -9.094200    13.572300    14.606400
C     -10.087900    11.914100    14.062600
C      -9.917000    10.689000    13.474100
H     -10.647100    10.124300    13.365800
C      -8.664800    10.280600    13.031600
H      -8.572000     9.448700    12.626700
C     -11.804200    13.674600    14.446300
C     -11.427400    14.505600    13.408200
H     -10.841000    14.179600    12.765600
C     -11.886400    15.796100    13.290500
H     -11.622200    16.333300    12.579600
C     -12.754500    16.275600    14.260400
H     -13.087000    17.141600    14.192100
C     -13.125700    15.483400    15.317300
H     -13.680400    15.823600    15.978700
C     -12.677100    14.194800    15.395000
H     -12.961500    13.654700    16.096400
C     -12.267700    11.348400    15.046600
C     -13.499500    11.148500    14.453400
H     -13.717400    11.628900    13.686000
C     -14.396300    10.273000    14.957100
H     -15.209400    10.131800    14.528700
C     -14.109800     9.639100    16.032900
H     -14.767900     9.101900    16.411900
C     -12.925900     9.704500    16.642600
H     -12.737700     9.167300    17.377000
C     -11.954100    10.617900    16.138800
H     -11.124500    10.708900    16.550800
N      -3.995800     9.830500    13.533900
N      -1.443000     8.863100    12.723900
N      -0.084600     8.857400    20.393100
N     -11.378500    12.316800    14.512200
Pt     -3.104900     9.475200    11.769900
C      -0.917800     8.661300     9.793200
C      -0.683000     8.550400     8.400400
H       0.112400     8.275600     8.003500
C      -1.802500     8.907600     7.751600
H      -1.927700     8.909500     6.831200
C      -2.772500     9.286600     8.744500
C      -4.053500     9.760400     8.476600
C      -4.512200     9.808700     7.042100
C      -3.937800    10.642500     6.094400
H      -3.207500    11.167500     6.327500
C      -4.440200    10.704100     4.805400
H      -4.028800    11.253700     4.178300
C      -5.548900     9.955600     4.439800
C      -6.086900     9.078200     5.355300
H      -6.799100     8.530500     5.112800
C      -5.568400     9.012800     6.635800
H      -5.941400     8.414900     7.243200
C      -5.333500    10.453000     2.036400
C      -4.139500     9.790700     1.774900
H      -3.835500     9.136000     2.361000
C      -3.415700    10.098700     0.663800
H      -2.611900     9.660000     0.506100
C      -3.855300    11.050900    -0.228300
H      -3.366800    11.242300    -0.995700
C      -5.032900    11.713200     0.037700
H      -5.332800    12.361300    -0.557900
C      -5.781600    11.440400     1.169900
H      -6.565300    11.906500     1.344100
C      -7.468600     9.699800     2.890700
C      -7.736000     8.799600     1.887900
H      -7.040000     8.424400     1.398300
C      -9.055100     8.449000     1.605400
H      -9.237100     7.847400     0.920400
C     -10.073000     8.982500     2.330400
H     -10.948300     8.703000     2.177400
C      -9.813100     9.944200     3.295600
H     -10.516600    10.349800     3.747500
C      -8.498900    10.304300     3.589800
H      -8.319300    10.940100     4.244200
C      -4.957800    10.148900     9.445100
C      -6.247400    10.723100     9.189900
H      -6.603000    10.906900     8.349500
C      -6.840500    10.948600    10.347300
H      -7.694900    11.299200    10.465800
C      -5.937400    10.558200    11.393200
C      -0.007700     8.325900    10.799100
C       1.351800     7.861600    10.353000
C       1.530200     6.627900     9.776000
H       0.800400     6.059400     9.679500
C       2.786400     6.212900     9.331100
H       2.884400     5.378100     8.933300
C       3.878100     7.036300     9.477100
C       3.707200     8.261400    10.065600
H       4.437300     8.826100    10.173900
C       2.455000     8.669800    10.508100
H       2.362200     9.501700    10.913000
C       5.594400     5.275800     9.093400
C       5.217600     4.444800    10.131500
H       4.631200     4.770800    10.774100
C       5.676700     3.154300    10.249200
H       5.412400     2.617100    10.960100
C       6.544700     2.674800     9.279400
H       6.877200     1.808800     9.347600
C       6.915900     3.467000     8.222400
H       7.470600     3.126800     7.561000
C       6.467300     4.755600     8.144700
H       6.751700     5.295700     7.443300
C       6.057900     7.602000     8.493100
C       7.289800     7.801900     9.086300
H       7.507600     7.321500     9.853700
C       8.186600     8.677400     8.582600
H       8.999700     8.818600     9.011000
C       7.900000     9.311300     7.506800
H       8.558100     9.848500     7.127800
C       6.716200     9.245900     6.897100
H       6.527900     9.783100     6.162700
C       5.744400     8.332500     7.400900
H       4.914700     8.241500     6.988900
N      -2.214000     9.119900    10.005800
N      -4.766800    10.087300    10.815800
N      -6.125200    10.093000     3.146600
N       5.168800     6.633600     9.027500
