71
Refcode: RIPDEA_comp_0 | Dataset: tmPHOTO | Charge: -2 | Potential Spins: [1, 3, 5]
C       8.334800     4.367000     5.720800
C       7.522900     4.019400     6.816500
C       6.141100     4.411200     6.946300
H       5.747200     4.951900     6.273100
C       5.385400     4.022500     8.015800
H       4.475600     4.291300     8.064900
C       5.931700     3.228000     9.049000
H       5.404500     2.993800     9.804400
C       7.219000     2.801500     8.953600
H       7.575300     2.249700     9.640600
C       8.048200     3.158600     7.851300
C       9.339200     2.664400     7.737300
H       9.681100     2.115700     8.435100
C      10.146800     2.938700     6.648200
C      11.438000     2.368800     6.505000
H      11.779900     1.820900     7.200100
C      12.186300     2.580800     5.419400
H      13.047700     2.185100     5.352600
C      11.701700     3.391100     4.370500
H      12.239500     3.535400     3.600100
C      10.477200     3.966600     4.449800
H      10.170300     4.500200     3.727800
C       9.632400     3.792400     5.593000
C       7.811200     5.268800     4.592600
H       8.252400     4.985800     3.754000
H       6.843200     5.087500     4.487800
C       9.391400     7.152000     4.906400
H       9.865400     6.434600     5.398500
H       9.421900     7.969400     5.464000
C      10.115800     7.416800     3.608900
H      11.047900     7.699800     3.786800
H      10.137300     6.597000     3.053000
C      10.185200     8.930300     1.810800
H      10.497900     8.167300     1.264400
H      10.974400     9.434000     2.132500
C       9.288700     9.825000     0.997100
H       8.947600    10.570700     1.552700
H       9.782400    10.202600     0.226000
C       7.194700     9.741400    -0.154600
H       6.668600     9.125000    -0.723900
H       7.623300    10.412300    -0.743600
C       6.278700    10.434300     0.811100
H       6.788900    11.108300     1.326700
H       5.565500    10.904900     0.311200
C       4.952000    10.158400     2.836200
H       4.128400     9.659500     3.066100
H       4.690000    11.064900     2.535400
C       5.825700    10.260100     4.031500
H       6.651800    10.760700     3.813000
H       5.354500    10.729900     4.766200
C       6.913200     8.795500     5.610100
H       6.420400     9.174700     6.381200
H       7.771700     9.279500     5.513100
C       7.156800     7.330100     5.813500
H       7.616400     7.192200     6.679300
H       6.288600     6.855600     5.850500
N       7.985600     6.753100     4.720700
N       5.666500     9.460000     1.743700
H       4.970900     9.120300     1.280800
N       4.268000     6.391300     3.550900
N       7.391200     5.894700     0.390500
O       9.404500     8.456600     2.929200
O       8.205000     9.002000     0.542800
O       6.141400     8.910600     4.419300
O       4.113200     5.599900     4.472400
O       3.504000     7.292300     3.276400
O       5.306900     6.245500     2.856800
O       8.103500     5.924600     1.457700
O       6.478300     6.748400     0.286300
O       7.593800     5.051200    -0.472000
Cd      7.059800     7.750400     2.515600
