45
Refcode: RITKEN_comp_0 | Dataset: tmPHOTO | Charge: 0 | Potential Spins: [1, 3, 5]
Re      7.470300     3.068900    16.575100
Cl      6.501500     4.928900    17.933700
O       5.647500     3.655600    14.174400
O       9.540500     4.929400    15.344100
O       8.731000     0.831500    14.938200
N       8.571600     2.665900    18.388600
N       6.125400     1.860500    17.826600
N       3.387800     1.565400    15.639100
N       9.703100     2.447800    20.916300
N       5.146900     0.145800    13.977700
C       6.305700     3.440300    15.076300
C       8.748900     4.232000    15.796100
C       8.263800     1.666500    15.591000
C       9.871700     2.905200    18.602100
H      10.410900     3.164500    17.890600
C      10.421600     2.775200    19.849200
H      11.334300     2.921000    19.951700
C       8.413800     2.187200    20.698700
H       7.883000     1.940300    21.422700
C       7.826500     2.266300    19.445300
C       6.432100     1.884500    19.160800
C       5.528600     1.561300    20.131700
H       5.791600     1.579900    21.023100
C       4.215600     1.202900    19.811500
C       3.952200     1.069500    18.451400
H       3.115200     0.768900    18.181500
C       4.895500     1.370100    17.499300
C       4.572200     1.115600    16.070200
C       5.407500     0.370700    15.268800
H       6.181300     0.011000    15.637000
C       3.998100     0.644500    13.525700
H       3.782000     0.540600    12.628100
C       3.127300     1.307500    14.348100
H       2.315200     1.592900    13.994500
C       3.184200     0.954700    20.845200
C       3.519600     0.749700    22.176000
H       4.413000     0.776500    22.431300
C       2.554200     0.508300    23.119700
H       2.798000     0.364500    24.004800
C       1.239900     0.478700    22.764000
H       0.588400     0.293700    23.402200
C       0.876000     0.721500    21.462500
H      -0.024400     0.739400    21.228100
C       1.845100     0.938800    20.504100
H       1.593800     1.076400    19.619000
