31
Refcode: RIVFIL_comp_0 | Dataset: tmCAT;tmPHOTO | Charge: unknown | Potential Spins: [1, 3, 5]
Ru     15.719700     3.279000     4.596100
Cl     16.141800     1.104300     5.457900
Cl     15.417300     5.363300     3.489400
C      16.861900     4.067100     5.860300
O      17.527600     4.544100     6.622000
C      14.355900     3.625200     5.858700
O      13.593300     3.829100     6.655700
N      14.560700     2.402000     3.062600
N      17.156200     2.820700     3.126800
C      13.217100     2.240500     3.111200
H      12.759500     2.437100     3.919900
C      12.497500     1.804900     2.030500
H      11.552400     1.722600     2.069700
C      13.184400     1.491600     0.898100
N      12.434200     1.084200    -0.313500
O      11.243000     1.370700    -0.329900
O      13.036600     0.553500    -1.210000
C      14.559200     1.578900     0.820500
H      15.028400     1.313200     0.038400
C      15.227100     2.070600     1.929400
C      16.692800     2.276900     1.977200
C      17.549900     1.916500     0.945100
H      17.223600     1.537200     0.137900
C      18.895900     2.136300     1.147300
N      19.853500     1.738400     0.078400
O      21.020200     2.014600     0.285300
O      19.422400     1.192700    -0.890200
C      19.374500     2.689400     2.300900
H      20.305100     2.835000     2.423100
C      18.473700     3.030400     3.276500
H      18.790300     3.425900     4.079800
