67
Refcode: RIYWOL_comp_0 | Dataset: tmPHOTO | Charge: 0 | Potential Spins: [1, 3, 5]
Os     -1.118200     4.426400     2.087100
S       0.082500     4.545600     0.136100
O      -0.459500     3.912700    -1.071900
N      -2.207700     2.768400     1.364100
N       0.915300     6.509900     3.264200
C       0.135800     5.779500     2.846800
C       0.444900     6.233300    -0.250500
C       1.734600     3.942600     0.342300
C      -3.305800     2.790300     0.567700
C      -3.947800     1.626000     0.133600
C      -3.470800     0.402000     0.492600
C      -4.127500    -0.823900     0.025000
C      -4.590100    -1.781200     0.910000
C      -5.170100    -2.947500     0.442500
C      -5.255600    -3.178300    -0.926700
C      -4.801300    -2.217100    -1.803300
C      -4.263500    -1.040900    -1.335700
C      -1.693000    -0.871700     1.728100
C      -2.301200     0.354300     1.327400
C      -1.706500     1.564300     1.703100
H       0.793100     6.665200     0.520900
H       1.085900     6.267100    -0.949200
H      -0.350300     6.671200    -0.527600
H       1.712500     2.999200     0.440800
H       2.246000     4.171500    -0.422400
H       2.116900     4.336600     1.114500
H      -3.650800     3.630100     0.288000
H      -4.719600     1.687700    -0.419900
H      -4.504700    -1.637900     1.842500
H      -5.511000    -3.590300     1.053600
H      -5.619400    -3.990400    -1.257300
H      -4.860600    -2.366300    -2.741600
H      -3.983600    -0.370200    -1.947700
H      -2.096100    -1.707600     1.521100
S      -2.318800     4.545600     4.038100
O      -1.776800     3.912700     5.246100
C      -2.681200     6.233300     4.424600
H      -3.029400     6.665200     3.653300
H      -3.322200     6.267100     5.123400
H      -1.886000     6.671200     4.701800
C      -3.970900     3.942600     3.831900
H      -3.948800     2.999200     3.733400
H      -4.482300     4.171500     4.596600
H      -4.353200     4.336600     3.059700
C      -0.543300    -0.871700     2.446100
C       0.064900     0.354300     2.846800
C       1.234500     0.402000     3.681600
C       1.711500     1.626000     4.040600
C       1.069500     2.790300     3.606500
N      -0.028600     2.768400     2.810100
C      -2.372100     5.779500     1.327400
N      -3.151600     6.509900     0.910000
C      -0.529800     1.564300     2.471100
H       1.414500     3.630100     3.886200
H       2.483300     1.687700     4.594100
C       1.891200    -0.823900     4.149100
C       2.353800    -1.781200     3.264200
C       2.933800    -2.947500     3.731700
C       3.019300    -3.178300     5.100900
C       2.565000    -2.217100     5.977400
C       2.027200    -1.040900     5.509900
H       1.747300    -0.370200     6.121900
H       2.624300    -2.366300     6.915800
H       3.383100    -3.990400     5.431500
H       3.274700    -3.590300     3.120600
H       2.268400    -1.637900     2.331700
H      -0.140200    -1.707600     2.653100
