66
Refcode: RIZRIC_comp_0 | Dataset: tmPHOTO | Charge: 1 | Potential Spins: [1, 3, 5]
C       3.848300    21.231600    16.723400
C       2.824400    20.675900    15.962100
C       1.446800    20.931200    16.259200
C       1.125300    21.677800    17.314000
C       2.133400    22.240900    18.134100
C       3.509000    22.018700    17.849500
C       1.848700    23.013600    19.306400
C       2.881000    23.519700    20.067800
C       4.179000    23.266400    19.680000
C       5.343400    23.895300    20.480500
C       7.773500    24.067200    20.226100
C       7.688200    24.841800    18.964900
C       8.075400    26.170200    18.849200
C       7.970200    26.830000    17.701800
C       7.475500    26.166100    16.582900
C       7.078300    24.849700    16.680800
C       6.735900    22.059100    21.302300
C       7.222000    20.781200    20.711700
C       7.663700    19.766100    21.531800
C       7.977300    18.538900    21.049700
C       7.885400    18.357100    19.646200
C       7.443900    19.393800    18.888400
C       5.619500    20.251100    15.357300
C       5.658300    21.082400    14.104900
C       4.886100    20.716300    12.989500
C       4.953300    21.427000    11.792300
C       5.799500    22.505400    11.706900
C       6.564400    22.921000    12.740500
C       6.507600    22.193400    13.939500
Cl      9.311900    21.921100    16.642900
N       4.538600    22.557000    18.607300
N       7.125400    20.599400    19.404300
N       7.177500    24.175800    17.861900
N       6.599300    23.156900    20.329300
O       5.183100    21.040300    16.540200
O       7.898000    21.576200    16.735900
O      10.010000    20.776700    16.131100
O       9.455300    23.031700    15.736200
O       9.772100    22.246700    17.956200
Zn      6.534100    22.234800    18.309500
H       3.044200    20.113100    15.229200
H       0.764400    20.571700    15.705900
H       0.210500    21.831900    17.520400
H       0.947600    23.178800    19.559000
H       2.700700    24.034100    20.845200
H       5.478500    24.827400    20.174500
H       5.097500    23.922500    21.439300
H       7.787700    24.682800    20.999900
H       8.609000    23.534200    20.236800
H       8.424600    26.616400    19.610600
H       8.229200    27.740200    17.646700
H       7.410900    26.624700    15.750400
H       6.730000    24.406000    15.915800
H       5.856700    21.902100    21.727500
H       7.366100    22.344200    22.012100
H       7.751500    19.931300    22.464000
H       8.247900    17.832400    21.624300
H       8.125700    17.526700    19.245900
H       7.356200    19.266100    17.950900
H       4.997300    19.493400    15.223800
H       6.521000    19.877600    15.528000
H       4.303700    19.968500    13.053600
H       4.424500    21.166700    11.047000
H       5.849000    22.980500    10.885100
H       7.123500    23.682900    12.658700
H       7.062200    22.459900    14.663500
