80
Refcode: ROBFIZ_comp_0 | Dataset: tmPHOTO | Charge: 0 | Potential Spins: [1, 3, 5]
Pt      5.202100     8.087600     8.572300
Cl      3.480800     8.404000     6.939600
O      13.143900     3.438900     8.847300
O       6.165200    10.039900    17.639200
O       9.639200     7.454900    12.667600
N       6.620600     7.215000     7.397800
N       8.596800     6.211300     7.271700
N       4.314600     8.851300    10.233700
N       4.445400     9.355400    12.391100
C       6.608700     7.844800     9.867100
C       6.442400     8.291500    11.188900
C       7.490800     8.160200    12.102300
H       7.400700     8.477300    12.971700
C       8.669000     7.551100    11.695300
C       8.856400     7.091500    10.398900
H       9.657300     6.692500    10.146500
C       7.810300     7.242500     9.484100
C       7.722800     6.875700     8.067300
C       5.110500     8.841500    11.319400
C       6.784900     6.786000     6.094400
C       8.023400     6.145200     6.002200
C       8.494800     5.591900     4.812300
H       9.320200     5.167000     4.759800
C       7.668500     5.712600     3.720200
H       7.938700     5.350700     2.907500
C       6.445700     6.358200     3.793900
H       5.925700     6.422900     3.025200
C       5.972200     6.910600     4.969700
H       5.150600     7.343400     5.008000
C       9.776600     5.501700     7.694200
C      11.006200     6.123400     7.765200
H      11.090300     7.021000     7.536800
C      12.100300     5.412800     8.173600
H      12.926200     5.835200     8.240300
C      11.989700     4.058200     8.492700
C      10.757500     3.446700     8.421800
H      10.674400     2.545200     8.634600
C       9.644400     4.168700     8.037500
H       8.809700     3.760300     8.007700
C      13.092700     2.036100     9.126700
H      12.761900     1.568600     8.356600
H      12.507500     1.879600     9.871300
H      13.973600     1.719400     9.339500
C       3.087500     9.395400    10.607400
C       3.168900     9.715700    11.969000
C       2.083200    10.249700    12.646900
H       2.129200    10.450100    13.554600
C       0.937300    10.470200    11.925000
H       0.194000    10.832300    12.349100
C       0.868100    10.162000    10.574800
H       0.076400    10.330100    10.116700
C       1.934400     9.613800     9.888300
H       1.875700     9.404600     8.983500
C       4.923700     9.499900    13.753200
C       4.775800     8.470800    14.632500
H       4.392300     7.672800    14.348900
C       5.194800     8.602200    15.951600
H       5.108400     7.890200    16.544400
C       5.734500     9.787400    16.371400
C       5.873400    10.835300    15.476400
H       6.244000    11.640500    15.758700
C       5.464900    10.689400    14.170200
H       5.555800    11.395000    13.573100
C       5.962800     9.019200    18.627900
H       6.435200     8.225100    18.366900
H       5.026100     8.825500    18.700200
H       6.293500     9.325600    19.474600
C      10.896700     6.839500    12.349100
H      11.568600     7.154200    12.973100
H      11.167000     7.118200    11.459800
C      10.852800     5.331500    12.395900
H      10.295900     5.006600    11.671100
H      10.450300     5.050100    13.231300
C      12.239500     4.713600    12.275300
H      12.837600     5.138000    12.910700
H      12.586600     4.871500    11.384600
C      12.194200     3.213900    12.546200
H      11.437900     2.830700    12.096600
H      12.115800     3.061000    13.490800
H      13.000300     2.805700    12.221400
