49
Refcode: ROGYIW_comp_0 | Dataset: tmPHOTO | Charge: 0 | Potential Spins: [1, 3, 5]
Pt      4.211700     0.733900     2.918300
Cl      3.333800     2.880500     3.228000
Cl      2.669000     0.532100     1.184100
N       5.467100     0.678800     4.577700
C       6.038000     1.640300     5.356100
C       6.518000     1.358600     6.681000
H       6.944100     2.045700     7.179200
C       6.366500     0.091100     7.245400
H       6.601500    -0.069100     8.152200
C       5.848700    -0.962600     6.424300
C       5.744100    -2.361000     6.878300
H       5.953400    -2.590400     7.775400
C       5.336500    -3.348700     5.975800
H       5.287600    -4.250600     6.268300
C       4.988200    -3.034500     4.613600
C       4.681700    -4.012800     3.620000
H       4.566000    -4.926200     3.858700
C       4.556500    -3.614800     2.325400
H       4.387000    -4.270500     1.660200
C       4.669500    -2.217500     1.921100
N       4.778400    -1.267400     2.865100
C       5.026700    -1.666500     4.184400
C       5.390700    -0.623200     5.142200
C       6.311300     3.030300     4.762700
H       6.061800     3.726900     5.421000
H       5.757500     3.159100     3.952600
C       7.798500     3.171700     4.401100
H       8.042600     2.445800     3.773100
H       8.337100     3.050200     5.222200
C       8.179300     4.529200     3.756600
H       8.062100     5.248800     4.425900
H       7.563300     4.713600     3.003100
C       9.658800     4.559600     3.228000
H       9.822100     5.405900     2.761500
H       9.798300     3.812800     2.608400
H      10.277100     4.477900     3.982900
C       4.794000    -1.805800     0.440200
H       3.908200    -1.891700     0.005500
H       5.065700    -0.855800     0.389200
C       5.806100    -2.660500    -0.318800
H       5.832700    -2.366200    -1.264200
H       5.519000    -3.603300    -0.298100
C       7.282400    -2.534900     0.321600
H       7.666200    -1.630900     0.183600
H       7.281700    -2.746400     1.287600
C       8.004600    -3.561400    -0.470600
H       8.936200    -3.613700    -0.169800
H       7.979800    -3.323600    -1.420100
H       7.572800    -4.434900    -0.342300
