84
Refcode: RUQKAQ_comp_0 | Dataset: tmPHOTO | Charge: 0 | Potential Spins: [1, 3, 5]
Pt      5.144600     1.713900     1.644000
Br      6.905300     1.289100     3.485600
C       3.680400     1.644500     3.036100
H       2.811000     1.784800     2.603700
H       3.829500     2.346000     3.703700
H       3.689200     0.768000     3.474800
C       5.139600     3.743200     1.945700
H       4.507800     4.164000     1.325600
H       6.038800     4.099000     1.788600
H       4.869700     3.935500     2.867400
N       6.731700     1.627100     0.216200
C       7.418800     2.678600    -0.296300
H       7.159100     3.555100    -0.038000
C       8.449300     2.548500    -1.149500
H       8.884600     3.323700    -1.482700
C       8.879300     1.298800    -1.548100
C       8.189900     0.205400    -1.031400
H       8.447100    -0.674000    -1.281300
C       7.126800     0.387600    -0.155000
C       6.351400    -0.730400     0.405000
C       6.592600    -2.077000     0.094900
H       7.333900    -2.302600    -0.454500
C       5.783700    -3.069200     0.563100
C       4.701800    -2.691700     1.349900
H       4.096800    -3.346900     1.676800
C       4.513400    -1.353800     1.652500
H       3.784300    -1.109400     2.210400
N       5.319900    -0.392000     1.189600
C      10.064800     1.149800    -2.527800
C       9.734200     1.854200    -3.842900
H       8.945300     1.439100    -4.246800
H      10.495300     1.774700    -4.455600
H       9.553900     2.801600    -3.668900
C      10.387900    -0.326900    -2.796700
H      10.595700    -0.775200    -1.949900
H      11.156900    -0.389100    -3.397800
H       9.612200    -0.760800    -3.211200
C      11.296400     1.792000    -1.901400
H      11.504200     1.342200    -1.054600
H      11.120600     2.740800    -1.733700
H      12.057400     1.702400    -2.512000
C       6.049900    -4.551700     0.302700
C       7.143900    -4.764300    -0.741400
H       7.980900    -4.363600    -0.423900
H       6.877100    -4.340500    -1.584000
H       7.276600    -5.724700    -0.885800
C       4.768300    -5.201100    -0.244700
H       4.514000    -4.764300    -1.084100
H       4.045200    -5.096900     0.409200
H       4.927100    -6.154200    -0.407100
C       6.425500    -5.247400     1.595600
H       7.243700    -4.848200     1.956200
H       6.576400    -6.200500     1.422600
H       5.698400    -5.143200     2.245200
C       3.724000     2.111700     0.143400
H       2.992900     2.661300     0.519900
H       4.150800     2.625100    -0.587400
C       3.172200     0.859100    -0.393400
C       3.723100     0.209700    -1.488000
H       4.469600     0.600200    -1.924600
C       3.225000    -0.977700    -1.962600
H       3.627800    -1.385600    -2.720800
C       2.138600    -1.595300    -1.348800
C       1.534000    -0.941600    -0.270000
H       0.773300    -1.323400     0.155000
C       2.044000     0.258900     0.173000
H       1.611400     0.698600     0.895300
C       1.627700    -2.889800    -1.906700
O       1.875000    -3.221000    -3.061400
N       0.909900    -3.666500    -1.055600
H       0.853900    -3.391700    -0.221500
C       0.220500    -4.919000    -1.387800
C       1.241000    -5.985000    -1.760100
H       1.727700    -5.703000    -2.562600
H       0.779300    -6.831100    -1.938300
H       1.871400    -6.105000    -1.019800
C      -0.561700    -5.322600    -0.147600
H       0.060300    -5.486000     0.591600
H      -1.071300    -6.138300    -0.333200
H      -1.179700    -4.602300     0.098100
C      -0.746600    -4.676000    -2.552100
H      -0.239200    -4.415700    -3.349300
H      -1.372700    -3.960100    -2.313700
H      -1.247800    -5.499000    -2.737700
