81
Refcode: SALJUN_comp_0 | Dataset: tmPHOTO | Charge: 1 | Potential Spins: [1, 3, 5]
Cu     -0.304900     3.347100    10.772200
P       1.593200     3.906900    11.875800
P      -0.930600     5.465900    10.635100
F      -3.646000     4.574000    10.076800
F      -1.332700     4.554700     7.747700
F      -5.891000     4.650200    11.577600
F      -5.848800     5.788900    14.042800
F      -1.346400     6.978200    13.457800
F       2.668700     1.527700    10.571400
F      -3.563300     6.987800    14.931200
F      -1.965100     6.038200     5.582500
F       5.467800     5.854900     8.862300
F      -1.600700     8.434300    10.451600
F      -2.300000     9.882200     8.288000
F       3.638600     6.168400    10.776000
F       4.435400     1.264800     8.535800
F       5.848300     3.433400     7.682200
F      -2.470200     8.688900     5.853100
F       3.698700     4.998900    13.889400
F       0.984800     1.204300    13.079000
N      -1.604800     1.996200    11.566600
N      -0.110800     1.939400     9.338200
C      -2.172100    -1.506800    10.475000
H      -2.641600    -2.289500    10.736600
C      -1.433100    -1.528800     9.338200
H      -1.412100    -2.324400     8.819000
C      -4.739200     5.790800    13.297400
C       0.507000     6.421300    11.273500
H       1.121400     6.621200    10.522200
H       0.186200     7.282900    11.639400
C      -2.260000    -0.337300    11.287300
C      -1.523400     5.882400     7.922200
C      -0.687500    -0.395900     8.897700
C      -3.741300    -1.472000    13.035800
H      -3.612800    -2.234500    12.432000
H      -4.697100    -1.272200    13.110500
H      -3.381900    -1.692000    13.920800
C      -2.400500     5.748600    11.712100
C      -0.769600     0.779100     9.670600
F       4.516700     3.910000    16.190500
C      -4.760400     5.206000    12.046500
C      -2.336900     2.038400    12.675900
H      -2.379100     2.854100    13.161700
C      -1.573300     0.817600    10.876300
C       3.803500     4.931000    10.260700
C      -2.431400     6.368200    12.968900
C      -3.050300     0.933000    13.161700
H      -3.558000     1.013700    13.960200
C      -3.018500    -0.271300    12.485100
C       0.129600    -0.381300     7.737300
C       0.250600    -1.604000     6.871900
H      -0.300700    -2.322500     7.241700
H       1.187200    -1.891800     6.842400
H      -0.053300    -1.391300     5.963300
C       3.044800     3.851300    10.728800
C      -3.603600     5.178500    11.287300
C       3.317700     2.637800    10.138700
C       4.957700     3.572700     8.675400
C       2.274300     3.160300    13.419300
C      -2.058900     8.567900     8.168000
C      -3.578000     6.379200    13.749700
F       3.671400     1.418800    16.902500
C      -2.141800     7.966700     6.932900
C       0.657600     1.926600     8.232900
H       1.118700     2.718500     7.985100
C       4.238700     2.480200     9.104200
C       1.277800     5.664300    12.367100
H       0.755400     5.682600    13.208900
H       2.141400     6.118900    12.534200
F       1.907900     0.062300    15.291700
C      -1.871400     6.612000     6.789300
C      -1.699400     7.814500     9.259600
C       0.799500     0.790100     7.442300
H       1.369000     0.821200     6.683100
C      -1.420500     6.448800     9.157300
C       1.856700     1.917400    13.830400
C       4.747700     4.795400     9.253700
C       3.636300     3.235400    15.423400
C       3.191700     3.798200    14.239400
C       3.232700     2.001700    15.767600
C       2.351600     1.330800    14.973000
