97
Refcode: SAQXIU_comp_0 | Dataset: tmPHOTO | Charge: 1 | Potential Spins: [1, 3, 5]
Cu      7.460100     8.224000    18.651800
P       6.390100     8.482700    16.734400
P       6.435800     7.894900    20.654500
Cl     10.153100     9.244900    11.711100
Cl      2.909300     3.531100    14.888500
Cl      2.657300    13.484800    17.566400
Cl      3.289600    12.658000    23.353200
Cl      2.470200     2.960600    20.747900
Cl     11.888400     7.159000    23.740600
N       9.139200     7.001400    18.707500
N       8.898700     9.636900    19.110100
C       5.265600     9.923000    16.820800
C      10.104500     9.084800    19.398000
C      10.236200     7.660600    19.201400
C       7.448300     8.839000    15.287600
C       5.282400     6.463200    20.793100
C       5.542600     9.270100    21.460200
C      13.457400     9.880100    20.624600
H      13.383700    10.797700    20.758000
C       7.837000     7.598800    21.797300
C      13.699600     7.132500    20.275800
H      13.782100     6.212400    20.168100
C      12.449000     9.146600    20.177500
C       5.341600     7.080800    16.172400
C       9.130300     9.135200    13.113000
C       8.760100     8.363900    15.311000
H       9.075100     7.936600    16.074100
C      11.434000     7.001400    19.498700
C       3.857700     4.900400    15.383600
C       5.726500     5.228100    20.397500
H       6.608500     5.113400    20.126000
C      11.183800     9.812100    19.896600
C       4.563200     7.145100    15.027800
H       4.555900     7.924000    14.519800
C       3.652900    12.087000    17.256200
C       7.038500     9.534800    14.150000
H       6.185600     9.906600    14.126600
C       5.398300     5.916200    16.872300
H       5.947100     5.860800    17.621400
C       9.241400     5.698200    18.513200
H       8.503000     5.245700    18.171500
C       9.603600     8.513900    14.224900
H      10.477900     8.196300    14.255300
C       4.987100    12.302600    17.050200
H       5.345700    13.160900    17.054900
C       8.747600    10.937600    19.351200
H       7.925000    11.333300    19.171000
C       3.917200     9.759100    17.057200
H       3.553500     8.903300    17.092400
C       5.230300     9.232300    22.815600
H       5.501100     8.510100    23.332900
C       3.551600     4.328100    20.753300
C       4.654100     4.812100    16.495500
H       4.694400     4.024400    16.987000
C       3.785600     6.053600    14.629900
H       3.238800     6.102800    13.878500
C       5.781200    11.196000    16.834900
H       6.692500    11.315700    16.696800
C      12.576200     7.755100    20.001900
C       7.870500     9.684800    13.059200
H       7.585500    10.146100    12.303100
C      11.002300    11.172000    20.133000
H      11.696900    11.692500    20.467800
C       3.108100    10.854400    17.242200
H       2.191200    10.746000    17.356900
C       4.852200     4.145400    20.406900
H       5.158200     3.298400    20.177500
C       9.782200     8.576900    22.876400
H      10.235400     9.325600    23.190100
C       5.190300    10.360300    20.706500
H       5.397100    10.379200    19.800600
C       4.178400    11.351000    22.614200
C      11.492700     5.628900    19.295000
H      12.271600     5.160000    19.494000
C       4.517400    10.270800    23.391400
H       4.272200    10.236800    24.287900
C       9.773500    11.731600    19.863800
H       9.629400    12.635300    20.023000
C      10.393100     4.962100    18.794100
H      10.420200     4.043300    18.649000
C       3.952300     6.653500    21.074000
H       3.639000     7.504300    21.280000
C       8.412800     6.335900    21.998600
H       7.956900     5.574700    21.720100
C       8.545200     8.705400    22.267800
H       8.174100     9.553700    22.171800
C       3.073000     5.573400    21.055300
H       2.170500     5.698200    21.244900
C      14.675000     7.845900    20.699500
H      15.486000     7.440000    20.903100
C      10.322600     7.327800    23.005200
C       4.522900    11.441700    21.289400
H       4.316800    12.199200    20.790800
C      14.532400     9.248700    20.861000
H      15.269800     9.732700    21.155900
C       9.645300     6.208600    22.602500
H      10.014700     5.366700    22.738300
