31
Refcode: SATGOM_comp_0 | Dataset: tmCAT;tmPHOTO | Charge: -2 | Potential Spins: [1, 3, 5]
Au      2.797300     2.531700     7.452300
Cl      5.024100     2.981900     7.393600
F      -0.490000     1.726400     3.819400
F       0.566700     5.856000    12.572100
F      -1.084200     1.911400    10.668500
N       0.226400     1.369700     6.453500
C       0.887400     5.484900    10.277400
H       1.314700     6.307700    10.196800
C      -0.440400     3.090000    10.548300
C       0.722400     4.665100     9.169700
H       1.060200     4.925800     8.343400
C      -0.274700     3.873000    11.657600
H      -0.608800     3.617400    12.485400
C      -1.141700     1.374800     6.661900
H      -1.779400     0.935300     6.147600
F       3.115800    -0.887200     2.335800
C       1.979100    -0.129800     5.668300
H       2.187200    -0.328100     6.552400
C       0.581300     0.949600     4.088800
C       0.050700     3.453900     9.297500
C       1.296800     0.392500     3.040300
H       1.055800     0.554000     2.156200
C       0.408900     5.059700    11.494800
N      -0.133200     2.588100     8.185100
C       2.728800    -0.696100     4.651800
H       3.450400    -1.255200     4.831300
C       2.347200    -0.385400     3.340100
C       0.937000     0.716500     5.397400
C       0.866600     2.136300     7.392300
C      -1.382400     2.137300     7.754500
H      -2.209500     2.321300     8.139500
