53
Refcode: SAVFIH_comp_0 | Dataset: tmPHOTO | Charge: 0 | Potential Spins: [1, 3, 5]
Pt      1.813900     9.040200     4.991000
Br      0.803900     7.290700     6.310200
As      0.557300     8.430500     3.050800
C      -0.294700     9.886400     2.078200
C      -0.754100     7.033300     3.113400
C       1.481800     7.413000     1.709900
C       0.824800     6.230500     1.453400
C       2.652700     7.720300     1.074100
C      -0.425200     6.004500     2.230000
C      -1.910200     6.995300     3.891000
C       1.348900     5.348200     0.508100
C       2.505900     5.689900    -0.169700
C      -1.293700     4.903400     2.145100
C      -2.765700     5.887000     3.735300
C      -2.423000     4.869100     2.891800
C       3.169200     6.856100     0.118800
H       0.314600    10.625100     2.010500
H      -0.533100     9.586400     1.198100
H      -1.084600    10.164800     2.546800
H       3.102200     8.506800     1.281500
H      -2.109900     7.676900     4.490900
H       0.925200     4.538200     0.335800
H       2.837500     5.123800    -0.828300
H      -1.092000     4.196600     1.575500
H      -3.565400     5.849200     4.207800
H      -2.983100     4.129700     2.828200
H       3.960200     7.066500    -0.323700
Br      2.824000    10.789700     3.671800
As      3.070600     9.649900     6.931200
C       3.922600     8.194000     7.903700
C       4.382000    11.047100     6.868600
C       2.146100    10.667400     8.272100
C       2.803100    11.849900     8.528600
C       0.975200    10.360100     8.907900
C       4.053100    12.075900     7.752000
C       5.538100    11.085100     6.091000
C       2.279000    12.732200     9.473900
C       1.122000    12.390500    10.151700
C       4.921600    13.177000     7.836800
C       6.393600    12.193400     6.246700
C       6.050900    13.211300     7.090200
C       0.458700    11.224300     9.863200
H       3.313300     7.455300     7.971500
H       4.161000     8.494000     8.783800
H       4.712500     7.915600     7.435200
H       0.525700     9.573600     8.700500
H       5.737800    10.403500     5.491100
H       2.702700    13.542200     9.646200
H       0.790400    12.956600    10.810300
H       4.719900    13.883800     8.406500
H       7.193200    12.231200     5.774200
H       6.611000    13.950700     7.153800
H      -0.332400    11.013900    10.305700
