53
Refcode: SAVHEF_comp_0 | Dataset: tmPHOTO | Charge: 0 | Potential Spins: [1, 3, 5]
Pt      3.500900     9.347000    10.021900
I       2.480600    11.304400    11.381800
As      2.257300     9.953400     8.066700
C       1.402900     8.550600     7.056400
C       3.224200    10.980900     6.754700
C       2.565500    12.179100     6.499200
C       1.319700    12.399700     7.267800
C       0.942400    11.360300     8.116700
C      -0.210400    11.416400     8.858300
C      -1.028200    12.541800     8.753100
C      -0.657900    13.586800     7.932300
C       0.513100    13.528800     7.190700
C       3.118700    13.054000     5.569100
C       4.288100    12.715700     4.915700
C       4.943900    11.526700     5.207400
C       4.415400    10.653700     6.140400
H       0.896500     7.991100     7.650200
H       0.815400     8.938300     6.403600
H       2.071000     8.023300     6.612300
H      -0.443200    10.714500     9.422700
H      -1.821600    12.588000     9.236300
H      -1.200500    14.341100     7.875800
H       0.757300    14.241100     6.645100
H       2.701700    13.865700     5.387200
H       4.639600    13.289000     4.273800
H       5.740200    11.316000     4.774700
H       4.853900     9.861100     6.350600
I       4.521100     7.389600     8.661900
As      4.744400     8.740600    11.977000
C       5.598800    10.143400    12.987300
C       3.777500     7.713100    13.289000
C       4.436300     6.514900    13.544500
C       5.682000     6.294300    12.775900
C       6.059400     7.333700    11.927000
C       7.212100     7.277600    11.185400
C       8.029900     6.152200    11.290600
C       7.659600     5.107200    12.111400
C       6.488700     5.165200    12.853000
C       3.883000     5.640000    14.474600
C       2.713600     5.978300    15.128000
C       2.057800     7.167300    14.836400
C       2.586400     8.040300    13.903300
H       6.105300    10.702900    12.393500
H       6.186300     9.755700    13.640100
H       4.930700    10.670700    13.431400
H       7.444900     7.979500    10.621000
H       8.823300     6.106000    10.807400
H       8.202200     4.352900    12.167900
H       6.244400     4.452900    13.398600
H       4.300000     4.828300    14.656500
H       2.362200     5.405000    15.769900
H       1.261500     7.378000    15.269000
H       2.147800     8.832900    13.693100
