112
Refcode: TASVEQ_comp_0 | Dataset: tmPHOTO | Charge: 0 | Potential Spins: [1, 3, 5]
Pt      3.188600     7.917500    13.134300
N       1.729300     6.577000    13.254200
N       5.398900    10.007100    12.928700
C       2.824500     9.378300    15.888000
H       3.575300     9.923000    15.682400
C       2.131200     9.624200    17.103500
C       2.424100    10.726100    17.933100
H       3.133200    11.312800    17.696100
C       1.709100    10.964200    19.070600
H       1.915000    11.717500    19.611500
C       0.669100    10.098900    19.440100
H       0.174400    10.268500    20.232100
C       0.363500     9.017300    18.672600
H      -0.326700     8.425900    18.948700
C       1.065300     8.760500    17.465500
C       0.689800     7.722400    16.590700
H      -0.022500     7.137200    16.822700
C       1.365700     7.552800    15.381400
C       0.975400     6.530300    14.399000
C      -0.006500     5.560700    14.517800
H      -0.537800     5.523300    15.303300
C      -0.224600     4.633100    13.494100
C       0.550100     4.745200    12.325500
H       0.405900     4.146000    11.601700
C       1.525200     5.728800    12.226900
C       2.453700     5.943500    11.108000
C       2.452200     5.157600     9.940000
H       1.794200     4.483700     9.809900
C       3.428300     5.384800     8.986800
C       4.396400     6.363800     9.190700
C       4.392900     7.159000    10.331500
H       5.055500     7.831400    10.439000
C       5.330500     6.354400     8.057700
C       6.474700     7.107700     7.819600
H       6.751000     7.780000     8.431000
C       7.204000     6.854000     6.664200
H       7.995400     7.348900     6.487500
C       6.787700     5.886000     5.768600
H       7.295300     5.730300     4.982200
C       5.639300     5.140500     5.998600
H       5.354500     4.485300     5.372600
C       4.916400     5.369300     7.159900
C      -1.172000     3.509500    13.704400
C      -2.330200     3.704000    14.459300
H      -2.550200     4.570900    14.780900
C      -3.160800     2.625500    14.738200
H      -3.942500     2.756200    15.261200
C      -2.858900     1.360200    14.261400
H      -3.427200     0.625600    14.463600
C      -1.737300     1.171900    13.494600
H      -1.536400     0.309700    13.152000
C      -0.894900     2.242600    13.217400
H      -0.118400     2.104100    12.688600
C       6.445400    10.925300    12.811900
C       7.204300    10.886400    11.623100
C       8.263700    11.787500    11.515500
H       8.806800    11.779700    10.736700
C       8.534900    12.693300    12.528800
H       9.250800    13.309600    12.433000
C       7.765700    12.705700    13.681400
H       7.962200    13.331400    14.368100
C       6.702300    11.806200    13.846300
C       5.885200    11.790600    15.120700
H       4.953900    12.019400    14.915700
H       6.249800    12.447400    15.749800
H       5.921200    10.897300    15.522300
C       6.913400     9.910600    10.541300
H       7.562700    10.024200     9.815600
H       6.008600    10.063100    10.197500
H       6.978000     9.000100    10.896800
C       4.570700     9.196200    13.021100
C       3.674900     4.637800     7.668200
C      -1.318600     9.032800     3.889700
H      -1.860000     9.068600     3.075300
H      -0.658700     9.758100     3.875700
H      -1.899500     9.137100     4.673300
C      -0.603700     7.700600     3.965500
H      -0.067600     7.573000     3.142700
H      -1.275700     6.973800     4.004900
C       0.309600     7.597900     5.176000
H       1.015500     8.288900     5.105800
H      -0.216800     7.789300     5.993200
C       0.963100     6.242400     5.321500
H       1.419700     6.015100     4.473900
H       0.259400     5.563800     5.476500
C       1.978800     6.166100     6.461400
H       2.745800     6.755900     6.251600
H       1.558100     6.500700     7.293600
C       2.489800     4.746700     6.696800
H       2.760900     4.360800     5.824700
H       1.744700     4.197400     7.046400
C       3.987900     3.145300     7.934500
H       3.175700     2.714200     8.301800
H       4.194100     2.706400     7.071700
C       5.149400     2.899400     8.896900
H       5.986000     3.221600     8.475900
H       5.001900     3.431700     9.717300
C       5.328100     1.442700     9.283600
H       4.496700     1.119000     9.711600
H       5.473300     0.907300     8.464700
C       6.633700    -0.217900    10.719900
H       6.661900    -0.820200     9.933500
H       7.496800    -0.308100    11.197300
C       6.490800     1.217000    10.232100
H       6.378400     1.810000    11.017600
H       7.329000     1.481600     9.776200
C       5.523100    -0.664500    11.635400
H       5.719700    -1.564100    11.972500
H       4.677500    -0.680100    11.138300
H       5.449900    -0.042000    12.388100
C       3.423800     6.978500    11.324000
C       2.471900     8.401000    14.993200
