45
Refcode: TETHEG_comp_0 | Dataset: tmCAT;tmPHOTO | Charge: 0 | Potential Spins: [1, 3, 5]
Zn      0.559800     1.185100     4.647300
Cl     -0.456100    -0.281000     5.978300
Cl     -0.586300     2.286100     3.135300
N       2.166000     0.157000     3.638100
N       2.270700     2.011900     5.502500
O      -0.106200     3.048800     6.303600
O       0.949800     4.544000     7.585300
C       1.778000    -2.149500     2.882300
C       1.545200    -3.025300     1.841700
H       1.437400    -3.930900     2.023000
C       1.471900    -2.593100     0.563200
H       1.303400    -3.202800    -0.118100
C       1.642800    -1.269800     0.258900
H       1.585800    -0.995000    -0.627900
C       1.900500    -0.324600     1.252600
C       1.970100    -0.805800     2.563500
C       1.876600    -2.649600     4.288700
H       2.771700    -2.523600     4.610700
H       1.656000    -3.583200     4.311300
H       1.264400    -2.162000     4.843800
C       2.151300     1.116700     0.914400
H       1.670200     1.677100     1.527700
H       1.852800     1.291700     0.019400
H       3.090100     1.301400     0.982400
C       4.593000    -0.044900     3.421200
H       4.379100    -0.637700     2.696200
H       5.086800    -0.523400     4.091200
H       5.124800     0.683600     3.091100
C       3.338100     0.486700     4.015200
C       3.433300     1.501300     5.110800
C       4.629400     1.883200     5.678900
H       5.432800     1.513700     5.387600
C       4.610400     2.823700     6.685500
H       5.403400     3.077900     7.099800
C       3.424100     3.383600     7.072300
H       3.399700     4.025800     7.743900
C       2.266900     2.976300     6.447600
C       0.908100     3.510300     6.763200
C      -0.324700     5.185500     7.887900
H      -0.931900     4.550000     8.300600
H      -0.735100     5.522200     7.075500
C      -0.035800     6.309700     8.826600
H       0.511200     5.990700     9.548400
H      -0.859600     6.654000     9.177800
H       0.428700     7.006500     8.357300
