54
Refcode: TEYJIS_comp_0 | Dataset: tmPHOTO | Charge: 0 | Potential Spins: [1, 3, 5]
Hg      9.806500    24.719900     1.695300
S       8.761500    23.854800     3.742400
S       8.571200    26.175000     0.164500
C      13.608200    27.253900     2.159900
H      13.793000    28.132100     2.401200
N      11.284400    23.031300     0.971000
C      13.552600    22.292600     0.969600
H      14.452900    22.499400     1.078500
N      12.013600    25.502600     1.895200
C       9.767900    22.570200     4.047900
C       9.438600    27.577400     0.363400
C      11.814300    20.744800     0.516200
H      11.517700    19.889200     0.307100
N      10.447400    21.684700     4.311800
C      12.328400    26.757000     2.234500
H      11.651900    27.318100     2.535000
C      12.991600    24.676800     1.471900
C       9.426700    21.535700     0.544700
C      14.310800    25.118200     1.379000
H      14.980800    24.542000     1.090900
C      14.607800    26.419500     1.721200
H      15.481700    26.732300     1.655400
C      10.892500    21.767700     0.682200
C      14.199100    19.919000     0.489200
C      13.854900    18.575200     0.637600
H      12.983300    18.341700     0.860600
N      10.008200    28.565200     0.467200
C      12.601500    23.281200     1.116500
C      13.178800    20.983300     0.658100
C      16.453400    19.240600    -0.029200
H      17.325700    19.466700    -0.260300
C      15.512800    20.231300     0.167400
H      15.763800    21.123000     0.082600
C       8.632400    22.411800    -0.190100
H       9.032000    23.126700    -0.632500
C       8.825300    20.455300     1.169900
H       9.339600    19.842500     1.644400
C       7.270900    22.241800    -0.274200
H       6.756300    22.831200    -0.775100
C       6.677100    21.193000     0.387500
H       5.753200    21.094500     0.363400
C       7.444000    20.296100     1.081400
H       7.038600    19.570400     1.498900
C      16.100100    17.913000     0.115500
C      14.798200    17.595400     0.457000
H      14.557200    16.703500     0.564500
C      18.385400    16.952300    -0.111900
H      18.895100    17.719600     0.031400
N      17.053300    16.886800    -0.101600
N      16.638000    15.624700    -0.353200
C      17.757500    14.937200    -0.503100
H      17.785400    14.025900    -0.682200
C      18.866600    15.718500    -0.364900
H      19.756700    15.456700    -0.430700
