67
Refcode: TIQVAQ_comp_0 | Dataset: tmPHOTO | Charge: 1 | Potential Spins: [1, 3, 5]
Zn      2.529400     1.135200     0.000000
S      -0.389500     1.920000    -0.047300
O      -1.188900     1.480900     1.064700
O      -0.233000     0.988900    -1.165600
N       3.447700     1.990600     1.752000
N       2.361100    -0.584900     1.274700
N       2.867500    -0.314800    -1.461100
N       4.232300     2.054300    -0.924700
N       1.046200     2.374200     0.374600
N      -2.558400     6.294300    -4.325100
C       3.297900     1.020800     2.863100
C       3.371600    -0.395100     2.323900
C       2.456200    -1.758700     0.400000
C       3.293100    -1.521600    -0.800100
C       3.985000     0.154200    -2.347600
C       4.971800     0.978700    -1.576600
C       5.026500     2.819000     0.063600
C       4.852900     2.253100     1.440200
C       2.651100     3.256100     1.980200
C       1.186500     3.039400     1.676600
C      -1.257800     3.352900    -0.674600
C      -2.251700     3.861400     0.083600
C      -2.993500     4.971400    -0.357300
C      -2.796200     5.464600    -1.610200
C      -1.571700     5.431500    -3.774100
C      -0.420900     5.084900    -4.443300
C       0.470800     4.159600    -3.895900
C       0.223500     3.558100    -2.699400
C      -0.922500     3.904800    -1.937500
C      -1.778500     4.925600    -2.440300
C      -2.151800     7.058900    -5.507000
C      -3.842400     5.644300    -4.573300
H       3.996900     1.153300     3.510400
H       2.458500     1.154600     3.304000
H       3.209900    -1.009300     3.048500
H       4.234700    -0.550500     1.977500
H       1.500300    -0.578600     1.697500
H       2.831800    -2.477400     0.914700
H       1.581200    -1.998300     0.133700
H       3.209900    -2.257000    -1.372900
H       4.201400    -1.432400    -0.512800
H       2.078100    -0.470300    -1.949300
H       4.424900    -0.601500    -2.696700
H       3.621200     0.681800    -3.032200
H       5.623300     1.343200    -2.148400
H       5.406900     0.440900    -0.905600
H       3.923200     2.657100    -1.573800
H       5.946600     2.776900    -0.151800
H       4.741100     3.725100     0.085500
H       5.195300     2.872500     2.092100
H       5.337900     1.438800     1.518400
H       2.746200     3.522400     2.904900
H       2.988800     3.940400     1.431100
H       0.739500     3.876700     1.672000
H       0.798900     2.492700     2.370300
H      -2.453800     3.463800     0.939200
H      -3.633100     5.376700     0.234600
H      -3.340700     6.171900    -1.913000
H      -0.228300     5.482500    -5.267000
H       1.264900     3.940400    -4.352300
H       0.827400     2.901800    -2.351200
H      -2.798600     7.729200    -5.669800
H      -1.307700     7.466700    -5.326100
H      -2.080500     6.475200    -6.235300
H      -4.541400     6.282800    -4.486900
H      -3.842400     5.265800    -5.427900
H      -3.977900     4.954900    -3.914100
