61
Refcode: TOKKUA_comp_0 | Dataset: tmPHOTO | Charge: 0 | Potential Spins: [1, 3, 5]
Cd     10.985800     8.316400    12.621400
N      11.094800     9.229300    14.783100
N      11.299100     6.090700    13.236700
N       9.870600    10.245500    11.770500
N      11.209700     8.405500    10.273600
N       8.154000    12.306900     7.759400
N       9.644900    10.478800     6.223200
O      13.120500     8.923200    12.993500
O       8.947600     7.428400    13.033600
C      10.108900     9.322100    15.651900
H       9.277700     8.966200    15.433400
C      10.278800     9.941800    16.894500
H       9.568500    10.001900    17.491900
C      11.484600    10.450900    17.218800
H      11.601200    10.863900    18.043200
C      12.582400    10.364900    16.314200
C      13.881000    10.876700    16.575300
H      14.072800    11.300800    17.379300
C      14.841700    10.730000    15.614400
H      15.685700    11.089800    15.766300
C      14.607300    10.075300    14.440100
H      15.308100     9.978500    13.835800
C      13.361000     9.546700    14.107200
C      12.328000     9.721100    15.087000
C      12.442600     5.463100    13.334000
H      13.189900     5.825900    12.915800
C      12.587500     4.257200    14.050900
H      13.411500     3.828000    14.095300
C      11.512600     3.737400    14.668800
H      11.603200     2.951100    15.156900
C      10.250600     4.362200    14.590300
C       9.098200     3.908500    15.226900
H       9.120600     3.123500    15.725300
C       7.954800     4.604100    15.117700
H       7.195600     4.293000    15.556300
C       7.868200     5.781800    14.366700
H       7.049500     6.216100    14.296700
C       8.974700     6.317400    13.726600
C      10.193200     5.579200    13.847800
C       9.282700    11.173300    12.494200
H       9.374200    11.135200    13.419300
C       8.534500    12.208300    11.949700
H       8.143200    12.851800    12.494200
C       8.387800    12.257400    10.596200
H       7.872100    12.928500    10.208700
C       9.002700    11.312500     9.795700
C       8.931800    11.346700     8.353400
C       8.166000    12.310200     6.451900
H       7.648600    12.943700     6.009900
C       8.908500    11.423900     5.694100
H       8.882700    11.501900     4.767300
C       9.652400    10.442100     7.575100
C      10.462100     9.417200     8.227100
C      11.263800     8.518200     7.513600
H      11.273900     8.538500     6.583400
C      12.025700     7.614800     8.186100
H      12.583600     7.031800     7.723500
C      11.957900     7.578000     9.555000
H      12.463700     6.939200    10.003900
C       9.751500    10.313700    10.423800
C      10.485700     9.339300     9.618200
