57
Refcode: TOKQIW_comp_0 | Dataset: tmPHOTO | Charge: 0 | Potential Spins: [1, 3, 5]
I       3.363500     1.996200    11.038600
Cu      5.204300     3.797200    11.543000
P       6.192500     3.842000    13.515100
N       4.298500     5.637400    11.144200
N       4.706400     6.167700     9.957200
N       5.968000     4.244400     9.631200
C       3.564300     6.578500    11.705300
H       3.147300     6.495900    12.532400
C       3.493900     7.714500    10.895400
H       3.036900     8.503500    11.077500
C       4.228600     7.434400     9.790300
H       4.376600     7.994700     9.063000
C       5.522900     5.393900     9.107900
C       5.826300     5.835400     7.823500
H       5.500000     6.642900     7.498300
C       6.632400     5.022800     7.052600
H       6.862700     5.279200     6.188800
C       7.100900     3.821000     7.570900
H       7.645400     3.268300     7.058200
C       6.745600     3.453800     8.861200
C       7.244800     2.189100     9.475300
H       8.044800     2.369800     9.974700
H       7.437000     1.551600     8.783600
H       6.574900     1.832100    10.062500
C       7.191300     2.432200    14.129300
C       8.150100     1.884600    13.276000
H       8.261000     2.238600    12.423300
C       8.939800     0.816300    13.683500
H       9.574600     0.458900    13.105400
C       8.779500     0.285100    14.958000
H       9.301600    -0.434500    15.230800
C       7.844700     0.824100    15.818900
H       7.739000     0.468000    16.671600
C       7.057900     1.901300    15.412400
H       6.439400     2.269200    16.001500
C       4.958200     4.041700    14.856400
C       5.089200     4.973300    15.883200
H       5.816400     5.553900    15.889600
C       4.138400     5.042700    16.902300
H       4.223900     5.676600    17.577300
C       3.068600     4.165300    16.906000
H       2.441000     4.203200    17.591400
C       2.928200     3.229900    15.891100
H       2.214600     2.634200    15.902600
C       3.857000     3.184800    14.856600
H       3.742500     2.578800    14.160200
C       7.318900     5.264600    13.765700
C       6.978100     6.491500    13.198300
H       6.189200     6.566900    12.711200
C       7.797400     7.602500    13.349000
H       7.550600     8.415900    12.971800
C       8.977500     7.500400    14.058900
H       9.532000     8.241300    14.149500
C       9.331200     6.303000    14.630800
H      10.124700     6.237000    15.111800
C       8.506100     5.182300    14.493900
H       8.749500     4.377000    14.890500
