113
Refcode: TUNJES_comp_0 | Dataset: tmPHOTO | Charge: 1 | Potential Spins: [1, 3, 5]
Au      9.310100     1.368400     3.624600
P       7.428500     0.452700     4.764000
P       9.555700     2.555000     5.753200
C       6.647700    -1.154700     4.412000
C       5.380200    -1.477600     4.914200
C       4.796600    -2.701600     4.604500
C       5.465300    -3.606900     3.792300
C       6.719400    -3.294500     3.291000
C       7.307500    -2.069700     3.590100
C       6.036300     1.633500     4.807000
C       5.629400     2.278200     5.977900
C       4.652000     3.276700     5.922800
C       4.081300     3.642000     4.711200
C       4.471300     2.982000     3.547400
C       5.440600     1.988900     3.589800
C       7.941100     0.401100     6.514100
C       8.860400     1.372300     6.972200
C       9.180900     1.416900     8.334900
C       8.628200     0.498800     9.222600
C       7.749600    -0.477000     8.764000
C       7.404700    -0.515600     7.414300
C       8.500500     4.033200     5.921800
C       8.226200     4.613300     7.167400
C       7.332700     5.676400     7.264800
C       6.712400     6.165400     6.117500
C       6.981300     5.598500     4.878500
C       7.873000     4.538100     4.782100
C      11.163700     3.047100     6.445800
C      12.021700     2.086600     6.990900
C      13.305000     2.446100     7.405400
C      13.747300     3.750400     7.262000
C      12.914800     4.701300     6.700900
C      11.624500     4.357900     6.298800
H       4.917700    -0.858900     5.467300
H       3.938800    -2.918600     4.949700
H       5.063000    -4.440700     3.579600
H       7.178900    -3.919000     2.741600
H       8.161100    -1.855500     3.233100
H       6.017000     2.037600     6.811300
H       4.375200     3.709800     6.722800
H       3.431200     4.334900     4.675700
H       4.070600     3.213900     2.718400
H       5.701600     1.547900     2.789500
H       9.780600     2.079500     8.655500
H       8.852200     0.538900    10.144400
H       7.386400    -1.113600     9.368800
H       6.796300    -1.176300     7.104100
H       8.652400     4.279500     7.947900
H       7.147100     6.067300     8.110300
H       6.102100     6.890500     6.183500
H       6.555900     5.935700     4.098700
H       8.057800     4.154000     3.933400
H      11.729800     1.186200     7.079500
H      13.878400     1.792800     7.788500
H      14.620800     3.990300     7.547800
H      13.223200     5.592400     6.589500
H      11.055300     5.019000     5.922500
P      11.191700     0.452700     2.485100
P       9.064500     2.555000     1.495900
C      11.972500    -1.154700     2.837200
C      13.240000    -1.477600     2.334900
C      13.823600    -2.701600     2.644600
C      13.154900    -3.606900     3.456800
C      11.900800    -3.294500     3.958200
C      11.312700    -2.069700     3.659100
C      12.583900     1.633500     2.442100
C      12.990800     2.278200     1.271200
C      13.968200     3.276700     1.326300
C      14.538900     3.642000     2.537900
C      14.148900     2.982000     3.701700
C      13.179600     1.988900     3.659400
C      10.679100     0.401100     0.735100
C       9.759800     1.372300     0.276900
C       9.439300     1.416900    -1.085800
C       9.992000     0.498800    -1.973500
C      10.870600    -0.477000    -1.514900
C      11.215500    -0.515600    -0.165100
C      10.119700     4.033200     1.327300
C      10.394000     4.613300     0.081800
C      11.287500     5.676400    -0.015700
C      11.907800     6.165400     1.131600
C      11.638900     5.598500     2.370600
C      10.747200     4.538100     2.467000
C       7.456500     3.047100     0.803300
C       6.598500     2.086600     0.258200
C       5.315200     2.446100    -0.156300
C       4.872900     3.750400    -0.012900
C       5.705400     4.701300     0.548200
C       6.995700     4.357900     0.950400
H      13.702500    -0.858900     1.781800
H      14.681400    -2.918600     2.299400
H      13.557200    -4.440700     3.669500
H      11.441300    -3.919000     4.507500
H      10.459100    -1.855500     4.016000
H      12.603200     2.037600     0.437800
H      14.245000     3.709800     0.526300
H      15.188900     4.334900     2.573400
H      14.549600     3.213900     4.530700
H      12.918600     1.547900     4.459700
H       8.839600     2.079500    -1.406300
H       9.768000     0.538900    -2.895300
H      11.233800    -1.113600    -2.119600
H      11.823900    -1.176300     0.145000
H       9.967800     4.279500    -0.698800
H      11.473100     6.067300    -0.861200
H      12.518100     6.890500     1.065600
H      12.064300     5.935700     3.150500
H      10.562400     4.154000     3.315700
H       6.890400     1.186200     0.169600
H       4.741800     1.792800    -0.539300
H       3.999400     3.990300    -0.298700
H       5.397000     5.592400     0.659700
H       7.564900     5.019000     1.326600
