110
Refcode: TURTAD_comp_0 | Dataset: tmPHOTO | Charge: unknown | Potential Spins: [1, 3, 5]
Pt      3.384700     4.872200    14.097100
O       4.543300     7.227900     9.478000
O       1.699400     3.837100    14.336600
O       3.980100     4.469600    16.047200
O      -2.960700     2.746300    13.059900
O      -3.945200     1.255600    14.971900
O       6.764100     5.020600    20.130600
O       5.626200     3.668900    22.014800
N       4.969100     6.004100    13.696200
C       5.931400     6.289900    14.589600
C       7.002300     7.099100    14.284400
C       7.104200     7.610600    13.005000
C       6.135900     7.310300    12.066900
C       5.058200     6.501000    12.429800
C       3.936500     6.107900    11.587900
C       3.717500     6.428000    10.258500
C       3.943100     7.275100     8.226400
C       4.453000     7.948800     7.137600
C       3.707500     7.874100     5.966300
C       2.521400     7.156600     5.904300
C       2.029800     6.484700     7.010900
C       2.757100     6.539600     8.202100
C       2.609100     5.980900     9.529400
C       1.677700     5.163900    10.161800
C       1.863900     4.824000    11.486200
C       2.969100     5.282300    12.222700
C       1.333800     3.242300    15.418800
C       2.085300     3.128200    16.582700
C       3.321000     3.729800    16.863000
C      -0.041500     2.675900    15.355200
C      -0.834800     2.962600    14.234000
C      -2.121800     2.489700    14.115900
C      -2.664400     1.695800    15.149900
C      -1.886000     1.419500    16.263200
C      -0.589300     1.899200    16.367800
C      -2.433700     3.597600    12.019700
C      -3.461500     3.680000    10.917300
C      -2.962600     4.514200     9.740800
C      -1.980400     3.773600     8.845800
C      -4.424400     0.321800    15.953700
C      -5.771400    -0.202500    15.502800
C      -6.926000     0.781000    15.606900
C      -8.221700     0.152800    15.106200
C       3.923700     3.596800    18.218100
C       5.090100     4.323700    18.505000
C       5.641400     4.322000    19.764800
C       5.029300     3.583000    20.795600
C       3.899100     2.841500    20.512400
C       3.354200     2.841500    19.234600
C       7.472500     5.700300    19.082600
C       8.761500     6.220300    19.661500
C       9.557500     7.011600    18.629300
C      10.849300     7.578900    19.207400
C       5.026600     2.914500    23.092600
C       5.908300     3.069800    24.303300
C       7.285600     2.431300    24.157400
C       8.075200     2.554900    25.446800
H       5.869500     5.920000    15.464100
H       7.659300     7.301700    14.939600
H       7.837300     8.167600    12.772400
H       6.202900     7.651000    11.182800
H       5.267400     8.437100     7.185000
H       4.015600     8.325500     5.190000
H       2.038200     7.124900     5.086700
H       1.216800     5.996300     6.959800
H       0.920700     4.843800     9.685900
H       1.226100     4.262700    11.911400
H       1.720200     2.578900    17.265700
H      -0.473200     3.498100    13.538100
H      -2.246300     0.892500    16.966300
H      -0.071800     1.695800    17.138500
H      -1.588200     3.221700    11.667600
H      -2.247600     4.500500    12.380300
H      -4.291300     4.083400    11.275500
H      -3.676500     2.766900    10.602600
H      -3.740100     4.798300     9.198500
H      -2.524600     5.330400    10.088600
H      -1.219100     3.465500     9.381300
H      -1.661500     4.375200     8.141400
H      -2.426500     3.002000     8.438100
H      -4.512500     0.769000    16.831200
H      -3.785300    -0.427400    16.049600
H      -5.993500    -1.001500    16.044300
H      -5.693600    -0.493500    14.560700
H      -6.720700     1.587700    15.069400
H      -7.038200     1.059900    16.550300
H      -8.102500    -0.148500    14.181800
H      -8.942800     0.816200    15.143600
H      -8.454400    -0.612800    15.673400
H       5.507700     4.825700    17.814100
H       3.490100     2.325800    21.197300
H       2.583100     2.318000    19.054000
H       6.928200     6.450300    18.733400
H       7.660900     5.076300    18.338600
H       9.306800     5.460000    19.983900
H       8.560800     6.802200    20.436900
H       9.776500     6.421200    17.864400
H       9.000300     7.754800    18.288300
H      10.635300     8.217400    19.920300
H      11.350900     8.034600    18.500300
H      11.390200     6.849400    19.575900
H       4.953800     1.959300    22.842500
H       4.118900     3.257800    23.284900
H       5.451500     2.664800    25.083800
H       6.024800     4.034500    24.490400
H       7.182900     1.475300    23.923400
H       7.779000     2.876700    23.422700
H       7.614100     2.066600    26.159500
H       8.150500     3.499800    25.693200
H       8.970900     2.178100    25.319600
