56
Refcode: UWULEF_comp_0 | Dataset: tmPHOTO | Charge: unknown | Potential Spins: [1, 3, 5]
Pt      6.419200     6.150100     3.896100
Cl      4.915300     5.098500     2.392100
P       7.121800     7.554300     2.314000
N       5.911100     4.843300     5.460200
C       8.893300     7.251500     1.959300
C       9.876500     8.225000     1.955500
H       9.660100     9.113300     2.127200
C      11.191200     7.859600     1.688900
H      11.851600     8.514000     1.677400
C      11.538400     6.546800     1.442900
H      12.427600     6.319900     1.289100
C      10.566500     5.575500     1.426200
H      10.792300     4.691300     1.244300
C       9.233300     5.923000     1.682500
H       8.571700     5.268600     1.668400
C       6.331300     7.490200     0.674000
C       6.986900     7.078300    -0.472900
H       7.872200     6.795300    -0.433100
C       6.305200     7.092200    -1.682500
H       6.737800     6.793200    -2.448800
C       5.012200     7.533700    -1.776100
H       4.587700     7.568900    -2.602600
C       4.337900     7.933000    -0.618900
H       3.449800     8.207100    -0.662500
C       4.997400     7.916300     0.577900
H       4.552300     8.193300     1.345500
C       6.868800     9.316700     2.705100
C       7.241200    10.325200     1.809400
H       7.690000    10.106100     1.023900
C       6.948300    11.618000     2.082300
H       7.178100    12.275500     1.466000
C       6.321200    11.982300     3.244600
H       6.158200    12.878300     3.430400
C       5.936000    11.009400     4.130100
H       5.497100    11.245700     4.915600
C       6.195300     9.687300     3.863500
H       5.916700     9.033400     4.463300
C       7.630800     6.845900     5.326900
C       7.567000     6.143000     6.544300
C       6.575400     5.073400     6.618600
C       4.987300     3.858100     5.359000
H       4.547400     3.713000     4.553000
C       4.701000     3.069700     6.458500
H       4.077500     2.383600     6.391800
C       5.344100     3.305100     7.650200
H       5.147100     2.784600     8.396000
C       6.266000     4.297200     7.739900
H       6.694100     4.461600     8.549800
C       8.419800     6.423200     7.607900
H       8.349600     5.932600     8.394700
C       9.349400     7.403000     7.509200
H       9.932800     7.567300     8.215300
C       9.427200     8.149700     6.364900
H      10.036400     8.850200     6.306000
C       8.582200     7.857000     5.275700
H       8.664900     8.357700     4.496600
