113
Refcode: VAKKOJ_comp_0 | Dataset: tmPHOTO | Charge: 1 | Potential Spins: [1, 3, 5]
Au     10.636900     1.553900     4.470500
P      10.429000    -0.719900     5.159700
P      11.029400     0.731400     2.264300
P       9.022700     3.125200     5.264100
P      12.221600     3.178200     5.317000
C       8.832000    -1.298900     5.823900
C       8.662300    -2.071100     6.973500
C       7.383500    -2.457600     7.371200
C       6.272900    -2.102200     6.624100
C       6.434800    -1.336200     5.474800
C       7.696400    -0.917600     5.088700
C      11.760600    -1.436300     6.179900
C      11.779200    -1.241800     7.568400
C      12.867700    -1.686700     8.327700
C      13.968500    -2.263800     7.708500
C      13.985200    -2.415900     6.325400
C      12.877500    -2.012200     5.568700
C      10.538300    -1.699500     3.620000
C      10.304400    -3.083500     3.664000
C      10.410500    -3.858100     2.522000
C      10.759200    -3.266000     1.311600
C      10.991800    -1.901300     1.246000
C      10.867100    -1.091200     2.394000
C      12.725100     0.969300     1.651700
C      13.764700     0.271000     2.261100
C      15.083000     0.532200     1.916100
C      15.376800     1.486300     0.952700
C      14.357600     2.192700     0.352100
C      13.030000     1.949900     0.702400
C       9.903700     1.119700     0.887800
C      10.228200     0.942300    -0.462900
C       9.278200     1.221200    -1.451400
C       8.007800     1.638400    -1.102800
C       7.668600     1.796600     0.230600
C       8.610900     1.548600     1.224400
C      12.704000     4.452100     4.113300
C      12.048600     5.670600     4.002000
C      12.426400     6.591600     3.018900
C      13.456800     6.291900     2.141300
C      14.124600     5.072400     2.252100
C      13.738800     4.156100     3.215500
C      13.823000     2.752200     6.078100
C      14.779300     3.722700     6.388000
C      15.983900     3.351400     6.988700
C      16.238000     2.014400     7.258600
C      15.310000     1.041900     6.924400
C      14.097500     1.409800     6.334600
C      11.280600     4.080100     6.619100
C      11.924100     4.854900     7.586400
C      11.203600     5.507500     8.577200
C       9.818900     5.370400     8.634600
C       9.165200     4.622400     7.660400
C       9.876400     3.981700     6.648100
C       8.601500     4.555900     4.204100
C       7.858800     5.626000     4.717100
C       7.674900     6.776100     3.958000
C       8.216700     6.870000     2.680900
C       8.932800     5.801900     2.159200
C       9.125300     4.643700     2.925800
C       7.443500     2.574400     5.971400
C       6.240800     2.831400     5.312200
C       5.041100     2.357000     5.835900
C       5.039900     1.628600     7.012000
C       6.226700     1.347500     7.662600
C       7.436500     1.813500     7.146000
H       9.417900    -2.332500     7.485600
H       7.272500    -2.970200     8.163100
H       5.406200    -2.381600     6.894000
H       5.677500    -1.098800     4.952900
H       7.795800    -0.367900     4.320200
H      11.051400    -0.806900     7.995000
H      12.852300    -1.594300     9.273000
H      14.708400    -2.553300     8.227400
H      14.744300    -2.793600     5.896600
H      12.886100    -2.131400     4.625800
H      10.071900    -3.492600     4.488200
H      10.243400    -4.792600     2.563100
H      10.839800    -3.799200     0.529100
H      11.236600    -1.506000     0.416500
H      13.570400    -0.390000     2.915300
H      15.787700     0.056400     2.341500
H      16.280600     1.653100     0.707800
H      14.560100     2.850000    -0.303900
H      12.332200     2.450200     0.294900
H      11.092100     0.632800    -0.707800
H       9.509100     1.123300    -2.368300
H       7.365700     1.817500    -1.780300
H       6.792000     2.075000     0.466500
H       8.376400     1.670300     2.137700
H      11.338300     5.881600     4.597200
H      11.975900     7.424300     2.951000
H      13.707500     6.914200     1.467500
H      14.845500     4.871100     1.667600
H      14.180300     3.316100     3.267400
H      14.609700     4.635600     6.189800
H      16.628000     4.012600     7.210400
H      17.053700     1.765900     7.676900
H      15.497200     0.127500     7.094200
H      13.457500     0.743200     6.109300
H      12.870100     4.937300     7.566100
H      11.654900     6.048400     9.215800
H       9.325000     5.783500     9.332000
H       8.219200     4.547300     7.685800
H       7.479800     5.565200     5.585600
H       7.176400     7.502800     4.314800
H       8.096000     7.659800     2.168100
H       9.294600     5.854600     1.281600
H       9.616800     3.914500     2.566700
H       6.241600     3.330800     4.504300
H       4.223200     2.533600     5.383700
H       4.217100     1.319600     7.376600
H       6.218900     0.836400     8.463300
H       8.253500     1.616300     7.591100
