139
Refcode: VAMJAX_comp_0 | Dataset: tmCAT;tmPHOTO | Charge: 0 | Potential Spins: [1, 3, 5]
Ni      0.499500     0.798700    15.585100
O      -2.957100     0.917600    11.326900
N       0.727800     1.682800    17.283800
N       1.790100    -0.645400    16.114200
O      -2.067000     2.887000    11.199900
N      -2.176900     1.773600    11.718200
C      -1.381300     2.399100    13.912200
N      -0.704900     2.259900    15.118100
N       0.118500    -0.148900    13.940400
C       0.537500    -1.412800    13.561300
C       1.595200    -3.634700    13.787100
C       1.634600     1.272200    18.195300
C       0.143800     2.778900    17.858500
C      -0.656600    -0.700200    11.831100
H      -1.086400    -0.626700    10.988200
C      -0.665400     0.281200    12.867600
C       0.691700     3.021500    19.177400
H       0.450200     3.722700    19.772300
C      -1.145800     3.309500    15.876300
C       1.923700    -6.261100    12.982500
H       2.038100    -7.169300    12.726400
C       1.966600    -1.845600    15.487100
C       0.060700    -1.741800    12.256600
H       0.223900    -2.548000    11.780700
C      -1.327900     1.486400    12.887800
C       2.555400    -0.746100    17.277800
C       6.251900    -0.544900    21.686000
C      -1.224700     6.018800    17.439100
H      -0.607700     6.162000    16.733300
C      -3.017900     5.578900    19.540300
C       4.956900     0.142900    21.228200
C      -1.435100     4.718800    17.919000
C       2.520200     0.229200    18.271900
C      -2.297700     4.514800    18.975700
H      -2.408000     3.640400    19.326600
C       2.735500     3.094200    22.268700
C       0.494700    -4.492100    13.732700
H      -0.361700    -4.168700    13.984800
C       3.208700    -1.988400    17.352400
H       3.789000    -2.281500    18.044100
C       1.242500     2.877900    22.603500
H       0.906300     3.646600    23.109600
H       1.143200     2.063400    23.137900
H       0.732500     2.787800    21.770700
C       0.634100    -5.812400    13.311200
C       2.947700     4.373700    21.460100
H       2.610200     5.140300    21.968300
H       2.464800     4.306200    20.611100
H       3.903700     4.493200    21.284700
C       6.004200    -2.057200    21.790800
H       5.692700    -2.396400    20.925700
H       5.323800    -2.229500    22.474400
H       6.837900    -2.508300    22.038900
C       2.847800    -2.688200    16.239300
H       3.126800    -3.567400    16.007400
C       6.739600    -0.051700    23.041100
H       6.910100     0.911200    22.994700
H       7.568600    -0.519400    23.279000
H       6.057500    -0.231200    23.718600
C       3.240500     0.398800    19.560500
C       2.845600    -4.119300    13.426200
H       3.594800    -3.537300    13.462500
C       1.620300     2.053600    19.397200
C       3.031700    -5.444200    13.012800
C      -2.264500     3.523400    13.972700
H      -2.841700     3.820400    13.281000
C       7.348900    -0.264700    20.599000
H       7.037700    -0.591800    19.727900
H       8.178800    -0.727100    20.843000
H       7.517400     0.699000    20.542600
C       4.437600    -6.009200    12.639700
C       4.363500    -0.268100    20.022300
H       4.727000    -0.995400    19.530300
C      -1.750500     8.516600    17.477400
C       2.713900     1.490300    20.258200
C      -2.828400     6.823300    19.030200
H      -3.332200     7.544700    19.387100
C      -0.804200     3.567400    17.219300
C       4.397000     1.194700    21.938000
H       4.796500     1.450300    22.760800
C      -1.901000     7.090900    17.977500
C      -1.581200     9.474700    18.651100
H      -1.481500    10.390800    18.312300
H      -0.784000     9.227800    19.163300
H      -2.370300     9.425600    19.229800
C       3.255300     1.905100    21.488300
C      -0.604400    -6.731900    13.188200
C       4.339600    -6.826500    11.359200
H       4.060500    -6.246600    10.621200
H       3.682600    -7.543800    11.478200
H       5.215100    -7.217900    11.153500
C       3.464000     3.280100    23.615800
H       3.093700     4.055800    24.085600
H       4.420300     3.421700    23.454500
H       3.342800     2.477900    24.166300
C       1.384600    -2.252300    14.299300
C      -2.128200     4.074000    15.176500
H      -2.595200     4.830400    15.509300
C      -4.038600     5.286700    20.677700
C       4.869200    -6.895300    13.789200
H       4.206600    -7.605800    13.920200
H       4.937300    -6.358400    14.607900
H       5.740400    -7.292600    13.585500
C      -0.587500     8.678000    16.511500
H      -0.533800     9.611600    16.217100
H      -0.725800     8.097000    15.733100
H       0.246300     8.428700    16.961200
C      -3.069100     8.856500    16.668800
H      -3.012500     9.771200    16.321900
H      -3.845700     8.780800    17.263700
H      -3.165900     8.228000    15.924700
C      -0.264400    -8.190400    13.504800
H       0.452300    -8.494500    12.909900
H      -1.059100    -8.748500    13.369700
H       0.030600    -8.261800    14.436500
C      -4.584700     6.611300    21.254400
H      -3.848900     7.128400    21.643600
H      -5.248100     6.416800    21.948100
H      -5.004200     7.131300    20.536500
C       5.465400    -4.882400    12.419900
H       5.175900    -4.317300    11.673800
H       6.340400    -5.273900    12.216200
H       5.532800    -4.339200    13.232600
C      -3.337300     4.521800    21.815000
H      -2.600500     5.063300    22.167900
H      -2.983500     3.675500    21.468200
H      -3.981300     4.338900    22.530900
C      -1.721800    -6.294300    14.125900
H      -2.492600    -6.889400    14.017000
H      -1.987800    -5.375300    13.912200
H      -1.407400    -6.334300    15.053500
C      -1.115200    -6.582200    11.744400
H      -0.413700    -6.858500    11.119200
H      -1.352600    -5.645900    11.577000
H      -1.906900    -7.146800    11.617300
C      -5.179800     4.494900    20.101000
H      -4.842300     3.649700    19.742000
H      -5.604500     5.009100    19.383100
H      -5.838600     4.313100    20.804700
