51
Refcode: VAWGIL_comp_0 | Dataset: tmPHOTO | Charge: 1 | Potential Spins: [1, 3, 5]
Co     -1.460100     8.593400     2.857300
N       0.318800     9.168800     2.375300
N      -1.452700     7.867600     1.112000
N      -3.209400     7.760100     2.938300
N      -2.204800    10.324000     2.355000
N      -1.489700     9.350200     4.593100
N      -0.712700     7.067800     3.794900
C       1.232700     9.774600     3.165800
H       1.015000     9.972400     4.047900
C       2.492100    10.110100     2.680400
H       3.107000    10.532100     3.235700
C       2.824800     9.819200     1.390400
H       3.664800    10.041800     1.056100
C       1.895300     9.191000     0.587200
H       2.102100     8.981100    -0.294900
C       0.663600     8.876900     1.101900
C      -0.392600     8.173000     0.294900
C      -2.535000     7.119800     0.707900
C      -3.509500     7.046200     1.840300
C      -4.664900     6.252200     1.776700
H      -4.848200     5.748300     1.016700
C      -5.526200     6.230000     2.859600
H      -6.282400     5.689600     2.850700
C      -5.248700     7.015600     3.939800
H      -5.840600     7.055400     4.656600
C      -4.081100     7.751800     3.957600
H      -3.889900     8.263800     4.710000
C      -2.546600    10.760600     1.140000
H      -2.409000    10.207100     0.405400
C      -3.107300    12.026300     0.943000
H      -3.338700    12.302600     0.086400
C      -3.312600    12.849100     1.992800
H      -3.685500    13.691400     1.867000
C      -2.961700    12.420100     3.252300
H      -3.088600    12.968500     3.993200
C      -2.410800    11.146300     3.394600
C      -1.979600    10.615500     4.722700
C      -0.988600     8.596900     5.637800
C      -0.525500     7.265900     5.104000
C       0.000600     6.307200     5.930100
H       0.112800     6.461700     6.840100
C       0.367500     5.079700     5.346700
H       0.747000     4.407300     5.867800
C       0.161700     4.882000     4.022400
H       0.380900     4.065500     3.634800
C      -0.370700     5.889900     3.251000
H      -0.495400     5.753000     2.339700
O      -0.242900     7.959900    -0.888400
O      -2.733400     6.583300    -0.360900
O      -2.164500    11.206000     5.769900
O      -0.908700     8.918800     6.795600
