111
Refcode: VAZMOZ_comp_0 | Dataset: tmPHOTO | Charge: 1 | Potential Spins: [1, 3, 5]
Cu      8.329600     4.663400     4.165700
P       8.881800     6.790000     4.773800
P       9.857500     3.481300     3.057600
N       7.399200     3.958800     5.887500
N       6.352600     4.659100     3.525300
C       7.913800     3.660400     7.070100
H       8.839500     3.598400     7.139500
C       7.160400     3.437300     8.209700
H       7.583500     3.232000     9.012600
C       5.792700     3.514800     8.162000
C       3.785300     3.831100     6.701900
H       3.219700     3.607900     7.405900
C       3.254100     4.180800     5.516800
H       2.330000     4.180800     5.415000
C       3.568900     5.013900     3.158100
C       4.477000     5.192900     2.137300
H       4.175700     5.449500     1.294900
C       5.825600     4.997100     2.347300
H       6.402400     5.108100     1.625300
C       6.039100     4.027700     5.813200
C       5.474100     4.420800     4.536700
C       5.197200     3.792700     6.905300
C       4.086600     4.556100     4.404500
C       4.959600     3.369200     9.390000
C       4.262100     4.472000     9.885000
H       4.281100     5.281200     9.425700
C       3.546800     4.357400    11.054300
H       3.098800     5.099800    11.391800
C       3.482800     3.190200    11.718900
H       2.994100     3.129300    12.507000
C       4.145500     2.082600    11.225900
H       4.088600     1.272300    11.678800
C       4.893300     2.169800    10.062400
H       5.346500     1.425000     9.739600
C       2.128000     5.314600     2.962400
C       1.404500     6.059300     3.860100
H       1.822800     6.391100     4.622000
C       0.054500     6.327900     3.650300
H      -0.427100     6.828000     4.268800
C      -0.548500     5.851700     2.536100
H      -1.449200     6.031900     2.389500
C       0.142200     5.117700     1.637700
H      -0.290700     4.797800     0.877700
C       1.488000     4.833600     1.827300
H       1.956100     4.327600     1.202000
C       8.021500     7.184800     6.337300
C       6.641300     7.308900     6.296500
H       6.199600     7.318500     5.477000
C       5.910400     7.422300     7.486400
H       4.987500     7.523800     7.455500
C       6.550400     7.382900     8.684900
H       6.059700     7.435400     9.473200
C       7.901000     7.267200     8.734500
H       8.330200     7.250500     9.559900
C       8.645900     7.172900     7.578800
H       9.571700     7.101300     7.628900
C      10.651400     7.054700     5.096600
C      11.315300     6.182300     5.942700
H      10.835000     5.508000     6.367100
C      12.766800     8.142000     4.704600
H      13.264200     8.803200     4.279100
C      12.666800     6.288500     6.170900
H      13.090600     5.687000     6.738800
C      13.383500     7.275500     5.565000
H      14.293700     7.360300     5.737200
C      11.401800     8.039300     4.460100
H      10.989000     8.628900     3.870200
C       8.345500     8.134800     3.660000
C       7.950500     7.817400     2.365100
H       8.013800     6.935400     2.075600
C       7.465900     8.776900     1.497300
H       7.201200     8.541800     0.638200
C       7.378600    10.083800     1.918600
H       7.049400    10.736600     1.344500
C       7.777700    10.422700     3.182500
H       7.727100    11.310700     3.453100
C       8.254000     9.468000     4.071400
H       8.509000     9.713800     4.931800
C      11.294200     4.460100     2.476000
C      11.051600     5.548500     1.669700
H      10.179100     5.744300     1.414700
C      12.087700     6.358900     1.233800
H      11.905800     7.071400     0.665000
C      13.356500     6.125000     1.622600
H      14.049500     6.678800     1.340300
C      13.602500     5.068800     2.432000
H      14.475500     4.899300     2.703400
C      12.583600     4.229700     2.866700
H      12.778500     3.511200     3.424100
C      10.584800     2.094600     3.993700
C      10.941400     2.272400     5.320600
H      10.863000     3.116200     5.704100
C      11.413000     1.222100     6.083100
H      11.647500     1.360600     6.972200
C      11.534400    -0.009500     5.534800
H      11.840000    -0.720900     6.051100
C      11.208400    -0.205300     4.227100
H      11.308600    -1.049100     3.849600
C      10.732900     0.834200     3.460700
H      10.508100     0.682700     2.571200
C       9.259600     2.689400     1.531400
C      10.077600     2.424000     0.442000
H      10.975300     2.661500     0.470900
C       9.568900     1.810500    -0.683000
H      10.128500     1.627900    -1.402300
C       8.250000     1.469200    -0.747600
H       7.911900     1.069400    -1.515900
C       7.421300     1.712700     0.312100
H       6.523200     1.474000     0.270500
C       7.929300     2.320100     1.449600
H       7.365500     2.483700     2.170600
