47
Refcode: VICNAZ_comp_0 | Dataset: tmPHOTO | Charge: 0 | Potential Spins: [1, 3, 5]
C      -0.102500     5.719000    14.139400
C      -0.332700     8.207500    15.146900
C       2.116700     7.012300    15.121600
C      -1.600000     8.537200    12.035200
H      -1.998400     8.743300    12.871800
C      -2.262900     8.921900    10.891800
H      -3.094300     9.379200    10.946200
C      -1.695000     8.631400     9.655300
H      -2.121200     8.898300     8.849700
C      -0.511400     7.952400     9.628100
H      -0.105100     7.726700     8.799300
C       0.089900     7.597100    10.823900
C       1.343700     6.874900    10.897700
C       2.170600     6.286100     9.969800
H       2.060200     6.270400     9.026400
C       4.330200     5.077200    10.183300
C       4.546400     5.075200     8.805100
H       3.918400     5.493300     8.226600
C       5.667300     4.470800     8.275200
H       5.821300     4.468800     7.337600
C       6.552900     3.874100     9.133100
C       6.291100     3.887900    10.490000
C       5.183100     4.470800    11.064600
H       5.023800     4.455100    12.002200
C       8.128700     2.812400    10.080400
C       9.323800     2.056800    10.443400
C      10.276300     1.774200     9.453400
H      10.137700     2.066600     8.560500
C      11.410100     1.071600     9.781500
H      12.050600     0.871400     9.107900
C      11.626600     0.653500    11.084000
H      12.424900     0.192300    11.313100
C      10.674800     0.912600    12.048800
H      10.802100     0.604500    12.937800
C       9.537100     1.621100    11.720700
H       8.892600     1.809500    12.392400
N       7.744900     3.171500     8.896300
N      -0.440000     7.895500    12.037100
N       1.888600     6.627600    12.120600
N       3.007700     5.950500    12.002200
N       3.166000     5.740500    10.682200
O      -0.601000     4.818100    14.393700
O      -1.025500     8.639300    15.948600
O       2.942800     6.749300    15.878700
O       7.310700     3.206900    11.124800
Cl      1.867300     9.578000    13.254400
Re      0.789100     7.412800    13.801800
