94
Refcode: VICROR_comp_0 | Dataset: tmPHOTO | Charge: 1 | Potential Spins: [1, 3, 5]
C      11.639900     7.162000     3.648600
C      12.559200     6.688100     2.752400
C      12.761900     7.390300     1.610900
C      13.755500     6.932700     0.577500
C      12.100000     8.597600     1.413800
C      11.160100     9.001400     2.377700
C      10.379400    10.285000     2.261800
C      10.403100    11.099900     1.147300
C       9.747000    12.307600     1.174300
C       9.821400    13.194100     0.000000
C       8.931500    12.609900     2.223100
C       8.879900    11.726300     3.297000
C      11.892500     9.664400     7.486400
C      12.365300     8.376600     7.287500
C      13.496300     7.890800     7.953800
C      14.141300     8.733200     8.848100
C      13.683600    10.058200     9.031600
C      12.593200    10.527600     8.369100
C       9.141500    10.179900     8.009900
C       9.381400     9.793800     9.305900
C       8.397900     9.680600    10.273500
C       7.097000     9.977000     9.891100
C       6.795600    10.361600     8.581600
C       7.827400    10.452500     7.669900
C       6.395600    10.508400     5.809900
C       5.418700    11.480900     5.838900
C       4.189900    11.178500     5.257500
C       3.984100     9.911400     4.627800
C       4.959200     9.020000     4.627800
C       6.239100     9.295100     5.186000
C      10.624900    11.982000     6.337200
C      11.509900    12.316200     5.292300
C      11.723100    13.664700     4.934900
C      11.100400    14.639200     5.624500
C       9.992100    13.022200     6.968800
C      10.166400    14.332600     6.572800
C       7.556100     7.170700     6.686800
C       6.443400     7.112100     7.498000
C       6.450000     6.310900     8.662700
C       7.563700     5.556700     8.956300
C       8.667600     5.627100     8.148900
C       8.687500     6.431600     7.038300
C       7.121500     6.868500     3.932500
C       6.160400     5.852200     4.218400
C       5.768600     4.885800     3.322100
C       6.364900     4.940100     2.051200
C       7.337700     5.837600     1.724800
C       7.704500     6.888000     2.677000
F      13.774900     5.627100     0.434600
F      13.689000     7.495000    -0.538900
F      15.021700     7.190100     1.054600
F      10.073700    12.602000    -1.170500
F      10.700700    14.133200     0.187400
F       8.713200    13.971200    -0.187400
Cu      9.617700     9.151400     4.812700
P      10.368600    10.200100     6.664400
O       7.634800    10.860700     6.370000
P       7.650600     8.110500     5.128700
N       9.580400    10.572800     3.289300
N      10.953700     8.310400     3.494000
H      11.484000     6.673800     4.448200
H      13.038500     5.887500     2.930100
H      12.262400     9.128400     0.643200
H      10.874000    10.817600     0.372800
H       8.407300    13.401900     2.227000
H       8.360900    11.951200     4.061900
H      11.888500     7.795800     6.708000
H      13.816100     7.010800     7.795500
H      14.902400     8.422000     9.325200
H      14.140300    10.631200     9.636200
H      12.299200    11.421200     8.498500
H      10.272200     9.587700     9.566600
H       8.599200     9.417400    11.164000
H       6.401600     9.906100    10.536200
H       5.903600    10.563100     8.324700
H       5.594300    12.332100     6.223200
H       3.472200    11.797400     5.330900
H       3.160100     9.716800     4.197100
H       4.827400     8.175300     4.212600
H      11.967900    11.627300     4.824800
H      12.318300    13.866600     4.224100
H      11.285100    15.549400     5.421700
H       9.416500    12.840600     7.702700
H       9.652200    15.022700     6.974600
H       5.683800     7.645500     7.291300
H       5.681100     6.272400     9.219000
H       7.572400     5.021500     9.740500
H       9.421200     5.084200     8.345900
H       9.475800     6.512700     6.514900
H       5.758400     5.833000     5.079800
H       5.132500     4.215800     3.542300
H       6.065000     4.330900     1.386800
H       7.796400     5.773100     0.896200
H       8.328700     7.564800     2.441400
