54
Refcode: VIKNAH_comp_0 | Dataset: tmPHOTO | Charge: unknown | Potential Spins: [1, 3, 5]
Pt      3.001600    10.834300     3.878000
O       1.146000    10.345900     3.029200
O       3.848800    10.953500     2.003200
N       3.278400    11.221300     6.697000
N       1.437500    10.827000     7.753800
N       4.798800    13.084200    14.136000
C       2.355200    10.796000     5.720800
C       1.215700    10.539300     6.405900
C       2.708000    11.248700     7.905400
C       4.593500    11.519500     6.201900
C       4.656100    11.381700     4.803000
C       5.891800    11.656900     4.204000
C       6.989600    12.026800     4.961000
C       6.890700    12.136600     6.341300
C       5.680200    11.867300     6.984700
C       0.398600    10.847600     8.747000
C      -0.355200     9.701000     8.952400
C      -1.391400     9.734600     9.871700
C      -1.659100    10.894000    10.574000
C      -0.910700    12.040800    10.360000
C       0.131900    12.022400     9.435000
C       3.261000    11.639600     9.216700
C       3.219900    10.716700    10.255200
C       3.646600    11.070100    11.522000
C       4.100500    12.371000    11.743200
C       4.166500    13.294200    10.704700
C       3.748200    12.929000     9.440800
C       4.505000    12.769900    13.078900
C      -0.551100    10.222000     1.407600
C       0.900500    10.417600     1.781000
C       1.831600    10.667400     0.775600
C       3.197300    10.881200     0.907700
C       4.040200    11.043800    -0.336100
H       0.403400    10.218200     6.031900
H       5.977500    11.588400     3.260400
H       7.818100    12.207000     4.531900
H       7.649200    12.396100     6.850600
H       5.605600    11.921300     7.929700
H      -0.164500     8.905100     8.470000
H      -1.919300     8.958500    10.018700
H      -2.364100    10.905200    11.211700
H      -1.106800    12.835900    10.841200
H       0.651600    12.801900     9.278000
H       2.897500     9.837900    10.093900
H       3.631200    10.437300    12.229600
H       4.497300    14.170300    10.865200
H       3.790900    13.552800     8.725600
H      -0.630100    10.149600     0.433000
H      -1.075400    10.986900     1.722300
H      -0.887300     9.400800     1.824000
H       1.489600    10.695000    -0.110300
H       3.552100    10.691900    -1.109700
H       4.880400    10.551300    -0.228400
H       4.234300    11.994100    -0.477300
