48
Refcode: VUMWIL_comp_0 | Dataset: tmPHOTO | Charge: 1 | Potential Spins: [1, 3, 5]
Pt     -1.365600    -2.787100     9.242000
N      -2.163800    -1.062400     8.173200
N      -1.113200    -1.583000    11.033600
N      -3.265900    -2.977800    10.244900
C      -4.336100    -3.622900     9.749200
C      -5.695700    -2.880800    11.552700
C      -2.044500    -1.106300    13.180700
C      -2.150200    -1.644100    11.893900
C      -4.587500    -2.248300    12.095400
C      -3.375700    -2.300600    11.414300
C      -5.556000    -3.602200    10.384600
C       0.014900    -0.979900    11.415500
C       0.190800    -0.421300    12.670200
C      -1.731300    -4.081900     7.687400
C      -0.585500    -4.377500    10.275800
C      -1.485500     0.089500     8.194200
C      -3.890600     0.005700     6.911100
C      -3.341500    -1.105900     7.524200
C      -1.970700     1.247000     7.597200
C       0.468100    -2.527000     8.367300
C      -0.847900    -0.510200    13.582400
C      -3.204900     1.211500     6.963000
H      -0.661000     0.118000     8.623100
H      -3.802600    -1.912600     7.485900
H      -3.564200     1.979100     6.581100
H      -1.475100     2.033700     7.621900
H       0.717600    -0.932000    10.807400
H       0.986600     0.003600    12.895200
H      -0.749900    -0.178800    14.445300
H      -2.766800    -1.144500    13.764200
H      -4.249500    -4.096800     8.953200
H      -4.653300    -1.794000    12.903800
H      -6.524400    -2.817900    11.970600
H      -6.277700    -4.070900    10.032300
H      -2.210600    -3.623000     6.996400
H      -0.897400    -4.402100     7.335100
H      -2.248100    -4.824000     8.005100
H       0.354500    -2.154000     7.489600
H       0.997100    -1.931000     8.902500
H       0.911100    -3.373900     8.294300
H       0.107300    -4.067800    10.864200
H      -1.279100    -4.798600    10.788800
H      -0.213800    -5.012500     9.656500
O      -6.120900    -0.981800     6.848100
C      -5.208600    -0.152400     6.157100
H      -6.456300    -0.561600     7.466100
H      -5.004400    -0.591400     5.181600
H      -5.658000     0.830800     6.025800
