44
Refcode: VUMWEH_comp_0 | Dataset: tmPHOTO | Charge: 1 | Potential Spins: [1, 3, 5]
Pt      7.554800     7.696500     9.035300
N       7.624800     9.323000    10.478800
C       8.797900     9.924000    10.765700
C       7.735000    11.467200    12.249500
C       8.875100    11.006400    11.639100
C       6.518000    10.851600    11.949800
C       6.505300     9.774000    11.074900
C       8.895900     6.593400    10.115400
C       6.106800     6.708300    10.096300
C       7.492700     6.153200     7.704100
N       8.987700     8.715900     7.771100
N       6.319400     8.973500     7.804500
C       6.992700     9.774000     6.943900
C      10.307600     8.469100     7.745600
C      11.156300     9.031500     6.803700
C       4.965200     9.133100     7.903300
C       8.455900     9.564800     6.862600
C      10.608600     9.899800     5.872900
C       4.971300    10.868500     6.304800
C       6.328700    10.744000     6.190100
C       4.278500    10.032900     7.163800
C       9.245700    10.164700     5.903200
H       4.497400     8.601000     8.505800
H       3.352700    10.088500     7.230800
H       6.804500    11.299100     5.616300
H      10.667300     7.898300     8.384600
H      12.065200     8.832000     6.795700
H      11.149600    10.303700     5.233800
H       8.867600    10.742700     5.280100
H       9.578200     9.605900    10.370400
H       5.697100     9.350800    10.893200
H       5.726500    11.158800    12.332300
H       7.773200    12.174600    12.851900
H       9.692900    11.415100    11.806400
H       8.299200     6.155600     7.175000
H       7.426800     5.322400     8.179100
H       6.732000     6.252400     7.128800
H       8.422500     6.010500    10.719500
H       9.433200     6.058900     9.517800
H       9.459800     7.182400    10.614300
H       6.278400     5.763800    10.072400
H       6.119200     7.002200    11.009500
H       5.246400     6.893400     9.712200
H       4.516200    11.510700     5.809200
