131
Refcode: WEHHIA_comp_0 | Dataset: tmPHOTO | Charge: 0 | Potential Spins: [1, 3, 5]
Ru      6.758800     3.003800     5.451500
P       6.183100     4.168100     3.477300
P       4.986400     1.624200     4.740400
P       7.251700     1.815800     7.430000
P       8.437600     4.461900     6.248200
C       4.575300     3.490100     2.831400
C       3.808200     2.767300     3.902300
C       8.599700     2.708700     8.314900
C       9.497200     3.429500     7.336700
C       5.274300     4.073500     6.398500
C       4.432400     4.725200     6.967700
C       3.528000     5.600700     7.655000
C       3.892000     6.199400     8.873600
C       3.051900     7.093200     9.489200
C       1.848400     7.418800     8.936800
C       1.458000     6.812600     7.777300
C       2.272800     5.925700     7.142700
C       8.335100     1.931400     4.661300
C       9.246300     1.245800     4.305000
C      10.139900     0.218200     3.811700
C      10.286100    -0.027000     2.464500
C      11.063200    -1.115800     2.051300
C      11.674600    -1.932800     2.970500
C      11.552400    -1.682700     4.258600
C      10.806900    -0.623000     4.707700
C       5.818600     5.962500     3.609300
C       4.595000     6.383700     4.138500
C       4.331700     7.723800     4.328200
C       5.260900     8.643300     3.980300
C       6.472200     8.269900     3.457500
C       6.757800     6.907500     3.263500
C       7.195400     4.184900     1.950100
C       6.669600     4.655400     0.756900
C       7.445600     4.747100    -0.362600
C       8.741300     4.385700    -0.337300
C       9.276200     3.886200     0.828500
C       8.503200     3.781500     1.956400
C       3.901500     0.747600     5.930500
C       4.008700    -0.615300     6.145500
C       3.168900    -1.275700     7.007800
C       2.209800    -0.581100     7.690800
C       2.094400     0.776900     7.513700
C       2.938600     1.438900     6.636700
C       5.165600     0.393500     3.385800
C       6.381900     0.158000     2.774400
C       6.477700    -0.694800     1.692900
C       5.371700    -1.286400     1.172200
C       4.163300    -1.061300     1.749800
C       4.040200    -0.230800     2.837700
C       6.001700     1.653700     8.772400
C       5.511200     0.445300     9.183500
C       4.553200     0.378200    10.189100
C       4.085800     1.539200    10.777300
C       4.554800     2.738800    10.345100
C       5.507200     2.813400     9.360600
C       7.895800     0.098300     7.315600
C       7.564600    -0.701600     6.246700
C       7.963800    -2.024600     6.162400
C       8.727400    -2.545600     7.203800
C       9.071800    -1.778500     8.255800
C       8.662200    -0.465500     8.340200
C       9.684300     5.260400     5.148300
C       9.689000     6.625700     4.916400
C      10.623900     7.190600     4.073100
C      11.547400     6.399600     3.442700
C      11.559800     5.046900     3.674700
C      10.641000     4.476200     4.509500
C       7.952900     5.859300     7.345100
C       8.527000     6.097900     8.588900
C       8.120900     7.170100     9.347900
C       7.167000     8.023200     8.892500
C       6.588200     7.810400     7.667600
C       6.969500     6.731400     6.896000
H       4.034400     4.218900     2.485600
H       4.754800     2.879900     2.097700
H       3.075900     2.266200     3.512300
H       3.443800     3.399800     4.539000
H       8.212900     3.348800     8.930500
H       9.124200     2.073800     8.827200
H       9.995400     2.787900     6.805400
H      10.128400     3.988800     7.815200
H       4.700700     5.992000     9.263600
H       3.304800     7.479000    10.284000
H       1.306100     8.041300     9.343700
H       0.632000     7.006700     7.421000
H       1.990900     5.532800     6.360500
H       9.878700     0.517800     1.844700
H      11.165500    -1.285900     1.153200
H      12.168700    -2.654900     2.688000
H      11.975300    -2.227900     4.865800
H      10.745100    -0.463900     5.612100
H       3.958200     5.759200     4.364000
H       3.528500     7.990600     4.688700
H       5.077000     9.536900     4.098400
H       7.094000     8.908100     3.231900
H       7.567700     6.648900     2.911500
H       5.785300     4.907200     0.716800
H       7.078700     5.062700    -1.144800
H       9.261900     4.470300    -1.092100
H      10.156900     3.621700     0.851700
H       8.867000     3.434200     2.725900
H       4.657000    -1.090900     5.698600
H       3.252200    -2.183500     7.127900
H       1.644500    -1.020800     8.268500
H       1.453700     1.246600     7.977600
H       2.856200     2.348700     6.525000
H       7.137800     0.574400     3.090700
H       7.302100    -0.865300     1.321900
H       5.441000    -1.834700     0.436400
H       3.414200    -1.471100     1.408300
H       3.211800    -0.084000     3.208700
H       5.816300    -0.328700     8.791300
H       4.230700    -0.438600    10.463200
H       3.464000     1.498800    11.454000
H       4.227300     3.514600    10.718300
H       5.820300     3.633900     9.086500
H       7.062000    -0.344100     5.563600
H       7.729400    -2.544900     5.439200
H       9.000700    -3.424000     7.172200
H       9.588300    -2.135900     8.928400
H       8.894100     0.040600     9.071700
H       9.063200     7.160400     5.327500
H      10.627100     8.100200     3.934000
H      12.158300     6.773000     2.865100
H      12.191500     4.519600     3.263500
H      10.653900     3.566600     4.648700
H       9.182000     5.534600     8.905200
H       8.499100     7.310900    10.174300
H       6.909000     8.741600     9.404800
H       5.943400     8.388900     7.357700
H       6.569800     6.589300     6.080100
