38
Refcode: WENWIX_comp_0 | Dataset: tmPHOTO | Charge: unknown | Potential Spins: [1, 3, 5]
C       4.441500     2.979100     2.313900
C       3.943100     2.933600     0.877500
H       4.048000     2.033700     0.531600
H       2.998100     3.152900     0.861100
C       8.265800     1.240800     2.097200
C       8.572300     2.258400    -0.442400
C       6.363000     0.974700     0.193000
C       6.209100     2.932300     3.808500
H       7.117000     2.849400     3.992400
C       3.562400     6.907500    -2.490500
H       3.360200     7.568000    -3.113100
C       6.024100     3.848200    -0.123800
C       4.003800     3.344100     4.605900
H       3.413200     3.548700     5.294100
C       5.319100     3.150200     4.871700
H       5.628300     3.162200     5.749200
C       3.549200     3.238500     3.318800
H       2.644400     3.340100     3.129500
C       4.873500     6.547800    -2.290200
H       5.565100     7.003700    -2.712600
C       7.629300     5.316300    -1.412700
H       7.708400     6.252300    -1.214300
H       7.758600     5.175900    -2.353900
H       8.295600     4.828300    -0.923000
C       2.768900     5.273500    -0.879300
H       2.076900     4.879100    -0.396900
C       5.136500     5.480800    -1.434600
C       4.084200     4.855000    -0.733700
C       2.531700     6.303100    -1.776800
H       1.659300     6.598600    -1.904300
Cl      8.526600     4.395000     1.914800
N       5.789900     2.837300     2.505000
N       6.285700     4.841600    -1.023100
N       4.671800     3.872200     0.018200
O       9.361300     2.179500    -1.287100
O       8.849600     0.528200     2.779900
O       5.897500     0.050800    -0.349500
Re      7.266400     2.451000     0.934100
