35
Refcode: WENWET_comp_1 | Dataset: tmPHOTO | Charge: unknown | Potential Spins: [1, 3, 5]
Re      7.312300     7.152800     2.572300
Cl      9.118800     5.591600     1.867600
C       5.928100     8.374800     3.210200
C       8.434200     8.670600     2.083100
N       8.106500     6.832200     4.592200
C       6.596500     7.202800     0.786100
C       6.324900     5.422300     3.315400
N       5.391900     4.551900     2.911700
N       6.702600     4.997400     4.569900
C       7.687200     5.739900     5.257200
C       5.149800     3.582700     3.867700
C       9.030100     7.618700     5.192400
H       9.329800     8.377700     4.745200
O       9.071200     9.576300     1.794200
C       4.254400     2.530400     3.893200
H       3.689200     2.369300     3.173000
C       5.940400     3.026300     6.074100
H       6.508100     3.180000     6.793200
C       5.969000     3.836800     4.958700
O       6.166200     7.222200    -0.269800
C       4.699200     4.605700     1.612500
H       4.444200     5.512000     1.423400
H       3.915100     4.053600     1.644400
H       5.287100     4.288300     0.923100
C       9.091400     6.223900     7.091700
H       9.413800     6.007900     7.937300
C       9.541100     7.341800     6.433100
H      10.178400     7.898200     6.820900
O       5.173700     9.066300     3.582000
C       8.169800     5.443600     6.486200
H       7.859700     4.683700     6.923900
C       4.218700     1.725700     5.007600
H       3.634800     1.002900     5.035200
C       5.043100     1.981000     6.086800
H       4.990800     1.434900     6.837900
