79
Refcode: WETKOX_comp_0 | Dataset: tmPHOTO | Charge: 0 | Potential Spins: [1, 3, 5]
Pt      4.886700     7.505900    -0.802400
N       5.164400     6.230300    -2.264600
N       4.879800     9.037800    -2.165700
N       4.661100     8.781400     0.676800
N       4.927600     5.950400     0.474700
C       5.125300     4.880000    -2.167700
C       5.455400     4.324500    -3.454500
C       5.729200     5.392800    -4.258600
C       5.520600     6.574300    -3.531300
C       5.616900     7.802900    -4.147500
C       5.126000     8.958800    -3.501000
C       4.764600    10.195900    -4.092900
H       4.792200    10.411700    -5.018200
C       4.377200    11.001400    -3.092900
H       4.067300    11.894500    -3.175800
C       4.513400    10.277000    -1.897000
C       4.300500    10.845400    -0.620200
C       4.382300    10.161700     0.579800
C       4.357700    10.730000     1.911100
H       4.194800    11.638100     2.135400
C       4.610400     9.719400     2.771700
H       4.642300     9.802700     3.717200
C       4.821800     8.510100     2.050500
C       5.086100     7.266600     2.547500
C       5.130300     6.076500     1.850500
C       5.345400     4.788100     2.396000
H       5.512600     4.593700     3.311100
C       5.275900     3.895000     1.420200
H       5.406900     2.959200     1.517200
C       4.972500     4.568100     0.204000
C       4.918900     4.061700    -1.076800
C       4.827600     2.623700    -1.438400
C       4.309900     1.698600    -0.517200
H       4.031100     2.010500     0.335400
C       4.191100     0.352500    -0.802000
H       3.879800    -0.243600    -0.131300
C       4.515500    -0.134600    -2.040400
H       4.430100    -1.061900    -2.234300
C       4.966700     0.743500    -2.998000
H       5.179600     0.410200    -3.862600
C       5.123100     2.111000    -2.743400
C       5.535800     3.025400    -3.787900
C       5.994900     2.843800    -5.141400
H       6.107100     1.961400    -5.474700
C       6.275900     3.907800    -5.967700
H       6.569900     3.728400    -6.852500
C       6.145500     5.251800    -5.557600
C       6.420700     6.518800    -6.224200
C       6.976100     6.546500    -7.507100
H       7.128100     5.730400    -7.969700
C       7.301200     7.728100    -8.101000
H       7.635700     7.725900    -8.989900
C       7.155700     8.905300    -7.448500
H       7.430100     9.715100    -7.864600
C       6.606800     8.939500    -6.169700
H       6.518400     9.768500    -5.715100
C       6.181000     7.745200    -5.543400
C       4.136100    12.328000    -0.547500
C       3.069500    12.911500     0.127300
H       2.412700    12.364500     0.541400
C       2.963100    14.296000     0.193900
H       2.234600    14.695500     0.654500
C       3.924000    15.096800    -0.412100
H       3.851500    16.043700    -0.365700
C       4.990600    14.513900    -1.086900
H       5.646600    15.060900    -1.501000
C       5.096300    13.129400    -1.153100
H       5.825500    12.729900    -1.614100
C       5.422900     7.208900     4.021400
C       6.621300     7.764400     4.452500
H       7.202700     8.183200     3.828300
C       6.968100     7.711000     5.798000
H       7.787100     8.091300     6.092900
C       6.117300     7.099900     6.711100
H       6.354800     7.063600     7.630300
C       4.918900     6.542300     6.278800
H       4.337400     6.125600     6.903000
C       4.572000     6.597800     4.935300
H       3.753100     6.217500     4.640400
