85
Refcode: WIBCAO_comp_0 | Dataset: tmPHOTO | Charge: 1 | Potential Spins: [1, 3, 5]
Cu     -2.091100     7.228300    11.765700
N      -1.150000     8.795200    12.715700
C      -1.511800    10.054600    12.474600
C      -1.849400    12.323200    13.354000
H      -1.277800    12.545300    12.589100
H      -1.414400    12.611500    14.183100
H      -2.711100    12.782400    13.260300
N      -2.066800    10.888600    13.395600
C      -2.841300    10.383600    14.514400
H      -3.052700     9.437300    14.365200
H      -3.674000    10.894100    14.594200
H      -2.321700    10.475400    15.340000
N      -1.390100    10.525400    11.208400
C      -2.431500    11.349100    10.594400
H      -2.042400    12.197100    10.294300
H      -3.135600    11.528500    11.251800
H      -2.813800    10.874900     9.827700
N      -1.520100     6.250400    13.425100
C      -0.494100     9.847400    10.289100
H      -0.982000     9.138200     9.820800
H       0.251200     9.456500    10.790400
H      -0.147700    10.490400     9.636900
N      -1.532100     6.228400    10.028900
C      -1.627200     4.955800    13.711300
H      -2.068500     4.396100    13.085100
N      -1.409200     3.877000     9.789600
C      -1.129800     4.368300    14.880400
H      -1.249900     3.441300    15.046900
N       0.395700     5.097200    10.592700
C      -0.466600     5.160800    15.775400
H      -0.137700     4.784900    16.583600
N      -3.629000     7.801000    10.618700
C      -0.265900     6.545000    15.506500
C       0.481300     7.399500    16.335600
H       0.836300     7.068400    17.152600
C       0.704900     8.711000    15.976600
C       0.150800     9.202300    14.783200
H       0.320400    10.103800    14.536900
C      -0.636100     8.416200    13.950700
C      -0.831900     7.042700    14.311400
C       1.610300     9.591100    16.790100
H       1.714800     9.206600    17.697200
H       1.200200    10.488300    16.883700
C       2.994800     9.732100    16.134400
H       2.894800    10.116600    15.237700
H       3.413900     8.847700    16.065000
H       3.558000    10.319500    16.680800
C      -0.867200     5.090300    10.101800
C      -0.633000     2.772700     9.251900
H      -1.041600     2.462900     8.415800
H      -0.616100     2.037800     9.900600
H       0.283500     3.073800     9.075000
C      -2.849900     3.659100     9.841600
H      -3.230800     3.772400     8.946600
H      -3.256200     4.306400    10.453900
H      -3.030600     2.749200    10.162500
C       0.888400     4.065000    11.503300
H       0.223200     3.347300    11.576100
H       1.044300     4.455900    12.387900
H       1.728200     3.697600    11.156400
C       1.105800     6.374100    10.689800
H       0.850200     6.946600     9.938700
H       2.071300     6.211800    10.665500
H       0.868800     6.814200    11.532800
C      -4.588900     8.683200    10.904900
H      -4.649500     9.012200    11.794700
C      -5.515500     9.151100     9.957800
H      -6.177200     9.785500    10.207600
C      -4.451500     7.749800     8.311800
C      -5.457100     8.683200     8.665600
H      -6.083900     8.982300     8.018600
C      -4.290100     7.237100     6.998700
H      -4.892100     7.506300     6.315400
C      -3.282300     6.361300     6.696900
C      -2.358600     5.996000     7.713400
H      -1.641500     5.412900     7.493100
C      -2.466900     6.457400     9.003800
C      -3.538100     7.350300     9.319500
C      -3.097300     5.791000     5.316300
H      -2.176800     5.987500     5.011000
H      -3.723800     6.243800     4.697100
C      -3.333100     4.278600     5.245200
H      -3.280400     3.983800     4.312000
H      -4.220800     4.069300     5.604200
H      -2.650100     3.817200     5.774200
