36
Refcode: WIMJOS_comp_0 | Dataset: tmPHOTO | Charge: 1 | Potential Spins: [1, 3, 5]
C      -2.071300    -0.377000     3.154500
C      -0.101200    -2.261900     3.021000
C      -1.036200    -1.452000     5.409400
C      -1.143200     2.275000     4.970800
H      -1.993900     2.064900     4.658700
C      -0.911700     3.516700     5.530300
H      -1.621400     4.114300     5.597800
C       1.253300     2.977600     5.884500
H       2.103400     3.201700     6.186800
C       1.054700     1.715800     5.360600
C       2.078500     0.667000     5.320800
C       3.337000     0.777800     5.897200
H       3.577100     1.584900     6.292200
C       3.828400    -1.353700     5.309600
H       4.416500    -2.073300     5.289900
C       2.584100    -1.492900     4.717700
H       2.358100    -2.296900     4.308700
C       0.119200     1.719900     1.755800
H      -0.622500     2.079000     2.187400
C       0.684700     2.428500     0.715500
H       0.344700     3.257000     0.465300
C       1.763800     1.883700     0.052000
H       2.169900     2.342600    -0.646700
C       2.219800     0.673500     0.434400
H       2.935400     0.284400    -0.015500
C       1.626900     0.006700     1.497100
H       1.956800    -0.827600     1.743100
N      -0.162300     1.369200     4.869000
N       1.700400    -0.485600     4.727300
N       0.598900     0.519300     2.179400
N       0.285200     3.893000     5.978600
N       4.214800    -0.225100     5.908700
O      -3.125200    -0.252000     2.727200
O       0.069000    -3.285400     2.529100
O      -1.489000    -2.027900     6.296000
Re     -0.290300    -0.550900     3.886400
