104
Refcode: WOBKIK_comp_0 | Dataset: tmPHOTO | Charge: unknown | Potential Spins: [1, 3, 5]
C       0.190000     4.457500     5.790600
C      -1.071000     2.017500     2.281400
C      -2.196300     2.356600     3.011200
H      -2.227700     2.172200     3.942700
C      -3.279100     2.962100     2.393200
H      -4.053300     3.181300     2.898700
C      -3.233700     3.247300     1.048900
H      -3.974000     3.667700     0.627400
C      -2.118900     2.924900     0.313900
H      -2.088200     3.121100    -0.615100
C      -1.036300     2.310300     0.931200
H      -0.265600     2.089000     0.421000
C       1.739400     1.394500     2.059000
C       2.337400     2.646600     2.013600
H       1.969300     3.367400     2.510300
C       3.474400     2.844300     1.242800
H       3.878000     3.703400     1.206700
C       4.017000     1.804900     0.533800
H       4.797100     1.945700     0.010400
C       3.439200     0.564200     0.576200
H       3.819800    -0.156900     0.088200
C       2.292400     0.363400     1.337600
H       1.886400    -0.495000     1.359000
C      -0.100700    -0.581600     3.011000
C      -0.979500    -1.048000     2.031100
H      -1.399900    -0.427100     1.447900
C      -1.247500    -2.391600     1.894600
H      -1.852300    -2.690100     1.225500
C      -0.639000    -3.298500     2.727900
H      -0.810900    -4.227600     2.624400
C       0.226800    -2.859500     3.721600
H       0.638700    -3.492900     4.297400
C       0.497500    -1.507300     3.884400
C       3.230500    -0.924600     4.508200
C       3.613400    -1.956000     3.665400
H       3.024000    -2.687700     3.521800
C       4.850600    -1.936300     3.026300
H       5.110500    -2.654700     2.462100
C       5.692700    -0.868900     3.217900
H       6.530000    -0.841200     2.770600
C       5.329300     0.164000     4.055400
H       5.921300     0.895700     4.181300
C       4.102500     0.148300     4.720700
C       3.873200     0.965200     7.468500
C       4.427700    -0.259900     7.789300
H       4.684700    -0.865600     7.104300
C       4.605400    -0.592700     9.125600
H       4.964500    -1.442500     9.350900
C       4.273200     0.274700    10.115500
H       4.409800     0.036500    11.025000
C       3.736800     1.503800     9.792900
H       3.516800     2.122100    10.479700
C       3.519700     1.831700     8.477300
H       3.122500     2.666400     8.261000
C       4.795000     2.867800     5.586700
C       6.088400     2.786800     6.086900
H       6.390800     1.974400     6.475000
C       6.939600     3.870000     6.027700
H       7.826400     3.799600     6.362400
C       6.496700     5.056500     5.478900
H       7.078800     5.806700     5.437300
C       5.224700     5.155600     4.996200
H       4.926700     5.974300     4.617300
C       4.368000     4.074300     5.053100
H       3.480200     4.158100     4.724900
C       1.489500    -2.294300     6.429300
C       2.555100    -3.165600     6.616900
H       3.353000    -3.051800     6.114100
C       2.461200    -4.193500     7.526100
H       3.192400    -4.790500     7.638400
C       1.319900    -4.367300     8.274800
H       1.263800    -5.074500     8.906700
C       0.258900    -3.503900     8.098500
H      -0.531000    -3.626500     8.611000
C       0.323300    -2.457600     7.185800
C      -1.128100    -0.368300     8.465500
C      -0.009900    -0.220000     9.275500
H       0.796400    -0.677900     9.070200
C      -0.083100     0.603900    10.385600
H       0.681400     0.712300    10.939000
C      -1.242900     1.263300    10.701300
H      -1.279900     1.820300    11.470400
C      -2.347800     1.118000     9.904900
H      -3.154800     1.566100    10.126800
C      -2.288300     0.325500     8.786700
H      -3.051100     0.248900     8.226000
C      -2.505400    -2.445500     7.069500
C      -3.022700    -2.899400     8.276900
H      -2.703000    -2.534200     9.093600
C      -4.001900    -3.882500     8.299900
H      -4.337300    -4.200300     9.129200
C      -4.486300    -4.393500     7.120600
H      -5.135200    -5.087600     7.137100
C      -4.035700    -3.903500     5.920900
H      -4.401000    -4.232400     5.107500
C      -3.055800    -2.936500     5.893200
H      -2.751500    -2.602000     5.057900
N       0.303100     5.277000     4.986000
P       0.295100     1.192000     3.155800
P       1.547900    -0.901400     5.256300
P       3.559100     1.545300     5.762900
P      -1.091900    -1.302000     6.901200
S       0.034400     3.332400     6.975400
Ag      1.030900     1.595400     5.492000
