105
Refcode: WUDGUY_comp_0 | Dataset: tmPHOTO | Charge: 0 | Potential Spins: [1, 3, 5]
C      -3.343200     7.634400     4.845400
H      -2.721400     8.183700     4.305400
H      -3.963700     8.247300     5.312300
C      -2.541200     6.843200     5.882200
H      -2.354100     7.471000     6.638500
C      -1.163700     6.371000     5.346600
H      -0.960000     5.495000     5.759900
H      -0.479100     7.012100     5.662900
C      -3.359000     5.734700     6.444600
C      -5.448300     5.241100     7.462000
C      -6.114200     4.459300     6.569900
H      -5.954200     4.539800     5.637500
C      -7.046200     3.529200     7.063700
H      -7.501300     2.936700     6.475900
C      -7.286200     3.498200     8.467500
C      -6.670300     4.344300     9.288000
H      -6.886800     4.344800    10.212900
C      -5.725400     5.219700     8.809100
H      -5.268200     5.803900     9.402900
C      -9.236100     0.600400     9.176100
C      -9.438500    -0.558600     8.491400
H      -8.988100    -0.696300     7.666400
C     -10.284000    -1.535000     8.967200
H     -10.439100    -2.325700     8.463000
C     -10.892900    -1.352200    10.169600
H     -11.458100    -2.032700    10.515700
C     -10.703100    -0.200500    10.888700
H     -11.144600    -0.078500    11.721100
C      -9.853000     0.793500    10.386000
H      -9.705400     1.593500    10.878300
C      -1.819200     2.026100     1.036800
C      -1.972300     2.003700    -0.334200
H      -1.776900     2.782700    -0.842900
C      -2.414300     0.844300    -0.981600
H      -2.541900     0.842400    -1.924400
C      -2.664300    -0.291200    -0.250600
H      -2.960600    -1.079900    -0.689200
C      -2.487900    -0.290700     1.103900
H      -2.651400    -1.084800     1.599200
C      -2.075000     0.855700     1.760300
H      -1.963900     0.847100     2.704600
C      -0.110800     4.254200     0.731000
C       0.826700     3.480800     0.064100
H       0.864200     2.547700     0.240200
C       1.707200     4.022500    -0.842900
H       2.364500     3.476400    -1.259100
C       1.627900     5.370100    -1.147200
H       2.227900     5.750700    -1.778200
C       0.690600     6.150000    -0.544500
H       0.634800     7.069400    -0.777200
C      -0.199200     5.632900     0.414700
H      -0.840900     6.190700     0.838400
C      -0.334500     2.826700     3.304400
C       0.865000     2.125300     3.104400
H       1.200000     2.011900     2.221300
C       1.563800     1.598300     4.165100
H       2.369200     1.120900     4.004000
C       1.117700     1.750600     5.445100
H       1.620800     1.410000     6.174600
C      -0.064300     2.403100     5.659900
H      -0.398800     2.487200     6.544600
C      -0.782500     2.942600     4.602200
H      -1.597600     3.399200     4.775300
C      -4.917100     2.397900     2.382400
C      -5.456900     1.331800     1.645500
H      -5.721900     1.470800     0.744400
C      -5.610200     0.072000     2.219800
H      -5.978100    -0.639700     1.711100
C      -5.233800    -0.136100     3.504300
H      -5.323300    -1.001200     3.887600
C      -4.725400     0.890100     4.254600
H      -4.474700     0.734900     5.157200
C      -4.571100     2.166200     3.704200
H      -4.229500     2.875300     4.236700
C      -6.288600     4.860700     2.103400
C      -7.337400     4.297100     2.856800
H      -7.223000     3.434200     3.235700
C      -8.524600     4.966900     3.055200
H      -9.208200     4.561700     3.574400
C      -8.735100     6.204700     2.516700
H      -9.559300     6.654700     2.659900
C      -7.730000     6.801500     1.755900
H      -7.866800     7.662900     1.376900
C      -6.542000     6.140900     1.554500
H      -5.866900     6.558400     1.030800
C      -4.712200     4.114700    -0.049200
C      -5.836300     3.686600    -0.786200
H      -6.586500     3.330400    -0.325200
C      -5.869700     3.774900    -2.151200
H      -6.628700     3.462700    -2.630100
C      -4.778100     4.326700    -2.843400
H      -4.783200     4.366500    -3.792200
C      -3.703800     4.811300    -2.131800
H      -2.981700     5.223500    -2.589800
C      -3.667800     4.701600    -0.751900
H      -2.914400     5.034800    -0.277500
N      -8.140400     2.512700     9.186500
N      -8.393800     1.552500     8.466000
O      -4.505600     6.196400     7.008500
O      -3.078600     4.555200     6.474400
P      -1.298100     3.547300     1.929700
P      -4.697800     4.092800     1.765900
S      -4.291900     6.555300     3.740400
S      -0.979000     6.197700     3.549000
Pt     -2.848500     5.051900     2.708700
