34
Refcode: WURNEE_comp_0 | Dataset: tmPHOTO | Charge: 0 | Potential Spins: [1, 3, 5]
Pt      2.514500     3.376800     0.287000
O       2.400500     1.562600    -0.776200
O       3.228100     0.509600    -2.536900
N       4.029000     3.631300    -1.068700
N       1.020600     2.899200     1.515600
C       4.922200     4.617700    -1.146100
C       5.817600     4.747700    -2.192500
C       5.825800     3.782500    -3.199900
C       4.948900     2.717600    -3.067900
C       4.076200     2.650900    -2.019800
C       3.162400     1.460700    -1.795800
C       2.503200     5.028800     1.429200
C       3.213700     6.219000     1.344500
C       3.115200     7.215800     2.305700
C       2.283500     7.069400     3.401100
C       1.513400     5.920300     3.515900
C       1.612000     4.916400     2.538600
C       0.788500     3.716900     2.565300
C       0.260800     1.798100     1.351200
C      -0.706400     1.444300     2.246000
C      -0.930200     2.237400     3.368800
C      -0.174500     3.401700     3.513100
H       4.943000     5.262700    -0.449000
H       6.419900     5.482200    -2.223900
H       6.408200     3.852900    -3.947000
H       4.955700     2.023600    -3.716400
H       3.791400     6.355000     0.602000
H       3.625700     8.011000     2.209200
H       2.240000     7.746700     4.066100
H       0.921400     5.813100     4.251500
H       0.402700     1.251900     0.587100
H      -1.224300     0.660000     2.104800
H      -1.578300     1.993600     4.018000
H      -0.316900     3.974900     4.256800
