167
Refcode: XANCEV_comp_0 | Dataset: tmCAT;tmPHOTO | Charge: 0 | Potential Spins: [1, 3, 5]
Zn      7.520500     6.682200    10.092300
O       9.438800     7.690400     9.845400
N       8.043900     4.731800     9.994500
N       7.629800     6.580300    12.120500
N       6.497400     8.429900    10.306300
N       6.953800     6.574500     8.151100
C       6.417800     7.607000     7.428200
C       6.445800     7.273400     6.059400
C       6.990900     6.069900     5.949800
C       7.312400     5.627900     7.248300
C       7.945000     4.437800     7.573800
C       8.194400     3.993900     8.853500
C       8.591900     2.670700     9.216700
C       8.681100     2.610800    10.525600
C       8.349900     3.902300    11.037800
C       8.367300     4.257100    12.370600
C       8.016500     5.505400    12.858900
C       7.989000     5.840400    14.237900
C       7.595000     7.109300    14.333900
C       7.353400     7.574200    13.021600
C       6.818100     8.809100    12.685800
C       6.417300     9.193200    11.419800
C       5.869400    10.472800    11.077200
C       5.644100    10.465300     9.766600
C       6.035600     9.182200     9.271500
C       5.996200     8.809800     7.940400
C       8.483600     3.587100     6.470500
C       7.571400     3.037900     5.605400
C       7.804700     2.225400     4.515800
C       8.981800     1.768100     3.993300
C       9.127500     0.965100     2.881500
C      10.472500     0.764600     2.657100
C      11.202000     1.398000     3.614700
C      10.350400     2.051900     4.474700
C      10.680400     2.787600     5.566000
C       9.873800     3.479400     6.443100
C       8.793900     3.206900    13.336800
C       7.863300     2.469000    14.008400
C       8.244200     1.483800    14.876900
C       9.590700     1.269500    15.058500
C      10.555200     1.989400    14.395600
C      10.130200     2.971300    13.539000
C       7.260800     0.630200    15.644400
C       7.419700     0.852700    17.110900
C       7.513800    -0.844300    15.336100
C       5.817800     0.944600    15.289800
C      12.039500     1.759000    14.585700
C      12.308700     0.675300    15.574200
C      12.691800     3.001600    15.020900
C      12.629000     1.352200    13.275200
C       6.646300     9.767300    13.801100
C       5.389800    10.243200    14.172800
C       5.224200    11.050800    15.267500
C       6.335100    11.349800    16.017900
C       7.599200    10.918400    15.680400
C       7.723100    10.141400    14.546300
C       3.852100    11.538500    15.682100
C       3.915600    12.978700    16.139500
C       2.866300    11.474700    14.536000
C       3.332300    10.673500    16.807700
C       8.825800    11.251500    16.504400
C       9.721100    10.043800    16.627800
C       8.491000    11.756600    17.864700
C       9.610100    12.319100    15.781500
C       5.610400     9.827900     6.931400
C       4.312800    10.060800     6.580200
C       3.998700    10.940400     5.552300
C       5.036200    11.576700     4.896200
C       6.356600    11.361600     5.242200
C       6.617900    10.488800     6.265000
C       2.553200    11.188600     5.172000
C       1.923000     9.867300     4.776200
C       2.390200    12.147700     4.049900
C       1.805600    11.701700     6.390000
C       7.511300    11.992900     4.503900
C       8.313300    10.916300     3.815200
C       7.084500    12.999900     3.532500
C       8.446200    12.657200     5.506000
C      10.395200     7.882800     8.845000
C      10.605500     6.828000     8.034600
C       9.768800     8.888300     7.866800
H       6.127100     7.818200     5.348400
H       7.146900     5.588900     5.144600
H       8.770000     1.960600     8.612000
H       8.910700     1.849900    11.048100
H       8.206400     5.261800    14.959200
H       7.492500     7.609000    15.135600
H       5.700100    11.187800    11.676800
H       5.285800    11.176200     9.247600
H       6.662700     3.241100     5.793900
H       7.030200     1.944100     4.043000
H       8.416800     0.609500     2.359000
H      10.835500     0.253300     1.941000
H      12.149700     1.403900     3.679800
H      11.611000     2.835500     5.754500
H      10.322000     3.939900     7.142100
H       6.937800     2.626100    13.861100
H       9.863500     0.590300    15.665000
H      10.769900     3.499100    13.076400
H       7.222600     1.760400    17.311300
H       6.828600     0.286900    17.594000
H       8.316200     0.660800    17.361000
H       6.894400    -1.382200    15.815800
H       8.398900    -1.071800    15.596500
H       7.409700    -0.995500    14.404100
H       5.229800     0.384900    15.781500
H       5.694200     0.796100    14.359600
H       5.631600     1.855100    15.492000
H      11.892900    -0.117600    15.257300
H      13.245300     0.534700    15.649600
H      11.953400     0.899900    16.425600
H      13.623500     2.865700    15.151100
H      12.296100     3.283400    15.838000
H      12.558200     3.667900    14.357900
H      12.491300     2.039600    12.632700
H      12.207200     0.555400    12.980500
H      13.561700     1.197300    13.377900
H       4.626300     9.992100    13.667500
H       6.225600    11.874400    16.802500
H       8.590400     9.860800    14.279100
H       4.223300    13.520200    15.421700
H       4.517500    13.053000    16.872800
H       3.052900    13.270200    16.410200
H       2.796000    10.576400    14.237900
H       3.180100    12.021400    13.825100
H       2.014400    11.782100    14.820400
H       3.927500    10.733600    17.546000
H       3.284600     9.770500    16.511300
H       2.468500    10.966100    17.073200
H       9.957900     9.726500    15.764400
H       9.233900     9.371800    17.090300
H      10.508600    10.255100    17.116000
H       8.016500    11.076200    18.328900
H       9.284700    11.970200    18.342600
H       7.945900    12.531800    17.794400
H      10.397300    12.519200    16.273200
H       9.085400    13.104700    15.690700
H       9.847100    11.994300    14.921500
H       3.616000     9.621300     7.053000
H       4.834000    12.182200     4.192100
H       7.520000    10.333800     6.518500
H       2.016000     9.249200     5.492300
H       1.001500     9.991500     4.584400
H       2.364600     9.526900     4.005300
H       2.775000    12.981200     4.294900
H       1.469400    12.270200     3.854600
H       2.835000    11.806100     3.284100
H       0.894200    11.864100     6.174200
H       2.209600    12.505700     6.688100
H       1.856600    11.047200     7.077000
H       9.059000    11.301900     3.368000
H       7.760300    10.471900     3.183000
H       8.620400    10.292400     4.462700
H       6.508600    12.594700     2.893500
H       6.619100    13.691700     3.986500
H       7.841400    13.365000     3.088800
H       8.740900    12.019900     6.145000
H       9.196900    13.024500     5.055500
H       7.970400    13.352400     5.948000
H      11.217200     8.199600     9.201300
H       9.784600     6.569300     7.626900
H      10.936000     6.116300     8.570900
H      11.247400     7.033700     7.359700
H       8.932900     8.569000     7.543000
H      10.333600     9.080200     7.133500
H       9.619200     9.679000     8.375600
H       9.966700     7.266100    10.511900
