88
Refcode: XEJVOA_comp_0 | Dataset: tmPHOTO | Charge: unknown | Potential Spins: [1, 3, 5]
Pt     17.408200     2.010100     3.193200
O      17.342200     1.994100     1.184200
O      19.476700     1.808100     3.148800
N      17.341600     2.046200     5.171800
N      20.821000     2.086800     7.403000
C      21.965800     2.158000     8.142100
H      22.780300     2.051100     7.705800
C      21.980200     2.374000     9.467700
H      22.783200     2.403900     9.935000
C      20.808200     2.546500    10.104300
H      20.801800     2.718200    11.017500
C      19.626900     2.473100     9.424800
H      18.813900     2.567800     9.865900
C      19.678500     2.257100     8.089700
C      18.417300     2.233600     7.307400
C      18.443600     2.026200     5.934300
H      19.264400     1.867300     5.524200
C      16.100700     2.246400     5.741000
C      16.044100     2.518700     7.085700
H      15.223000     2.707500     7.479300
C      17.190400     2.516500     7.867000
H      17.131700     2.707500     8.773900
C      15.012900     2.218600     4.751000
C      15.466800     2.221500     3.406600
C      14.534500     2.324800     2.382100
H      14.830500     2.346200     1.499700
C      13.165800     2.397500     2.643400
C      12.200500     2.523700     1.597900
H      12.494400     2.622000     0.720000
C      10.877200     2.505100     1.845400
H      10.280300     2.612700     1.139700
C      10.370700     2.323400     3.162000
C       8.998500     2.255000     3.450000
H       8.391900     2.343300     2.749000
C       8.512500     2.063300     4.723100
C       6.998000     1.994100     5.011600
C       6.236000     1.565800     3.838600
H       6.179600     2.289900     3.211500
H       5.351000     1.307800     4.110400
H       6.675300     0.818200     3.426100
C       6.525200     3.340400     5.357300
H       7.050100     3.688200     6.082100
H       5.603600     3.296900     5.622000
H       6.611300     3.916300     4.594400
C       6.695600     1.140300     6.115500
H       7.301200     1.318500     6.835600
H       6.787200     0.220900     5.843700
H       5.794400     1.296400     6.404000
C       9.421800     1.938500     5.757900
H       9.107300     1.809500     6.625700
C      10.799500     2.002000     5.531100
C      11.755300     1.822400     6.580400
H      11.450400     1.664900     7.443500
C      13.081800     1.873700     6.353900
H      13.664600     1.721200     7.064400
C      13.623900     2.153800     5.066000
C      12.697000     2.266400     3.972800
C      11.294800     2.210100     4.232000
C      22.060400     2.830800     3.264000
H      21.712800     2.670500     4.143800
H      21.697100     3.650400     2.920700
H      23.016100     2.897100     3.304500
C      21.946600     0.400500     3.011300
H      22.895300     0.267300     3.080400
H      21.563200    -0.300800     2.479600
H      21.557200     0.388400     3.888700
C      22.555600     1.793900     1.127700
H      22.436000     2.649100     0.708100
H      22.308200     1.099700     0.512600
H      23.477000     1.685500     1.375700
C      21.679100     1.709000     2.369900
C      20.184500     1.787400     2.093300
C      19.692100     1.828100     0.782000
H      20.323000     1.799600     0.097800
C      18.340100     1.907200     0.395800
C      18.000200     1.895100    -1.084800
C      18.571800     0.604400    -1.733300
H      19.532800     0.625700    -1.697600
H      18.287400     0.553800    -2.648900
H      18.250800    -0.163200    -1.256500
C      18.605700     3.138700    -1.750000
H      18.283500     3.927700    -1.306600
H      18.349600     3.163700    -2.675100
H      19.563700     3.103800    -1.683300
C      16.505400     1.889400    -1.306600
H      16.125500     1.104700    -0.903600
H      16.320900     1.886500    -2.248300
H      16.119200     2.671900    -0.906000
