61
Refcode: XEKTEO_comp_0 | Dataset: tmPHOTO | Charge: unknown | Potential Spins: [1, 3, 5]
Ru     10.449700    11.127500    10.502000
O       8.597000    11.001400     9.580400
N      10.995000    10.183900     8.694800
O      12.457100    11.470800    10.957100
N      10.729900    13.014500     9.598200
C       8.609700    12.950200    14.133300
C       9.914700    10.062900     7.840300
N       9.149800    12.416500    12.962800
N      10.300900     8.476300    12.057900
C      12.159500     9.716600     8.300200
H      12.891000     9.805900     8.868400
C       9.829200    13.772000     8.944000
H       8.974200    13.440800     8.792700
C      14.569900    14.356900    10.234700
H      15.445800    14.632900    10.378600
C      10.280200     7.465600    13.008800
C      12.345500     9.091900     7.062900
H      13.180600     8.754400     6.831500
C      12.886600    12.641700    10.495800
C      10.033000     9.487400     6.558500
C      11.996900    13.508200     9.808900
C      10.148400     7.820800    14.351400
H      10.053900     8.713500    14.591700
C       7.574500    10.488700     7.508000
H       6.754500    10.815800     7.798800
C       8.673100    10.541000     8.358000
C      12.394000    14.787200     9.369800
C      14.200300    13.098700    10.675300
H      14.826700    12.551800    11.090600
C       7.686300     9.952300     6.223300
H       6.936900     9.941600     5.671400
C       8.869200     9.438600     5.747100
H       8.907400     9.061200     4.898500
C      10.360500     6.151100    12.645300
H      10.413500     5.922600    11.744900
C      13.719600    15.212100     9.602700
H      14.005300    16.054300     9.331200
C      11.397800    15.549000     8.684400
H      11.605800    16.399000     8.366900
C       7.704000    13.977700    14.060600
H       7.429300    14.301100    13.232800
C       9.014000    12.454300    15.345300
H       9.627600    11.756800    15.388300
C       8.496300    13.008100    16.506900
H       8.761300    12.681200    17.336200
Cl      7.011800    14.727300    17.915200
C      10.157700     6.835800    15.323100
H      10.078800     7.060200    16.222100
C      11.308500     8.981500     6.204000
H      11.432200     8.573800     5.377700
C      10.285600     5.522500    14.938800
C       7.620000    14.011500    16.435700
C      10.364200     5.165500    13.600700
H      10.417600     4.270200    13.353000
C       7.202400    14.528900    15.222200
H       6.596900    15.233600    15.189500
Cl     10.367000     4.285700    16.157100
C      10.165900    15.052500     8.493000
H       9.526600    15.565500     8.053900
C       9.696700    11.964300    12.031200
C      10.355700     9.457500    11.434800
