90
Refcode: XIFXOC_comp_0 | Dataset: tmCAT;tmPHOTO | Charge: 0 | Potential Spins: [1, 3, 5]
Ni      5.101100     7.767000    20.187300
O       0.901500     8.136000    24.673100
N       3.549600     6.572400    20.013500
C       7.637000     8.741900    18.151800
O       4.718800     6.328300    26.894100
C       3.046000     6.160700    22.385700
N       4.748600     7.973100    22.070500
C       2.647100     4.289200    16.328900
H       3.036100     3.759300    16.988800
C       2.770500     6.034800    21.038300
N       5.509000     7.525300    18.308500
C       2.479500     5.269900    23.421600
C       6.245100     9.837400    22.638200
N       6.571300     9.035500    20.354500
C       6.672700     7.887000    17.615500
C       1.698200     5.546100    19.138000
H       1.064600     5.269100    18.516800
C      11.062100     9.720000    15.823900
H      11.815900     9.942600    15.324400
C       2.509300     5.623300    24.783700
C       3.954000     7.608900    24.199400
C       3.022800     7.882900    27.502400
C       7.968700    10.700400    21.124900
H       8.335700    11.351400    21.677900
C       3.937500     7.162700    22.848300
C       6.645200     7.343300    16.305000
H       7.320700     7.416600    15.669100
C       8.378700    11.129100    25.368000
H       9.143500    10.885300    25.838000
C       2.950100     6.182500    18.835700
C       6.841300     9.874200    21.408800
C       1.903200     8.405300    26.868300
C       1.788600     7.919400    25.462000
C       1.527400     3.508700    25.408500
H       1.203400     2.930600    26.061000
C       1.984700     4.007000    23.113700
H       1.979200     3.726500    22.225300
C       7.881600    10.326600    24.376300
H       8.307000     9.530900    24.147800
C       1.461300     5.776100    14.423000
H       1.034800     6.288800    13.774200
C       3.748000     6.977600    26.617700
C       2.778200     5.662600    16.426600
C       6.743300    10.723000    23.727500
C       3.516500     6.276100    17.565700
C       2.469600     9.032100    29.447000
H       2.630500     9.244800    30.337200
C       3.035000     6.985400    25.220500
C       2.190800     6.405100    15.427600
H       2.282300     7.330800    15.423900
C       1.501000     3.155700    24.086900
H       1.152700     2.329100    23.840000
C       4.790500     6.810000    17.377700
C       1.961600     3.657000    15.293000
H       1.920800     2.729900    15.239600
C       7.538900     9.324900    19.392300
C      10.085700     8.658000    17.737100
H      10.179400     8.162400    18.518600
C       8.841500     9.045100    17.316900
C       5.487000     6.712800    16.144600
H       5.189400     6.289700    15.372300
C       1.597900     5.419800    20.481600
H       0.905900     5.015300    20.951700
C       1.365400     4.430400    14.384300
H       0.871700     4.029700    13.704200
C       8.391900    10.359900    19.919500
H       9.123600    10.728900    19.480800
C       4.746400     8.689400    24.273100
H       4.922700     9.200100    25.028800
C      11.199800     9.002800    17.003500
H      12.046200     8.756100    17.300300
C       5.268800     8.902700    22.949700
C       3.322600     8.221400    28.805500
H       4.087400     7.898400    29.224000
C       2.037600     4.728000    25.751400
H       2.074000     4.968600    26.649000
C       1.043600     9.256600    27.509800
H       0.292000     9.611000    27.091400
C       9.862000    10.086800    15.403600
H       9.778200    10.575800    14.618400
C       6.126100    11.888700    23.998500
H       5.371200    12.130200    23.513700
C       8.730200     9.746300    16.126200
H       7.890500     9.989600    15.811000
C       1.367600     9.555800    28.824000
H       0.815500    10.133200    29.299500
C       6.587900    12.711700    24.964300
H       6.152600    13.514600    25.146800
C       7.703100    12.354100    25.672100
H       8.020500    12.905100    26.348600
