75
Refcode: XOLDEJ_comp_0 | Dataset: tmCAT;tmPHOTO | Charge: 1 | Potential Spins: [1, 3, 5]
C      -3.057500    15.454300     7.445000
H      -2.632200    16.166800     7.023500
C      -4.319600    15.644400     7.956800
H      -4.734000    16.475400     7.898100
C      -4.961900    14.584700     8.561900
H      -5.810500    14.693500     8.927700
C      -4.333300    13.368300     8.613100
H      -4.766100    12.644200     9.004400
C      -3.057900    13.206400     8.089100
C      -2.275500    11.961900     8.107600
C      -2.815400    10.741600     8.522700
H      -3.702200    10.696400     8.795200
C      -2.040100     9.607300     8.530300
H      -2.407700     8.796900     8.802700
C      -0.712800     9.667300     8.132900
H      -0.186700     8.900300     8.151000
C      -0.170100    10.875700     7.708400
H       0.720700    10.912200     7.440500
C      -0.941400    12.025200     7.678800
C       1.530700    13.326400     6.825700
C       2.013600    12.935400     5.572200
C       3.358800    12.643100     5.372300
H       3.657300    12.382000     4.530800
C       4.251500    12.739800     6.422900
C       3.804700    13.086000     7.681300
H       4.400700    13.132900     8.393300
C       2.454800    13.364700     7.881400
C       1.099600    12.770400     4.387800
C       5.700100    12.481800     6.147500
C       2.045100    13.712700     9.291900
C       0.051200    17.359200     7.754900
C       0.592500    18.637700     7.630100
H       1.097900    18.858300     6.880500
C       0.378500    19.579100     8.623600
H       0.742400    20.431500     8.539300
C      -0.370300    19.261400     9.734500
H      -0.529200    19.905300    10.387800
C      -0.885400    17.989700     9.879000
H      -1.377300    17.772100    10.639100
C      -0.672300    17.034000     8.897600
H      -1.013800    16.175700     9.002900
C      -0.806900    16.757700     5.017800
C      -1.775800    15.943700     4.451500
H      -1.883000    15.069900     4.752100
C      -2.587300    16.432400     3.433500
H      -3.246900    15.892100     3.060200
C      -2.407300    17.727300     2.977400
H      -2.954200    18.057500     2.301500
C      -1.427600    18.532600     3.511800
H      -1.308300    19.395200     3.188100
C      -0.625000    18.058500     4.529300
H       0.038600    18.601500     4.890600
C       1.942500    16.346400     5.848500
C       2.277000    16.379600     4.500700
H       1.610900    16.355900     3.851900
C       3.611500    16.448600     4.124400
H       3.835300    16.482500     3.222700
C       4.603200    16.468300     5.075700
H       5.496700    16.498600     4.815300
C       4.277700    16.445200     6.412400
H       4.949700    16.466500     7.055100
C       2.950100    16.389800     6.803700
H       2.734800    16.380900     7.706900
Au     -0.396100    13.912600     7.088300
F       0.210200    11.815300     4.582600
F       0.399200    13.856700     4.105000
F       1.749900    12.465800     3.276900
F       6.234700    13.427300     5.406000
F       5.884000    11.393700     5.443000
F       6.421000    12.417600     7.213200
F       3.061300    13.862400    10.092100
F       1.352700    14.851400     9.364800
F       1.246100    12.814500     9.825800
N      -2.418400    14.276000     7.530800
P       0.227500    16.160800     6.392800
