88
Refcode: XOVPOP_comp_0 | Dataset: tmPHOTO | Charge: unknown | Potential Spins: [1, 3, 5]
Ir     10.249800     5.091900     4.187000
P      11.872600     3.834100     3.393900
P       8.497400     3.890300     3.357800
O      13.122800     4.823700     3.105900
O      12.369700     2.746000     4.415500
H      11.918300     2.787600     5.221400
O       8.337700     4.350900     1.816200
N       8.951100     6.333500     5.361900
N      10.332300     4.278800     6.077000
N      10.903300     3.146500     6.575000
N       9.566100     4.055300     8.154200
C      11.912000     6.307600     4.565900
C      11.959300     7.460200     5.344900
H      11.210700     7.688100     5.882600
C      13.087900     8.292100     5.353400
H      13.101900     9.070900     5.895400
C      14.164800     7.975700     4.584400
H      14.910200     8.562000     4.563100
C      14.196500     6.814200     3.833800
H      14.956700     6.579700     3.315900
C      13.077300     6.017800     3.869300
C      11.800000     2.931400     1.841700
C      11.683500     3.626100     0.658400
H      11.689100     4.575300     0.665400
C      11.560800     2.951400    -0.536300
H      11.478800     3.433700    -1.349300
C      11.554800     1.577400    -0.549100
H      11.485300     1.112800    -1.374900
C      11.650000     0.871700     0.625700
H      11.631000    -0.077400     0.611500
C      11.775700     1.544300     1.836000
H      11.842900     1.059700     2.650400
C       9.928300     6.075300     2.388000
C      10.520200     7.274400     1.950900
H      11.185000     7.681500     2.494400
C      10.168000     7.887200     0.760500
H      10.580500     8.705800     0.515000
C       9.216900     7.314200    -0.079500
H       8.988300     7.732400    -0.902400
C       8.609800     6.132800     0.299400
H       7.953400     5.727900    -0.255400
C       8.974200     5.550900     1.496900
C       8.533900     2.099600     3.218000
C       8.090400     1.462400     2.063000
H       7.795800     1.973500     1.318100
C       8.081100     0.084100     2.010500
H       7.779800    -0.349600     1.221600
C       8.496800    -0.670400     3.077500
H       8.471100    -1.617300     3.027900
C       8.953900    -0.048700     4.221100
H       9.253500    -0.566400     4.958900
C       8.973200     1.340700     4.286400
H       9.289400     1.769900     5.072500
C       6.855700     4.225700     4.026700
C       5.905700     4.931500     3.303100
H       6.105200     5.223500     2.422000
C       4.668200     5.212400     3.855100
H       4.023200     5.690300     3.347100
C       4.365400     4.803100     5.134900
H       3.509500     4.986800     5.505200
C       5.310200     4.128400     5.875500
H       5.109500     3.858400     6.765200
C       6.549300     3.838500     5.330700
H       7.196700     3.373900     5.848600
C       8.275600     7.402700     4.916400
H       8.370800     7.659400     4.006900
C       7.445700     8.148300     5.732200
H       6.970300     8.891700     5.381800
C       7.311100     7.798700     7.054600
H       6.761400     8.314200     7.633500
C       7.986600     6.692500     7.535600
H       7.891800     6.424800     8.442300
C       8.802200     5.984600     6.674400
C       9.562200     4.792100     7.023400
C      10.407200     3.050900     7.820800
C      10.756400     1.882800     8.713300
C      10.347500     0.581900     8.025100
H       9.376000     0.568600     7.904500
H      10.617600    -0.179200     8.579900
H      10.786600     0.522100     7.151100
C      10.052200     2.022100    10.049800
H      10.304800     2.871700    10.465600
H      10.313700     1.281000    10.635800
H       9.081900     2.002200     9.912200
C      12.276100     1.845100     8.919000
H      12.722500     1.763300     8.049200
H      12.510800     1.077400     9.480900
H      12.566300     2.672600     9.357400
