45
Refcode: XUBDOP_comp_0 | Dataset: tmPHOTO | Charge: 0 | Potential Spins: [1, 3, 5]
Zn      7.003600     3.228500    10.763800
C       5.022500     2.852300     8.473600
H       4.514500     3.512300     8.888200
C       4.561400     2.289700     7.302700
H       3.761200     2.574100     6.924500
C       5.304000     1.309100     6.706700
H       5.011800     0.911500     5.917800
C       6.492900     0.911500     7.287400
H       7.003600     0.238900     6.895800
C       6.912400     1.513400     8.441200
C       8.197900     1.202200     9.136500
C       9.153600     0.193300     8.595900
H       9.916300     0.128900     9.174700
H       8.720600    -0.661600     8.540500
H       9.440400     0.465200     7.719100
C       9.684400     1.723900    10.913000
C       9.613300     1.838700    12.309300
H       8.786300     1.943900    12.721900
C      10.751300     1.794700    13.069600
H      10.699100     1.874800    13.994100
C      11.980500     1.631200    12.452600
H      12.753900     1.580900    12.964500
C      12.056900     1.541600    11.083000
H      12.892000     1.448900    10.681800
C      10.913500     1.584100    10.275000
C      10.338500     0.997900     7.852800
C      11.286200    -0.196400     7.325600
H      12.035500     0.172900     6.853800
H      10.786200    -0.765300     6.735400
H      11.599800    -0.710300     8.072500
C       9.771500     1.733400     6.775500
C       9.586500     2.901000     7.012300
H       9.914900     3.282900     7.795500
C       8.793000     3.752700     5.994200
H       8.618800     4.656400     6.129800
C       8.364100     3.086400     4.880600
H       7.858800     3.510700     4.225400
C       8.707200     1.780500     4.771700
H       8.452600     1.329500     3.998000
N      11.086400     1.687800     8.888200
N       8.452600     1.857500    10.223400
N       6.175200     2.478300     9.025700
N       9.382800     1.095300     5.692400
Cl      5.825400     2.639500    12.524400
Cl      7.784800     5.288100    10.633100
