67
Refcode: XUDXUQ_comp_1 | Dataset: tmPHOTO | Charge: 0 | Potential Spins: [1, 3, 5]
C       0.759800     0.719400     4.342400
C       1.292200     1.427100     5.147600
Pt      0.000000    -0.625500     3.165000
N      -0.667600    -2.217300     2.044600
N       2.693000     4.217500     7.190900
C       3.141500     2.155900     8.283400
H       3.514200     1.703100     9.005100
C       2.516900     1.458900     7.275700
H       2.463600     0.530700     7.318700
C       3.209100     3.537000     8.216300
C      -1.730500    -3.217400     0.154500
C      -0.372700    -3.453300     2.521900
N       4.335400     3.617200    10.333100
C       4.931300     5.676500    11.418100
H       5.306100     6.106900    12.152300
C       1.968000     2.132400     6.197100
C       4.872000     4.304800    11.347200
H       5.228300     3.820100    12.056100
C      -0.735200    -4.594900     1.831900
H      -0.524300    -5.434700     2.171200
C       2.093000     3.515800     6.221100
H       1.732500     3.992300     5.508400
C       3.829600     4.313100     9.316500
C      -1.318800    -2.113500     0.897600
H      -1.513400    -1.263100     0.573500
C       3.862300     5.704800     9.291200
H       3.518300     6.174200     8.567000
C      -1.413100    -4.477000     0.640600
H      -1.656800    -5.237700     0.163300
C       4.423500     6.379400    10.372300
H       4.448000     7.308700    10.378700
C      -2.449300    -2.963800    -1.078600
C      -3.028800    -2.660700    -2.026900
H      -3.495800    -2.416600    -2.792800
C      -0.759800     0.719400     1.987600
C      -1.292200     1.427100     1.182400
N       0.667600    -2.217300     4.285400
N      -2.693000     4.217500    -0.860900
C      -3.141500     2.155900    -1.953400
H      -3.514200     1.703100    -2.675100
C      -2.516900     1.458900    -0.945700
H      -2.463600     0.530700    -0.988700
C      -3.209100     3.537000    -1.886300
C       1.730500    -3.217400     6.175500
C       0.372700    -3.453300     3.808100
N      -4.335400     3.617200    -4.003100
C      -4.931300     5.676500    -5.088100
H      -5.306100     6.106900    -5.822300
C      -1.968000     2.132400     0.132900
C      -4.872000     4.304800    -5.017200
H      -5.228300     3.820100    -5.726100
C       0.735200    -4.594900     4.498100
H       0.524300    -5.434700     4.158800
C      -2.093000     3.515800     0.108900
H      -1.732500     3.992300     0.821600
C      -3.829600     4.313100    -2.986500
C       1.318800    -2.113500     5.432400
H       1.513400    -1.263100     5.756500
C      -3.862300     5.704800    -2.961200
H      -3.518300     6.174200    -2.237000
C       1.413100    -4.477000     5.689400
H       1.656800    -5.237700     6.166700
C      -4.423500     6.379400    -4.042300
H      -4.448000     7.308700    -4.048700
C       2.449300    -2.963800     7.408600
C       3.028800    -2.660700     8.356900
H       3.495800    -2.416600     9.122800
