61
Refcode: XUMYAG_comp_0 | Dataset: tmPHOTO | Charge: 1 | Potential Spins: [1, 3, 5]
C       6.080700    15.614400    14.128200
H       5.370700    15.568000    14.800300
H       6.011300    16.459000    13.637200
H       6.954100    15.564800    14.570300
C       4.113900    10.721000    10.077100
H       4.325500    10.162700    10.854300
H       4.827400    10.637800     9.412100
H       3.264200    10.428200     9.685700
Ni      4.011900    14.506100    12.393100
O       2.780100    13.835900    13.784700
C       2.196200    14.774600    14.479700
C       1.273700    14.544200    15.503300
H       1.039300    13.648400    15.717100
N       5.941900    14.485000    13.186100
N       4.396600    15.212900    10.497400
H       4.191800    16.119900    10.513700
N       3.323500    16.358200    13.122700
N       4.202800    12.592600    11.695000
C       3.364100    14.569800     9.615100
C       2.285000    18.513000    14.555800
H       1.962600    19.255200    15.050400
C       1.984600    14.742600    10.287200
H       2.002400    14.334600    11.178600
H       1.297400    14.307400     9.741900
H       1.779800    15.697600    10.370600
C       1.890700    17.207700    14.919900
C       3.114400    18.719300    13.510400
H       3.355600    19.602400    13.253100
C       4.581100    11.669600    12.778400
H       4.512500    10.737000    12.450500
H       3.949700    11.775200    13.532100
C       5.786200    15.115300    10.002800
H       5.886100    15.667200     9.185700
H       5.986800    14.176300     9.763600
C       3.617100    17.609200    12.805600
H       4.195200    17.765900    12.068200
C       2.456000    16.143900    14.169900
C       0.687200    15.582400    16.217200
H       0.069400    15.377600    16.909200
C       3.995400    12.168700    10.511900
C       6.140800    13.234100    14.008600
H       5.490900    13.246900    14.755100
H       7.047200    13.262900    14.405400
C       3.675500    13.077300     9.377700
H       2.896900    12.688600     8.904800
H       4.439700    13.035700     8.749000
C       3.289600    15.238500     8.223600
H       3.095000    16.193500     8.330500
H       2.578700    14.817700     7.696400
H       4.146900    15.129700     7.763400
C       5.986800    11.923900    13.264000
H       6.599500    11.922300    12.486700
H       6.257600    11.181700    13.861900
C       6.762000    15.588800    11.053600
H       6.414200    16.423800    11.457600
H       7.623600    15.803100    10.615200
C       0.980000    16.902100    15.945400
H       0.570400    17.598000    16.445400
C       7.015900    14.576200    12.166000
H       7.138600    13.683600    11.756600
H       7.862200    14.814500    12.620800
