36
Refcode: YIVWAC_comp_0 | Dataset: tmCAT;tmPHOTO | Charge: unknown | Potential Spins: [1, 3, 5]
Au      8.606100    -0.666400     1.054100
Cl      9.093100    -2.822200     0.507300
N       8.995700     2.282700     1.683600
N       6.945200     1.640700     1.936500
C       8.177000     1.202100     1.568000
C       6.995500     2.962300     2.282000
H       6.282700     3.485800     2.570300
C       8.266000     3.362400     2.125600
H       8.596000     4.217400     2.286000
C      10.445200     2.291400     1.312300
C      10.579800     1.969400    -0.170000
H      10.238100     1.088300    -0.338600
H      11.504400     2.008900    -0.422900
H      10.080700     2.609500    -0.682700
C      11.208900     1.284000     2.146000
H      11.056200     1.457500     3.077500
H      12.147600     1.359200     1.955600
H      10.909300     0.398100     1.931100
C      11.031000     3.683400     1.577500
H      10.619600     4.321500     0.988700
H      11.977300     3.667900     1.418400
H      10.863700     3.934000     2.488700
C       5.716800     0.857000     1.861700
H       5.942100    -0.080000     1.748900
H       5.207100     1.135600     1.085200
C       4.866500     1.018900     3.097900
C       3.627700     1.628200     3.028600
H       3.314000     1.937600     2.209900
C       2.854600     1.781400     4.153200
H       2.017200     2.178600     4.081100
C       3.291200     1.364000     5.369000
H       2.776200     1.501900     6.130500
C       4.504900     0.734600     5.453300
H       4.802700     0.426100     6.278800
C       5.288500     0.553300     4.336800
H       6.106000     0.116600     4.411600
