64
Refcode: YUPGUN_comp_0 | Dataset: tmPHOTO | Charge: 0 | Potential Spins: [1, 3, 5]
Zn     -1.815900     0.035200    11.204400
Cl     -6.701300    -1.317200     8.582100
Cl     -5.364700     0.980300     6.882800
Cl      2.163800    -1.572900    14.883400
Cl      3.500500     0.711300    13.174600
N      -3.403900    -1.161200    10.748400
N      -0.932000    -1.290400    12.484500
N      -2.402600     0.874900     9.456200
C      -4.152900    -0.664100     9.713700
C      -3.592000     0.418200     9.003200
O      -6.188300    -3.380400    10.893800
N       0.073400     0.764600    11.210500
N      -2.736600     1.356600    12.561800
C      -2.981800     2.128500     7.648900
C      -1.992700     1.895200     8.668400
C      -3.970300     1.200700     7.857900
C      -5.359400    -1.457300     9.644000
C       0.871000     0.193800    12.166400
C      -3.646900    -3.011600    12.387500
H      -4.284400    -3.650500    12.614800
C       0.730900    -1.731900    13.963100
C       0.319500     2.597000     9.557700
H       0.941200     3.257400     9.347100
O      -2.784100     3.088700     6.735400
C      -2.518400    -3.081600    13.181400
H      -2.554600    -3.763500    13.810100
C      -0.803800     2.640000     8.750200
H      -0.762100     3.318500     8.113900
C       0.323900    -0.899200    12.873800
C      -4.051400    -2.202100    11.318000
O       2.932200     2.862600    10.901400
C      -5.295800    -2.378000    10.627200
C       0.729500     1.784000    10.619600
C       2.037200     1.884500    11.225600
C       2.115200     0.924300    12.164900
C      -2.500300     2.656200    12.545100
H      -1.925500     3.000800    11.901300
C      -3.522500     0.892000    13.508600
H      -3.682200    -0.025100    13.537400
C      -4.117800     1.687000    14.455400
H      -4.671600     1.317300    15.103800
C      -1.324300    -2.334900    13.238900
O      -0.447300    -3.620000    15.084100
C      -0.275600    -2.625700    14.185800
C      -3.885800     3.020500    14.428200
H      -4.268000     3.585900    15.061400
C      -3.074400     3.510500    13.446500
H      -2.911300     4.424000    13.388900
C      -3.728400     3.404600     5.768800
H      -3.924200     2.625700     5.244700
H      -3.383800     4.095600     5.199200
H      -4.532300     3.713300     6.194500
C      -7.368000    -2.963100    11.580100
H      -7.124100    -2.541300    12.407200
H      -7.919900    -3.727700    11.761900
H      -7.853400    -2.340300    11.033200
C       4.126200     2.455200    10.312100
H       4.647300     1.965200    10.952900
H       4.619400     3.225100    10.021200
H       3.935200     1.893400     9.557700
C       0.510400    -4.045300    15.908200
H       1.273100    -4.323500    15.396200
H       0.184500    -4.786500    16.423300
H       0.764100    -3.332800    16.499100
