65
Refcode: ZAVVIE_comp_0 | Dataset: tmPHOTO | Charge: 0 | Potential Spins: [1, 3, 5]
C       0.358100    13.499200    17.689200
C       0.936800    14.040400    16.520000
H       0.706400    13.689400    15.691800
C       1.826400    15.067700    16.587100
H       2.192200    15.405000    15.802000
C       2.196900    15.622600    17.813100
H       2.802900    16.326500    17.844100
C       1.663500    15.120700    18.972000
H       1.914500    15.487300    19.788200
C       0.737000    14.052100    18.941000
C       0.202800    13.497300    20.106700
H       0.428900    13.850200    20.936700
C      -0.642100    12.444400    20.025800
H      -0.983000    12.064000    20.802400
C      -1.015700    11.915000    18.749900
C      -1.955000    10.807200    18.627600
C      -2.492900    10.128800    19.721000
H      -2.202100    10.334700    20.580300
C      -3.446000     9.160300    19.543700
H      -3.775700     8.689700    20.275500
C      -3.916900     8.887700    18.272900
H      -4.600000     8.270100    18.154100
C      -3.366000     9.540600    17.164000
H      -3.681000     9.346500    16.311600
C      -2.358000    10.471900    17.329300
C      -0.519100    13.509000    13.375800
C      -1.343200    14.530500    13.873400
H      -1.713500    14.454100    14.724000
C      -1.604300    15.642200    13.103700
H      -2.168800    16.304900    13.430900
C      -1.026800    15.787300    11.831200
H      -1.215900    16.540200    11.318100
C      -0.204400    14.840300    11.357700
H       0.165700    14.944200    10.512300
C       0.109300    13.691400    12.111900
C       1.029500    12.713000    11.690000
H       1.430600    12.793400    10.853200
C       1.340600    11.664000    12.475200
H       1.980100    11.046400    12.203200
C       0.680100    11.511100    13.728800
C       1.012000    10.436600    14.656900
C       2.144500     9.621000    14.496700
H       2.679400     9.713200    13.740800
C       2.466700     8.689700    15.455900
H       3.215800     8.148500    15.343900
C       1.671300     8.550500    16.597500
H       1.895600     7.927000    17.248400
C       0.553300     9.344600    16.752400
H       0.027800     9.254400    17.517000
C       0.199900    10.270000    15.795100
C      -2.273000    10.422900    14.345200
C      -2.953500    11.044500    13.289700
C      -3.494000    10.368000    12.225600
C      -3.377200     8.995600    12.129100
C      -2.742700     8.328900    13.153700
C      -2.203900     9.038700    14.212600
Cl     -3.276100    13.041600    16.192700
F      -3.106200    12.383600    13.246100
F      -4.144300    11.038200    11.253200
F      -3.911900     8.325000    11.108500
F      -2.664100     6.989800    13.118900
F      -1.624100     8.270100    15.168500
N      -0.537800    12.442400    17.619600
N      -0.252500    12.392400    14.140500
Pt     -1.403200    11.500300    15.873900
