31
Refcode: ZEKTEO_comp_0 | Dataset: tmPHOTO | Charge: 1 | Potential Spins: [1, 3, 5]
Pt      0.267100     3.742100     1.565900
Cl      0.914000     1.619400     0.949700
N       0.351400     3.513500     3.527200
C       0.705700     2.409400     4.234800
C       0.709900     2.400900     5.658100
C       0.323800     3.494700     6.311900
C      -0.021300     4.638000     5.623100
C      -0.030500     4.655100     4.248300
N      -0.391100     5.506600     2.077100
C      -0.399600     5.759100     3.360400
C      -0.850200     7.073000     3.788200
C      -1.189600     7.958600     2.803500
C      -1.146400     7.637800     1.482500
C      -0.658200     6.342700     1.100400
N       0.016300     4.503200    -0.269100
C      -0.505900     5.810300    -0.207200
C      -0.809100     6.453600    -1.415200
C      -0.587300     5.907600    -2.564000
C      -0.049600     4.626100    -2.642100
C       0.209000     3.948600    -1.444800
H       0.965000     1.624500     3.769400
H       0.980600     1.626200     6.134300
H       0.277000     3.486200     7.264400
H      -0.245800     5.426400     6.102100
H      -0.904000     7.306800     4.705700
H      -1.468000     8.832300     3.051000
H      -1.434000     8.259000     0.826000
H      -1.189600     7.322200    -1.385600
H      -0.799900     6.387100    -3.357700
H       0.146000     4.231900    -3.484200
H       0.527800     3.057900    -1.485200
