46
Refcode: ZORWAG_comp_0 | Dataset: tmPHOTO | Charge: unknown | Potential Spins: [1, 3, 5]
Re      2.201200    -0.738600     3.711200
C       6.204800     0.663700     2.234100
H       6.880600     0.715500     1.595200
C       5.081400    -0.147100     2.126600
C       4.704200     0.819500     4.081300
C       3.956500     1.072200     5.317100
C       2.229500     0.706000     6.691500
C       2.985300     1.567900     7.417400
H       2.755300     1.855400     8.272400
C       4.915600    -1.118800     0.983900
H       5.499100    -0.872600     0.250800
H       3.998200    -1.097100     0.663900
C       5.278700    -2.585800     1.504500
H       6.093900    -2.560800     2.028700
H       4.563900    -2.927300     2.065700
C       5.462300    -3.494500     0.286600
H       6.095000    -3.090600    -0.335500
H       5.817000    -4.354100     0.558800
C       4.152700    -3.673800    -0.382100
H       3.695200    -4.418900     0.015500
H       4.289700    -3.843600    -1.317000
H       3.628300    -2.879700    -0.272200
C       0.962100     0.088700     7.093800
H       1.084500    -0.873000     7.124900
H       0.299700     0.273200     6.407300
C       0.402200     0.529900     8.406100
H       1.045600     0.310400     9.101000
H       0.308100     1.494400     8.391800
C      -0.885600    -0.068600     8.752400
H      -0.747300    -1.011200     8.919500
H      -1.471100     0.011900     7.985800
C      -1.600200     0.503000     9.934500
H      -0.954800     0.808500    10.575700
H      -2.152900    -0.170600    10.324900
H      -2.140600     1.242900     9.646700
C       1.687600    -1.499600     2.041800
C       2.782400    -2.424300     4.301000
C       0.459100    -1.272700     4.253200
Cl      1.586700     1.514200     2.888400
N       4.241500     0.001400     3.195300
N       2.837500     0.429500     5.497400
O       1.346700    -1.930500     1.050800
O       3.173400    -3.462200     4.679500
O      -0.598000    -1.613600     4.619800
S       6.189200     1.553100     3.692000
S       4.401200     2.071000     6.600700
