63
Refcode: ZOXQUA_comp_0 | Dataset: tmPHOTO | Charge: 0 | Potential Spins: [1, 3, 5]
Pd      0.388800     4.419300     1.572900
N       0.364300     4.570600    -0.422000
N       1.796000     5.854400     1.661900
N       0.366400     4.306400     3.580500
N      -0.976100     2.944800     1.485000
C      -0.293500     3.735500    -1.295000
C      -0.063000     4.187500    -2.659600
H      -0.401100     3.793600    -3.455800
C       0.716700     5.259400    -2.569700
H       1.020900     5.782300    -3.302000
C       1.020100     5.501000    -1.205100
C       1.893600     6.444900    -0.688800
C       2.284300     6.613000     0.627900
C       3.257400     7.522800     1.125300
H       3.737800     8.161500     0.612000
C       3.378000     7.323300     2.436300
H       3.953100     7.795200     3.026500
C       2.482700     6.274500     2.787200
C       2.229500     5.776600     4.066300
C       1.235100     4.955000     4.463600
C       0.885900     4.597500     5.794900
H       1.317700     4.903900     6.583800
C      -0.153900     3.755200     5.749900
H      -0.590700     3.356500     6.493900
C      -0.488400     3.565500     4.347600
C      -1.438900     2.669900     3.902400
C      -1.624900     2.350400     2.539200
C      -2.503200     1.332000     2.062100
H      -3.087700     0.796600     2.585700
C      -2.338700     1.274500     0.707700
H      -2.759500     0.667600     0.110200
C      -1.407100     2.304900     0.364000
C      -1.061900     2.621500    -0.952800
Br      2.737000     7.593800    -1.951500
Br      3.428900     6.353700     5.437400
C      -2.224400     1.905300     4.930600
C      -3.113900     2.586300     5.742700
H      -3.270800     3.513400     5.606400
C      -3.776100     1.912000     6.756300
H      -4.385700     2.388800     7.306000
C      -3.574800     0.569100     6.985500
C      -2.676100    -0.059900     6.164700
H      -2.503900    -0.984500     6.303900
C      -2.007900     0.588100     5.145200
H      -1.398600     0.109300     4.595600
C      -4.288700    -0.146000     8.089000
H      -4.331700    -1.103000     7.883100
H      -5.198200     0.210800     8.174600
H      -3.805100    -0.013100     8.930100
C      -1.512800     1.705500    -2.041800
C      -0.901300     0.480600    -2.169500
H      -0.210700     0.238100    -1.564700
C      -1.272100    -0.401200    -3.164300
H      -0.837900    -1.244100    -3.223700
C      -2.261900    -0.085100    -4.073500
C      -2.888400     1.154500    -3.919800
H      -3.580300     1.404500    -4.521600
C      -2.519700     2.028000    -2.906100
H      -2.972300     2.859100    -2.813300
C      -2.610000    -1.011500    -5.178600
H      -2.026700    -1.798100    -5.142300
H      -2.487600    -0.554400    -6.038500
H      -3.544000    -1.291500    -5.088600
