78
Refcode: ABEVEL_comp_0 | Dataset: tmCAT | Charge: 0 | Potential Spins: [1, 3, 5]
Pd      7.980400     0.994300     3.844600
P       6.759400     2.264900     2.336800
P       8.695000    -0.819700     5.033000
S       9.668100     2.436100     4.687800
O       5.873200     1.141100     1.507300
O       7.843500    -2.089300     4.401800
C       6.866000    -0.433400     2.993300
C       6.019600    -0.175100     1.926700
C       6.983900    -1.774200     3.352600
C       6.329500    -2.799500     2.718300
H       6.448100    -3.682300     2.987000
C       9.040300     3.930300     5.354000
C       5.374500     3.346800     2.974300
C       7.723500     3.041600     0.945900
C       5.331000    -1.179600     1.260600
H       4.769900    -0.972000     0.550000
C       5.486300    -2.482000     1.664400
H       5.021600    -3.158500     1.227200
C       8.124800    -0.849100     6.824400
C       9.709200     5.106700     5.075800
H      10.453500     5.096800     4.519400
C       5.889400     4.745300     3.314500
H       6.090200     5.218800     2.505300
H       6.684700     4.672000     3.848600
H       5.217400     5.222700     3.807200
C       8.175800     6.351300     6.420700
H       7.877100     7.162800     6.762400
C       7.947900     3.985100     6.187000
H       7.497800     3.199800     6.398400
C       7.507700     5.174200     6.713200
H       6.760900     5.188400     7.267900
C       9.276700     6.298600     5.622600
H       9.746400     7.080900     5.443000
C       6.836100     3.581800    -0.174900
H       6.324800     4.326000     0.152600
H       6.239500     2.891200    -0.472100
H       7.385000     3.868900    -0.907700
C       4.877200     2.640000     4.253900
H       4.138600     3.129900     4.622700
H       5.589800     2.602400     4.896200
H       4.594100     1.748200     4.037700
C       4.199300     3.460600     1.993400
H       3.488400     3.960200     2.402000
H       3.884200     2.581600     1.767700
H       4.489300     3.909400     1.195400
C       8.650900     4.120200     1.465700
H       9.248900     4.392300     0.766200
H       9.157800     3.777500     2.204900
H       8.133000     4.875400     1.756600
C       8.822600     0.248800     7.620900
H       8.427600     0.311000     8.493600
H       8.723400     1.087800     7.164600
H       9.755000     0.038200     7.705100
C       6.629000    -0.555200     6.768800
H       6.274800    -0.527300     7.660600
H       6.186200    -1.244400     6.269600
H       6.485100     0.292500     6.341200
C       8.343100    -2.201600     7.509600
H       9.284600    -2.378600     7.576300
H       7.923000    -2.894100     6.992900
H       7.958600    -2.180600     8.388700
C       8.584300     1.888700     0.399000
H       9.085700     2.196400    -0.360900
H       8.016900     1.162000     0.135100
H       9.189600     1.590000     1.081000
C      10.421000    -1.407300     4.778500
C      11.421300    -0.654100     5.651300
H      12.314400    -0.861700     5.368300
H      11.307500    -0.915700     6.568500
H      11.271400     0.291300     5.568600
C      10.738400    -1.019300     3.330300
H      10.620500    -0.073500     3.220700
H      10.146600    -1.487500     2.737400
H      11.646600    -1.255300     3.128500
C      10.581200    -2.929800     4.969300
H      11.513500    -3.157300     4.956600
H      10.129700    -3.390900     4.258700
H      10.200400    -3.187600     5.811800
