108
Refcode: ADEZOY_comp_0 | Dataset: tmCAT | Charge: 0 | Potential Spins: [1, 3, 5]
Ta     11.134900    -1.854000     9.047800
Cl     13.166900    -1.970200    10.205500
P       8.999900    -2.751000    11.601500
F      12.108400    -7.030500     4.591800
F      13.650800    -6.197400     2.590700
F      15.575000    -4.335700     2.956400
F      15.884600    -3.227500     5.467200
F      14.241500    -3.868800     7.420700
F      12.129800    -8.729500     6.703600
F      13.388200   -10.678400     7.992400
F      14.931400   -10.081700    10.172200
F      15.112500    -7.569000    10.994100
F      13.864000    -5.622000     9.774300
F      10.377000    -5.042800     4.971700
F       7.920300    -5.722800     4.475000
F       6.475600    -7.292000     6.223600
F       7.744200    -8.264500     8.430800
F      10.254200    -7.685300     8.921500
N       9.920200    -2.245300    10.343700
C      10.171600     0.162700     8.254500
C      11.460600     0.406800     8.671400
C      12.334600    -0.091100     7.813800
C      11.714300    -0.720700     6.848900
C      10.264800    -0.647100     7.087200
C       8.970300     0.852400     8.826200
C      11.872000     1.433600     9.791000
C      13.913100     0.135600     7.742300
C      12.227300    -1.329000     5.574400
C       9.117000    -1.067500     6.265300
C      10.076900    -3.830000    12.733100
C       9.179400    -4.668900    13.697900
C      11.072300    -2.938900    13.495400
C      10.931500    -4.746400    11.875500
C       8.390600    -1.265100    12.590200
C       7.930600    -1.536300    13.995700
C       7.251600    -0.561800    11.792100
C       9.570000    -0.191800    12.590200
C       7.551000    -3.737100    10.791600
C       8.079900    -5.100900    10.362800
C       6.378800    -3.985000    11.863600
C       7.063700    -2.960200     9.636200
C      10.857800    -3.487100     7.754200
C      11.664500    -4.574000     8.397400
C      13.047300    -5.455400     6.122400
C      12.980700    -6.001800     4.836000
C      13.872100    -5.625900     3.775900
C      14.743600    -4.680500     3.990300
C      14.920100    -4.132300     5.181400
C      14.038400    -4.531300     6.241500
C      12.871900    -7.067300     8.171100
C      12.817900    -8.394300     7.813800
C      13.492000    -9.473400     8.385500
C      14.280400    -9.132400     9.505100
C      14.322800    -7.904200     9.910100
C      13.709900    -6.871600     9.255000
C      10.511000    -6.389200     6.944200
C       9.829500    -5.891300     5.836500
C       8.456700    -6.243900     5.586400
C       7.825300    -7.015000     6.420100
C       8.361900    -7.468300     7.551700
C       9.736900    -7.168000     7.742300
B      12.011800    -5.870000     7.408800
H       8.781500     1.648600     8.303300
H       9.144300     1.112000     9.731500
H       8.211700     0.273200     8.792900
H      11.985100     2.305400     9.412200
H      12.701400     1.150800    10.192400
H      11.190500     1.464600    10.468800
H      14.098100     0.897000     7.178900
H      14.332400    -0.641200     7.369500
H      14.251500     0.300300     8.620100
H      12.356100    -0.639300     4.914600
H      11.597100    -1.970200     5.244500
H      13.070700    -1.764900     5.738800
H       8.963500    -0.416500     5.579200
H       8.337800    -1.141100     6.820400
H       9.309200    -1.917900     5.866300
H       9.731200    -5.195800    14.281500
H       8.609400    -5.246200    13.186900
H       8.637000    -4.074100    14.229100
H      11.616900    -3.481300    14.066000
H      10.583100    -2.303400    14.025500
H      11.625200    -2.472000    12.866500
H      11.493100    -5.283000    12.431700
H      11.469600    -4.217500    11.282300
H      10.354100    -5.316000    11.355000
H       7.623400    -0.720700    14.393500
H       8.662000    -1.888900    14.509000
H       7.214000    -2.175600    13.979000
H       6.923900     0.189900    12.295900
H       6.539600    -1.175900    11.628900
H       7.598200    -0.242200    10.947600
H       9.294800     0.583100    13.084500
H       9.774000     0.063900    11.684900
H      10.350000    -0.571500    12.997500
H       7.371000    -5.593000     9.941100
H       8.383600    -5.583300    11.138200
H       8.802300    -4.984700     9.750500
H       5.647800    -4.432500    11.439500
H       6.082100    -3.142300    12.214900
H       6.713600    -4.527500    12.585400
H       6.329300    -3.419300     9.226400
H       7.777700    -2.865300     8.994200
H       6.782000    -2.090300     9.924400
H       9.919300    -3.733200     7.699400
H      11.184000    -3.287600     6.864400
H      11.179400    -4.901400     9.172800
H      12.498200    -4.192300     8.714200
