98
Refcode: ADUGIS_comp_0 | Dataset: tmCAT | Charge: 0 | Potential Spins: [1, 3, 5]
Pt      9.098700     3.487000    15.868900
P       7.156900     4.376500    16.537200
P      10.306100     3.773200    17.770100
Cl     11.028000     2.504000    14.922800
C       5.146600     3.406000    14.863300
H       5.207300     2.636200    15.380900
C       6.232500     3.430200    17.791400
C       6.730500     6.558700    18.320900
H       6.164300     6.002800    18.804600
C       7.488800     1.139000    14.716000
H       7.740600     1.384200    15.575900
C       4.293100     3.441300    13.776500
H       3.778000     2.695700    13.567500
O      10.060300     7.547400    13.744600
N       7.360400     1.607100    12.345300
C       8.383300     8.239500    16.881700
H       8.931400     8.809500    16.392000
C       7.703000     1.932000    13.677000
C       7.766800     8.708700    18.024300
H       7.903100     9.584400    18.308900
C       4.971300     3.860000    18.205400
H       4.580000     4.605500    17.811300
C       6.080000     1.606100    19.346000
H       6.449000     0.840400    19.724200
N       8.814300     5.198800    13.398300
C       8.201000     6.923900    16.447800
H       8.633600     6.618300    15.683400
C       4.305800     3.171900    19.204700
H       3.466600     3.463500    19.485300
C       6.773400     2.273000    18.332800
H       7.588500     1.945100    18.026300
C       5.926400     4.532900    15.185800
C      11.848000     4.645900    17.357500
C       5.821400     5.681000    14.395500
H       6.329800     6.433600    14.594600
C       4.204000     4.574300    13.010100
H       3.635600     4.590400    12.273600
C       7.363000     6.070400    17.174300
C       9.663000     4.734700    19.208600
C       9.995500     6.088600    19.381800
H      10.530000     6.518400    18.752800
C       8.769900     6.144100    12.335300
C       6.887400    -0.040400    14.465200
H       6.716000    -0.603300    15.183800
C       8.853000     4.122300    20.152200
H       8.613300     3.230400    20.044700
C       9.442200     8.340400    11.521200
H       9.900900     9.138400    11.652600
C       9.422100     7.370900    12.522400
C       8.078300     5.953400    11.145000
H       7.602000     5.165500    11.011600
C       9.535100     6.780700    20.478600
H       9.760800     7.676600    20.586100
C       8.395300     4.829500    21.252900
H       7.853800     4.407800    21.881900
C       4.953500     5.690100    13.318700
H       4.873800     6.456800    12.797100
C      10.792400     2.210500    18.579600
C       6.757600     0.378300    12.148200
H       6.515100     0.119000    11.288300
C       6.940100     7.857200    18.746800
H       6.525800     8.162800    19.521200
C       4.872700     2.057100    19.791900
H       4.434300     1.618200    20.484600
C       8.089100     6.925000    10.143800
H       7.632500     6.775600     9.347500
C      13.051700     4.401700    17.986500
H      13.113400     3.734900    18.631400
C       6.513600    -0.466100    13.209200
H       6.111300    -1.294400    13.081800
C      10.649700     0.993700    17.928700
H      10.279600     0.968500    17.076800
C      11.780400     5.695100    16.410000
H      10.978600     5.875700    15.974000
C      10.623900     8.817600    14.019300
H      11.035000     8.805500    14.887200
H       9.935300     9.484500    14.001400
H      11.286100     9.024400    13.354500
C       8.734800     6.153200    21.426100
H       8.432400     6.622300    22.168600
C      12.910000     6.454800    16.127300
H      12.851600     7.146900    15.508200
C      14.178400     5.153400    17.654000
H      14.997700     4.951600    18.046200
C      11.339200     2.218500    19.867500
H      11.441300     3.025600    20.321400
C      14.097000     6.205600    16.738400
H      14.843400     6.726200    16.549300
C      11.602300    -0.148300    19.803800
H      11.888200    -0.935200    20.207900
C      11.726600     1.044200    20.472600
H      12.075400     1.057300    21.334500
C      11.052800    -0.189700    18.539800
H      10.951600    -1.001800    18.097900
C       8.777300     8.107400    10.328900
H       8.791300     8.747000     9.654100
N       8.318200     4.067800    13.036000
N       8.270700     3.176000    14.031300
