101
Refcode: ADUVOL_comp_0 | Dataset: tmCAT | Charge: -4 | Potential Spins: [1, 3, 5]
Ni      6.377300     3.856200    10.650600
Cl      6.317500     1.693800    10.917600
Cl      6.425600     6.014300    10.277300
N       8.282300     3.822600     8.430900
N       9.207400     3.242300    10.301900
N       3.508500     3.566800    11.226300
N       4.540300     4.723900    12.748200
C       8.047000     3.645400     9.746700
C       9.634100     3.362700     8.019700
H      10.072300     4.016200     7.417400
H       9.596900     2.480400     7.572900
C      10.341800     3.278900     9.355300
H      10.893500     2.459300     9.420700
H      10.914900     4.071300     9.510300
C       9.481000     2.953400    11.682800
C       9.727500     1.622500    12.043400
C      10.134700     1.351800    13.347900
H      10.280800     0.450400    13.609100
C      10.331600     2.370700    14.277600
C      10.085800     3.676000    13.886400
H      10.212400     4.377500    14.513200
C       9.658400     3.988200    12.595300
C       9.582300     0.496900    11.057300
H       8.972800     0.767900    10.340600
H       9.220000    -0.291600    11.513600
H      10.459900     0.280300    10.675400
C      10.832400     2.053600    15.677800
H      10.419700     2.668300    16.318800
H      11.806000     2.156400    15.707300
H      10.592700     1.132400    15.910200
C       9.437800     5.435100    12.218400
H       9.862900     5.615300    11.352800
H       9.832000     6.015400    12.902700
H       8.476300     5.612000    12.154100
C       7.340600     4.336000     7.470100
C       7.492200     5.668900     7.062600
C       6.560700     6.176000     6.160900
H       6.647500     7.076600     5.870100
C       5.515400     5.417100     5.674800
C       5.449900     4.078000     6.042500
H       4.769100     3.531800     5.669800
C       6.354500     3.512400     6.940000
C       8.606000     6.539200     7.571100
H       8.634500     6.493400     8.550800
H       8.450300     7.465400     7.290900
H       9.458800     6.226000     7.203900
C       4.466300     6.035700     4.771500
H       3.792500     5.360900     4.544300
H       4.892400     6.360500     3.951200
H       4.035900     6.785000     5.234900
C       6.241600     2.056200     7.324900
H       7.125900     1.636300     7.277700
H       5.630500     1.602300     6.708300
H       5.894400     1.986200     8.239800
C       4.709500     4.052200    11.581300
C       2.405100     4.021100    12.109300
H       1.822400     3.267700    12.375500
H       1.857000     4.719400    11.671700
C       3.171100     4.582100    13.302600
H       2.805000     5.456500    13.588000
H       3.155100     3.954700    14.067800
C       5.594700     5.217000    13.588800
C       5.791400     6.595400    13.697100
C       6.787600     7.052000    14.567000
H       6.941800     7.987100    14.642400
C       7.555300     6.180700    15.322400
C       7.312000     4.826600    15.213800
H       7.824500     4.223600    15.738900
C       6.334900     4.313800    14.356900
C       4.963100     7.589200    12.929000
H       4.324100     7.110600    12.359700
H       5.549100     8.141000    12.370200
H       4.475200     8.163700    13.556400
C       8.640500     6.706700    16.244700
H       9.390300     6.075400    16.260800
H       8.279100     6.806000    17.149100
H       8.952500     7.577200    15.920800
C       6.119000     2.828000    14.288600
H       6.318800     2.428500    15.161600
H       6.711000     2.443100    13.609100
H       5.186700     2.644000    14.051900
C       3.187600     2.803700    10.046200
C       3.028200     3.448700     8.822900
C       2.629300     2.683200     7.726600
H       2.521000     3.109000     6.884900
C       2.386300     1.325200     7.823600
C       2.542100     0.718800     9.069000
H       2.375100    -0.212200     9.149200
C       2.932400     1.434600    10.198500
C       3.242200     4.936000     8.688700
H       2.759900     5.401400     9.404900
H       2.907200     5.237800     7.818100
H       4.200000     5.135700     8.756400
C       1.926700     0.525100     6.619300
H       2.583100     0.615600     5.896500
H       1.058500     0.861900     6.315600
H       1.842700    -0.419600     6.866500
C       3.042400     0.734400    11.535700
H       3.837100     1.057900    12.009100
H       3.118900    -0.231700    11.392300
H       2.243900     0.923500    12.069700
