42
Refcode: AFOHIM_comp_0 | Dataset: tmCAT | Charge: 0 | Potential Spins: [1, 3, 5]
Pd     12.230100     2.476000    11.973000
Cl     11.905200     0.651400    10.486100
N      10.929900     3.750000    10.787500
H      11.286700     3.837100     9.966100
H      10.134000     3.339100    10.694900
C      13.484900     1.358800    13.128900
H      13.154200     0.459700    13.183800
H      13.531200     1.737800    14.010000
H      14.360900     1.353500    12.737000
P      12.445700     4.214000    13.284500
C      11.395000     5.469600    12.474800
C      11.203400     6.758300    12.979600
H      11.687300     7.041600    13.721800
C      10.302900     7.611600    12.383600
H      10.175400     8.465900    12.728700
C       9.589300     7.203600    11.274400
H       8.967500     7.776100    10.886700
C       9.795900     5.948700    10.739500
H       9.328800     5.683500     9.980600
C      10.702500     5.081200    11.336600
C      11.786000     4.096900    14.974100
C      10.441600     4.327900    15.235300
H       9.876400     4.606900    14.551100
C       9.945700     4.144000    16.513500
H       9.046100     4.306200    16.684500
C      10.763300     3.726500    17.526300
H      10.421200     3.616600    18.384600
C      12.075900     3.471700    17.279500
H      12.627300     3.168600    17.964800
C      12.594500     3.664000    16.008600
H      13.496500     3.500200    15.850000
C      14.093100     4.958200    13.481300
C      14.314700     6.044600    14.321000
H      13.627300     6.361600    14.861100
C      15.548500     6.651600    14.355200
H      15.692000     7.379800    14.917100
C      16.574800     6.185800    13.561200
H      17.400900     6.614800    13.570500
C      16.381800     5.096900    12.760900
H      17.083300     4.771100    12.244600
C      15.145000     4.477500    12.717300
H      15.019800     3.734000    12.172100
