93
Refcode: AFUPUO_comp_0 | Dataset: tmCAT;tmPHOTO | Charge: 0 | Potential Spins: [1, 3, 5]
Zn      3.173300     5.343900     8.832000
O      10.831200     0.750500    10.631700
O       6.751300     8.426200     1.029500
N       2.591700     6.574200     7.294500
N       4.939500     4.990500     7.867300
C       1.387200     7.220600     7.182200
C       1.338800     7.928100     5.923200
H       0.611800     8.445400     5.595900
C       2.517400     7.716500     5.298500
H       2.778400     8.061700     4.453100
C       3.307700     6.865800     6.160800
C       4.588000     6.377400     5.849800
C       5.324100     5.486000     6.638600
C       6.623300     4.959100     6.293500
H       7.111900     5.139700     5.498800
C       7.012900     4.159700     7.310700
H       7.825500     3.669100     7.364100
C       5.957000     4.190600     8.307900
C       5.997600     3.495900     9.530400
C       7.251100     2.742500     9.837600
C       7.240000     1.364800    10.051100
H       6.415900     0.894600    10.010100
C       8.415700     0.662600    10.323200
H       8.388500    -0.274700    10.469400
C       9.621800     1.343400    10.377900
C       9.648100     2.720000    10.170900
H      10.473900     3.188100    10.209800
C       8.477800     3.408300     9.907900
H       8.508400     4.347800     9.773500
C       5.213600     6.869000     4.578000
C       5.545700     8.216700     4.435400
H       5.411600     8.809900     5.164900
C       6.070200     8.707300     3.249100
H       6.296600     9.626400     3.172400
C       6.263800     7.849000     2.169300
C       5.985900     6.492800     2.305800
H       6.154900     5.894300     1.586200
C       5.458700     6.018200     3.505800
H       5.262400     5.092700     3.592800
C      10.800200    -0.607100    11.073700
H      11.712300    -0.907400    11.269600
H      10.414100    -1.170300    10.370500
H      10.254600    -0.674400    11.884300
C       7.208300     7.541200     0.005700
H       7.622000     8.060700    -0.715400
H       6.448700     7.034600    -0.351500
H       7.866500     6.920300     0.381500
O      -4.484700     9.937200     7.032200
O      -0.404800     2.261500    16.634500
N       3.754800     4.113500    10.369400
N       1.407000     5.697200     9.796600
C       4.959300     3.467100    10.481800
C       5.007700     2.759600    11.740700
H       5.734800     2.242300    12.068000
C       3.829200     2.971200    12.365500
H       3.568100     2.626000    13.210900
C       3.038800     3.821900    11.503100
C       1.758500     4.310300    11.814200
C       1.022400     5.201700    11.025300
C      -0.276800     5.728600    11.370400
H      -0.765400     5.548000    12.165100
C      -0.666400     6.528000    10.353200
H      -1.479000     7.018600    10.299800
C       0.389600     6.497100     9.356100
C       0.349000     7.191800     8.133500
C      -0.904600     7.945200     7.826400
C      -0.893500     9.322900     7.612800
H      -0.069400     9.793100     7.653800
C      -2.069200    10.025100     7.340800
H      -2.042000    10.962400     7.194500
C      -3.275300     9.344300     7.286000
C      -3.301600     7.967700     7.493000
H      -4.127400     7.499600     7.454200
C      -2.131300     7.279400     7.756100
H      -2.161900     6.339900     7.890500
C       1.132900     3.818700    13.086000
C       0.800800     2.471000    13.228500
H       0.934900     1.877800    12.499000
C       0.276300     1.980400    14.414800
H       0.049900     1.061300    14.491500
C       0.082700     2.838700    15.494600
C       0.360600     4.194900    15.358100
H       0.191600     4.793400    16.077700
C       0.887800     4.669500    14.158200
H       1.084100     5.595000    14.071100
C      -4.453700    11.294800     6.590200
H      -5.365800    11.595100     6.394300
H      -4.067600    11.858000     7.293400
H      -3.908100    11.362100     5.779600
C      -0.861800     3.146500    17.658300
H      -1.275500     2.627000    18.379300
H      -0.102200     3.653100    18.015400
H      -1.520000     3.767400    17.282400
