33
Refcode: AGIQUF_comp_0 | Dataset: tmCAT | Charge: unknown | Potential Spins: [1, 3, 5]
Br      8.979600     6.983700     4.890300
C      10.682500     3.073100     5.519100
H      10.203200     2.642100     4.821600
C      10.965400     2.355000     6.657100
H      10.702700     1.445300     6.737400
C      11.646900     2.996600     7.690900
H      11.822200     2.541300     8.506400
C      12.062300     4.302500     7.516500
H      12.531300     4.755500     8.207800
C      11.782900     4.946300     6.310800
C      12.098600     6.749900     4.755100
C      12.137400     4.643400     2.766500
C      10.670800     6.800700     2.190600
C       8.153400     5.137200     1.279700
H       7.338600     4.647900     1.042600
H       8.755400     5.166000     0.506900
H       7.920300     6.051500     1.545700
C       7.605700     3.876800     3.762700
H       7.335600     4.671400     4.267000
H       7.893900     3.176100     4.385000
H       6.848400     3.551800     3.233200
C       9.431100     2.695900     1.924600
H       8.630100     2.265600     1.559500
H       9.824500     2.122500     2.614700
H      10.082600     2.835200     1.205700
N      11.055500     4.364600     5.343000
N      12.276200     6.192400     6.024800
H      12.707200     6.645400     6.643300
O      12.668100     7.812600     4.509000
O      12.948000     4.066200     2.268900
O      10.576600     7.485400     1.289800
P       8.980300     4.302000     2.654800
Ru     10.776000     5.599700     3.641300
