70
Refcode: AGUKOD_comp_0 | Dataset: tmCAT | Charge: unknown | Potential Spins: [1, 3, 5]
C       6.138600    -2.576900    -3.060800
C       6.900300    -1.266700    -4.702000
C       7.768300    -2.323400    -4.604600
C       8.853000    -2.474500    -5.462700
H       9.455600    -3.205500    -5.385300
C       9.009400    -1.499800    -6.440500
C       8.106700    -0.417900    -6.503200
H       8.245100     0.235100    -7.180500
C       7.021000    -0.238800    -5.640100
C      10.130600    -1.571700    -7.489900
C      11.156100    -2.663400    -7.158600
H      11.545400    -2.487900    -6.276200
H      11.865200    -2.662100    -7.836600
H      10.712300    -3.536900    -7.151100
C       9.493700    -1.877500    -8.853900
H       8.993200    -2.719400    -8.799500
H      10.196800    -1.959100    -9.530400
H       8.885100    -1.151400    -9.100900
C      10.869200    -0.224200    -7.577100
H      10.241900     0.473900    -7.858000
H      11.596200    -0.292400    -8.231400
H      11.240900     0.001200    -6.700300
C       6.062500     0.941800    -5.704400
C       6.482500     1.971300    -6.749900
H       7.386800     2.290500    -6.548300
H       5.857700     2.725500    -6.735000
H       6.473300     1.555900    -7.639200
C       6.034900     1.649700    -4.337600
H       5.754500     1.014900    -3.646200
H       5.403100     2.399000    -4.369100
H       6.930900     1.987200    -4.126400
C       4.662200     0.428900    -6.056400
H       4.700000    -0.074300    -6.897700
H       4.051400     1.189100    -6.158900
H       4.338600    -0.156000    -5.340000
C       7.828600    -4.362300    -3.085300
C       9.126900    -4.370300    -2.625200
H       9.655300    -3.582000    -2.659300
C       9.654500    -5.549700    -2.110700
H      10.549700    -5.572800    -1.792400
C       8.872000    -6.690100    -2.062900
H       9.227200    -7.489300    -1.693800
C       7.583000    -6.675400    -2.547300
H       7.060800    -7.468600    -2.526000
C       7.040200    -5.500900    -3.070900
H       6.152500    -5.483900    -3.408800
C       6.493600    -3.071300    -0.217400
H       7.104800    -3.188500    -0.936200
C       5.778600    -1.865300    -0.175200
H       5.898100    -1.252500    -0.890900
C       4.822000    -1.473000     0.942600
H       4.872000    -0.494700     1.082900
H       5.106400    -1.915300     1.781800
C       3.365700    -1.865300     0.634300
H       2.874700    -1.972500     1.488400
H       2.935100    -1.130600     0.130700
C       3.244400    -3.139700    -0.162400
H       2.632700    -3.147000    -0.888200
C       3.953400    -4.289900     0.083000
H       3.815500    -5.023300    -0.504100
C       4.932900    -4.478700     1.215000
H       4.868100    -5.407100     1.549700
H       4.694000    -3.869500     1.957800
C       6.377500    -4.200900     0.779700
H       6.917300    -3.979200     1.579100
H       6.756000    -5.023300     0.378800
Cl      3.524400    -4.195500    -3.241100
N       7.255800    -3.126100    -3.559000
O       5.901300    -1.424800    -3.739600
Rh      4.919500    -3.172400    -1.607000
