68
Refcode: AHAJOI_comp_0 | Dataset: tmCAT | Charge: 0 | Potential Spins: [1, 3, 5]
Pd      1.114700     5.559500     4.547100
I       1.549600     3.445300     6.086100
I       3.726800     5.945500     4.337800
P       0.804600     7.420700     3.277900
C       1.235500     8.954000     4.160500
C       1.098200    10.195300     3.553700
C       1.336200    11.360400     4.267300
C       1.710100    11.286000     5.585100
C       1.868100    10.061000     6.185300
C       1.629700     8.903200     5.491500
C       1.786100     7.338900     1.750500
C       1.516500     6.300800     0.868000
C       2.291400     6.128400    -0.271700
C       3.318000     6.981400    -0.535600
C       3.588800     8.030300     0.321900
C       2.834200     8.197300     1.465500
C      -0.866800     7.763500     2.602600
C      -2.105100     7.495000     3.487700
C      -3.312100     8.001300     2.651400
C      -4.631800     7.667400     3.243700
C      -5.485000     6.809000     2.718700
C      -2.034700     8.239000     4.818700
C      -2.263600     5.985100     3.676400
P      -1.088300     5.085000     4.731800
C      -1.429500     3.388200     4.188200
C      -1.071200     3.052400     2.887500
C      -1.234200     1.773000     2.403400
C      -1.795000     0.814800     3.202800
C      -2.175800     1.127000     4.488900
C      -1.991600     2.397300     4.987600
C      -1.744400     5.293700     6.416200
C      -3.077600     5.001500     6.691900
C      -3.589300     5.221100     7.970100
C      -2.791600     5.754600     8.948900
C      -1.469900     6.054000     8.689000
C      -0.949200     5.819900     7.426600
H       0.839700    10.246100     2.640900
H       1.238900    12.206100     3.846500
H       1.861200    12.080900     6.082400
H       2.145500    10.017500     7.092900
H       1.734400     8.063000     5.922800
H       0.796600     5.707400     1.044700
H       2.104700     5.411600    -0.868000
H       3.850200     6.856200    -1.312500
H       4.292300     8.636400     0.125300
H       3.037200     8.906800     2.063100
H      -0.964600     7.235400     1.820400
H      -0.888100     8.683600     2.367800
H      -3.262900     7.609300     1.787400
H      -3.248600     8.945000     2.574900
H      -4.878200     8.099300     4.053600
H      -6.315700     6.640200     3.150000
H      -5.270100     6.358900     1.910100
H      -1.937300     9.170000     4.656500
H      -2.833400     8.086600     5.310800
H      -1.289900     7.925100     5.318700
H      -2.214400     5.591300     2.812400
H      -3.128700     5.839900     4.040400
H      -0.704800     3.720300     2.320300
H      -0.960100     1.558900     1.519600
H      -1.922100    -0.067100     2.870400
H      -2.570700     0.459100     5.037700
H      -2.247500     2.596900     5.880600
H      -3.639000     4.651200     6.008600
H      -4.493000     5.001500     8.164000
H      -3.151700     5.919700     9.812900
H      -0.918900     6.418800     9.372300
H      -0.038300     6.021400     7.249900
