39
Refcode: AHAZIT_comp_0 | Dataset: tmCAT | Charge: 0 | Potential Spins: [1, 3, 5]
Cr      0.443500     4.338100     8.915500
C       2.328000     4.772100     9.973200
C       2.586400     4.431700     8.605300
C       2.148100     3.242200     8.066700
C       1.382800     2.341500     8.840300
C       1.115000     2.631900    10.170100
C       1.570700     3.840100    10.717500
C       2.830100     6.005700    10.557500
C       2.941400     7.835200    12.114700
C       3.562600     7.558700    13.452200
C       4.432800     6.486000    13.627500
C       5.006500     6.283600    14.878600
C       4.774700     7.122100    15.896000
C       3.941500     8.172300    15.730800
C       3.313800     8.376900    14.501300
C       3.441200     5.321000     7.756800
C      -0.977800     4.707300    10.046900
C       0.261000     6.050100     8.211500
C      -0.742500     3.737200     7.636200
O       1.215200     6.276100    12.147700
O      -1.841000     4.954300    10.759500
O       0.158100     7.101600     7.792400
O      -1.461100     3.350600     6.833400
N       2.288900     6.626500    11.558400
F       3.102100     6.589600     7.761900
F       4.712500     5.294600     8.164500
F       3.460000     4.936200     6.489200
H       2.362200     3.026100     7.164900
H       1.052800     1.538500     8.449100
H       0.626300     2.015900    10.706100
H       1.363400     4.039600    11.624400
H       3.614400     6.385600    10.176500
H       3.618200     8.127700    11.513900
H       2.290100     8.521600    12.212500
H       4.631900     5.901000    12.902200
H       5.576700     5.532500    15.014500
H       5.196000     6.977700    16.736800
H       3.781900     8.773100    16.451000
H       2.705000     9.102200    14.398400
