101
Refcode: AHUKOF_comp_0 | Dataset: tmCAT | Charge: unknown | Potential Spins: [1, 3, 5]
Ir      1.940600     6.125800    14.193900
H       2.821800     7.112700    14.965200
H       0.864000     7.055900    14.965200
C       2.363100     4.028000    13.158400
C       3.303700     4.190900    14.203700
C       2.525800     4.403100    15.416400
C       1.136400     4.304600    15.083600
C       1.012300     4.071600    13.654500
O       2.621800     3.722100    11.855800
H       3.231600     3.930500    11.657800
C       4.768800     4.008100    14.083200
C       5.283100     2.916100    13.350300
H       4.684600     2.322300    12.911300
C       6.640600     2.699200    13.260500
H       6.970700     1.965200    12.756200
C       7.534900     3.554500    13.907700
H       8.469200     3.403900    13.844400
C       7.052900     4.614300    14.636500
H       7.658100     5.194800    15.081600
C       5.676600     4.844400    14.726400
H       5.355900     5.581300    15.234700
C       3.068800     4.542300    16.810900
C       3.971700     3.607500    17.307000
H       4.299400     2.916100    16.745500
C       4.393600     3.689900    18.636100
H       5.032700     3.071400    18.970900
C       3.885000     4.669200    19.463000
H       4.137100     4.695700    20.379700
C       3.003500     5.613500    18.964800
H       2.674200     6.300100    19.532400
C       2.607700     5.560400    17.647900
H       2.015900     6.221500    17.307000
C      -0.006100     4.333900    16.071800
C       0.044200     3.569600    17.237600
H       0.805900     3.028800    17.415200
C      -1.008600     3.593300    18.142000
H      -0.973800     3.059100    18.928100
C      -2.108600     4.393600    17.901100
H      -2.829600     4.410600    18.519700
C      -2.161400     5.171200    16.753700
H      -2.914600     5.725200    16.592400
C      -1.116400     5.145600    15.839100
H      -1.158000     5.680700    15.055100
C      -0.172700     3.669100    12.862300
C      -1.124400     2.798700    13.395200
H      -1.057700     2.525000    14.303700
C      -2.175100     2.325100    12.607100
H      -2.823500     1.736000    12.976700
C      -2.267400     2.721000    11.284200
H      -2.973600     2.387600    10.743100
C      -1.347500     3.593300    10.745200
H      -1.425600     3.868900     9.840700
C      -0.303600     4.068700    11.527100
H       0.329200     4.671100    11.153500
C       1.854100     7.650700    12.911300
N       1.098200     8.791900    13.044000
C       1.385700     9.732400    12.051800
H       0.947300    10.588600    11.964000
C       2.313600     9.179300    11.263700
H       2.710100     9.572300    10.494000
N       2.592900     7.908300    11.788400
C       0.096400     9.002200    14.044500
C       0.423900     9.662300    15.242900
C      -0.574100     9.832800    16.186100
H      -0.356400    10.257100    17.006900
C      -1.875900     9.408500    15.977900
C      -2.167900     8.731300    14.787600
H      -3.045500     8.397000    14.648800
C      -1.202500     8.536200    13.807600
C       1.835600    10.131100    15.469500
H       2.047900    10.848100    14.836600
H       2.454500     9.382000    15.334800
H       1.925200    10.468300    16.386200
C      -2.965100     9.662300    17.011000
H      -2.978900     8.926400    17.658200
H      -3.833800     9.719100    16.561800
H      -2.781400    10.504300    17.476400
C      -1.520000     7.809800    12.519300
H      -2.463500     7.543700    12.519300
H      -0.954400     7.012300    12.447900
H      -1.346900     8.403600    11.759900
C       3.499400     6.968800    11.186200
C       3.114900     6.301100    10.032600
C       4.009200     5.377600     9.495700
H       3.769300     4.909800     8.705600
C       5.245300     5.120000    10.083700
C       5.596000     5.841700    11.231100
H       6.431800     5.660800    11.645500
C       4.773000     6.806800    11.782300
C       1.791500     6.555800     9.385400
H       1.132200     6.788800    10.073500
H       1.497000     5.749800     8.913800
H       1.873100     7.296500     8.750500
C       6.169200     4.094300     9.512000
H       5.646100     3.346100     9.154700
H       6.768500     3.767600    10.214300
H       6.697100     4.496800     8.791300
C       5.219400     7.688600    12.921500
H       6.122700     7.430900    13.199200
H       4.603700     7.583400    13.677000
H       5.221600     8.623300    12.629600
