30
Refcode: AJIFAA_comp_0 | Dataset: tmCAT | Charge: 1 | Potential Spins: [1, 3, 5]
Rh      2.040700     3.197500     6.512500
O       4.051600     1.009500     5.936200
N      -0.621300     2.010100     5.827400
N       0.301300     0.650200     7.188600
C       3.319800     1.836100     6.209600
C       0.502800     1.824900     6.560300
C      -1.511400     0.961400     5.982300
H      -2.361500     0.864600     5.568300
C      -0.923000     0.105800     6.841300
H      -1.281300    -0.717500     7.150300
C      -0.805900     3.197500     5.004100
H      -1.715900     3.197500     4.613900
H      -0.150200     3.197500     4.262100
C       1.231000     0.035900     8.133000
H       1.775500    -0.633100     7.667600
H       0.726300    -0.396500     8.853000
H       1.815200     0.725200     8.512700
C       3.319800     4.558900     6.209600
O       4.051600     5.385500     5.936200
N      -0.621300     4.384900     5.827400
C       0.502800     4.570100     6.560300
N       0.301300     5.744800     7.188600
C      -0.923000     6.289200     6.841300
C      -1.511400     5.433600     5.982300
H      -2.361500     5.530400     5.568300
H      -1.281300     7.112500     7.150300
C       1.231000     6.359100     8.133000
H       1.775500     7.028100     7.667600
H       0.726300     6.791500     8.853000
H       1.815200     5.669800     8.512700
