55
Refcode: AKIRES_comp_0 | Dataset: tmCAT | Charge: unknown | Potential Spins: [1, 3, 5]
Ir      1.070900     3.110900     7.248200
O       0.187500     2.082000     5.598300
O      -0.158700     0.189100     4.607400
O       1.306300     0.283700     6.204300
O      -0.322000     1.765100     8.162700
O       1.127700     0.805900     9.501400
O      -0.853600    -0.011500     9.256900
N       0.458000     0.805100     5.482900
N       0.007600     0.821500     9.001400
N      -1.381000     4.647800     8.250900
N      -1.150900     4.929000     6.133700
C       3.151600     3.024500     6.488500
C       3.170600     2.538500     7.813300
C       2.631400     3.580400     8.677100
C       2.340700     4.724300     7.856400
C       2.612600     4.373200     6.477400
C       3.594500     2.288500     5.267700
H       4.458800     2.641300     4.968700
H       2.930400     2.405300     4.557100
H       3.685600     1.335500     5.475600
C       3.732600     1.217900     8.234200
H       3.279200     0.499200     7.746100
H       3.596500     1.096200     9.196300
H       4.692800     1.193200     8.034600
C       2.588500     3.540100    10.174000
H       3.478800     3.741600    10.532200
H       2.312600     2.647900    10.469200
H       1.947800     4.205400    10.500000
C       1.881400     6.062200     8.358700
H       1.303200     5.936400     9.139100
H       1.381200     6.522700     7.652300
H       2.659600     6.600800     8.611800
C       2.618800     5.281000     5.290000
H       3.525000     5.627200     5.148900
H       2.004200     6.028500     5.447700
H       2.332100     4.783500     4.495600
C      -0.608900     4.284300     7.197500
C      -2.414300     5.503900     7.843300
C      -2.261900     5.683100     6.518100
C      -1.143600     4.301600     9.644700
H      -1.911300     3.802500     9.993100
H      -1.021400     5.120600    10.168900
H      -0.336200     3.749000     9.710400
C      -3.418400     6.053200     8.795800
H      -2.996100     6.738200     9.355900
H      -3.760500     5.331200     9.363300
H      -4.159400     6.453600     8.293900
C      -3.012800     6.538300     5.560700
H      -3.853600     6.827000     5.970700
H      -3.203500     6.027700     4.746100
H      -2.473200     7.325300     5.333500
C      -0.664400     4.887900     4.758800
H      -0.308500     5.767000     4.511700
H      -1.402600     4.654400     4.157200
H       0.044200     4.215300     4.683100
