89
Refcode: AKOZIK_comp_0 | Dataset: tmCAT | Charge: unknown | Potential Spins: [1, 3, 5]
C       3.626200    17.298200     7.558000
C       4.738300    18.635800     6.097000
H       5.040400    19.417400     5.649200
C       5.068500    17.386300     5.818400
H       5.655200    17.099800     5.127800
C       4.464800    15.075500     6.748900
H       3.873200    14.711000     6.043600
H       4.137500    14.743200     7.622300
C       5.847700    14.582100     6.528200
C       6.185000    13.912500     5.395400
H       5.540800    13.778500     4.710400
C       7.520300    13.412300     5.240000
H       7.764200    12.956200     4.442800
C       8.453400    13.586900     6.243200
H       9.331500    13.242800     6.133700
C       8.127500    14.248100     7.382400
C       6.821000    14.770300     7.586500
C       6.543200    15.426400     8.801100
H       5.677100    15.791000     8.941800
C       7.476900    15.551900     9.773000
H       7.254100    16.011400    10.574700
C       8.767500    15.017900     9.621300
H       9.411300    15.084000    10.317300
C       9.061000    14.410900     8.453500
H       9.940000    14.071800     8.334900
C       3.233200    19.709000     7.873400
H       2.250300    19.659900     7.758400
H       3.545300    20.553300     7.462400
C       3.563900    19.724300     9.368400
C       4.005900    18.395100    11.329600
C       4.103700    19.408900    12.292300
H       3.826900    20.292200    12.080800
C       4.597700    19.125800    13.536300
H       4.635700    19.827700    14.174400
C       5.039400    17.884800    13.910500
H       5.389700    17.727100    14.779400
C       4.954400    16.859100    12.963500
H       5.249600    15.984200    13.187900
C       4.446100    17.108300    11.711200
H       4.390400    16.394500    11.085000
N       4.387300    16.553900     6.732300
N       3.856800    18.578200     7.184700
N       3.497000    18.549400    10.006500
O       3.880000    20.826300     9.852000
Pd      2.518200    16.954000     9.194600
C       1.410300    16.609800    10.831300
C       0.298100    15.272200    12.292300
H      -0.003900    14.490600    12.740100
C      -0.032000    16.521700    12.570900
H      -0.618700    16.808200    13.261400
C       0.571600    18.832500    11.640400
H       1.163200    19.197000    12.345600
H       0.899000    19.164800    10.766900
C      -0.811300    19.325900    11.861100
C      -1.148600    19.995500    12.993800
H      -0.504400    20.129500    13.678800
C      -2.483800    20.495700    13.149200
H      -2.727800    20.951800    13.946400
C      -3.416900    20.321100    12.146100
H      -4.295000    20.665200    12.255500
C      -3.091100    19.659900    11.006900
C      -1.784600    19.137700    10.802800
C      -1.506800    18.481600     9.588200
H      -0.640600    18.117000     9.447500
C      -2.440400    18.356100     8.616300
H      -2.217700    17.896600     7.814500
C      -3.731100    18.890100     8.768000
H      -4.374900    18.824000     8.072000
C      -4.024600    19.497100     9.935700
H      -4.903600    19.836200    10.054300
C       1.803300    14.199000    10.515900
H       2.786200    14.248100    10.630800
H       1.491200    13.354700    10.926900
C       1.472500    14.183700     9.020800
C       1.030600    15.512900     7.059600
C       0.932800    14.499100     6.097000
H       1.209600    13.615800     6.308400
C       0.438700    14.782200     4.852900
H       0.400800    14.080300     4.214800
C      -0.002900    16.023200     4.478700
H      -0.353200    16.180900     3.609800
C       0.082000    17.048900     5.425700
H      -0.213200    17.923800     5.201400
C       0.590300    16.799700     6.678100
H       0.646100    17.513500     7.304200
N       0.649100    17.354100    11.656900
N       1.179600    15.329800    11.204600
N       1.539400    15.358600     8.382700
O       1.156500    13.081700     8.537200
