84
Refcode: ALOZUX_comp_1 | Dataset: tmCAT | Charge: 1 | Potential Spins: [1, 3, 5]
C      12.033300    16.164700     4.120400
C      12.006700    17.384100     3.465400
H      11.221600    17.882100     3.454500
C      13.133300    17.875300     2.826100
C      14.343500    16.005500     3.443600
H      15.145000    15.534600     3.435700
C      13.265100    15.478700     4.081300
H      13.339000    14.652200     4.500200
C      15.453500    17.660200     2.214900
H      15.671400    18.530800     2.555700
H      15.324200    17.712700     1.264600
H      16.171500    17.052200     2.405600
C      10.741700    15.013000     1.606900
C      10.212400    16.173100     1.041000
H       9.381300    16.483100     1.325500
C      10.898200    16.865900     0.067200
H      10.523600    17.631400    -0.304800
C      12.138100    16.427200    -0.358000
H      12.602800    16.901400    -1.006600
C      12.683300    15.277200     0.190700
H      13.513900    14.974000    -0.098500
C      11.995200    14.577700     1.166100
H      12.369400    13.810400     1.533400
C       8.165000    14.257600     2.688600
C       7.292700    15.119700     3.340400
H       7.622900    15.732800     3.956300
C       5.927500    15.070500     3.074700
H       5.346700    15.644700     3.518600
C       5.436900    14.171200     2.155500
H       4.525000    14.137300     1.980500
C       6.296100    13.322600     1.494300
H       5.960700    12.716300     0.872200
C       7.652200    13.365000     1.749100
H       8.228500    12.794200     1.291100
C      10.498900    12.562200     3.116900
C      10.611000    11.808500     1.943000
H      10.421400    12.199700     1.120800
C      11.000800    10.484000     2.003900
H      11.070600     9.984400     1.223900
C      11.287100     9.903100     3.227800
H      11.544400     9.010500     3.265400
C      11.191300    10.633000     4.383000
H      11.391600    10.235000     5.198900
C      10.792300    11.971100     4.340800
H      10.724100    12.462200     5.127000
C      12.461000    17.795700     6.690100
C      12.131000    19.066000     6.200900
H      11.239800    19.335300     6.190000
C      13.106500    19.917900     5.738200
H      12.876500    20.761400     5.425600
C      14.421900    19.519900     5.738200
H      15.079000    20.087300     5.403700
C      14.771900    18.269900     6.236800
H      15.663800    18.010800     6.257200
C      13.779400    17.406200     6.708900
H      14.011700    16.567800     7.037200
C       9.830100    17.641600     7.757800
C       8.516400    17.572100     7.306000
H       8.297800    17.011500     6.596400
C       7.528400    18.339400     7.914100
H       6.650200    18.288600     7.610800
C       7.841100    19.176100     8.964500
H       7.175100    19.674000     9.380300
C       9.152700    19.272600     9.394300
H       9.365600    19.840000    10.099300
C      10.145500    18.532500     8.787900
H      11.028200    18.625600     9.064500
C      11.733300    15.456700     8.259500
C      11.947100    14.111900     7.923400
H      11.785500    13.820600     7.055900
C      12.395900    13.219300     8.875400
H      12.561700    12.335200     8.633100
C      12.602100    13.619000    10.182200
H      12.867200    13.004200    10.826200
C      12.408700    14.945200    10.515100
H      12.563600    15.228100    11.387300
C      11.988500    15.856400     9.567900
H      11.876700    16.749000     9.807000
N      14.272300    17.197800     2.824600
P       9.949300    14.293600     3.081800
P      11.120000    16.600100     6.985400
Pd     10.476000    15.411700     5.066300
Cl      8.766700    14.267200     6.261700
Cl     13.081500    19.390800     2.031100
