66
Refcode: AMAROX_comp_0 | Dataset: tmCAT | Charge: 0 | Potential Spins: [1, 3, 5]
Zn      5.519000     2.383100     7.054600
Si      6.755800     8.010600     8.335100
Si      9.393900     6.296500     8.993400
O       5.933700     1.656300     5.329800
O       4.330000     1.660900     8.375100
O       8.013100     7.140600     8.871500
N       4.695400     4.071100     6.394400
N       7.196700     2.123800     8.108900
C       5.872500     2.329000     4.198700
C       6.372200     1.722600     3.027500
H       6.739200     0.870400     3.084900
C       6.337100     2.346000     1.808000
H       6.680900     1.914200     1.059800
C       5.791500     3.621000     1.676100
H       5.772800     4.046000     0.848300
C       5.283300     4.235200     2.785900
H       4.905600     5.080700     2.697900
C       5.310400     3.630000     4.065700
C       4.699900     4.378000     5.142200
H       4.265000     5.165700     4.905200
C       3.975500     4.943500     7.332400
H       3.444600     4.398400     7.933900
H       3.371600     5.518100     6.835800
C       4.928000     5.802600     8.146300
H       5.598400     5.229100     8.548200
H       4.431200     6.221900     8.865400
C       5.634400     6.892900     7.338000
H       4.960700     7.440200     6.903300
H       6.160800     6.469000     6.642300
C       7.360900     9.395200     7.266000
H       7.797000     9.033700     6.491600
H       7.980900     9.933500     7.760600
H       6.614800     9.934700     6.991100
C       5.862000     8.674400     9.817200
H       5.075100     9.144800     9.531400
H       6.438000     9.274000    10.296500
H       5.610000     7.946800    10.391000
C      10.560100     6.856600     7.669500
H      11.368800     6.340900     7.715600
H      10.764900     7.785900     7.796600
H      10.151000     6.734200     6.808800
C      10.104700     6.557400    10.686700
H       9.442800     6.343200    11.347300
H      10.370600     7.474200    10.784800
H      10.869500     5.988500    10.802800
C       9.005200     4.482300     8.846100
H       9.729000     3.992700     9.268200
H       8.205400     4.311100     9.367200
C       8.788900     3.880500     7.459300
H       8.049100     4.339500     7.031600
H       9.583400     4.035800     6.923600
C       8.494500     2.390200     7.480300
H       8.490700     2.049000     6.572600
H       9.192800     1.930000     7.972100
C       7.169400     1.671600     9.310300
H       7.991600     1.488000     9.702500
C       6.000100     1.417800    10.116000
C       6.231900     1.151500    11.485400
H       7.108400     1.081200    11.790600
C       5.204100     0.993900    12.375600
H       5.379600     0.821700    13.273400
C       3.904400     1.092500    11.921700
H       3.201500     1.007500    12.524100
C       3.633800     1.314700    10.593700
H       2.749400     1.357700    10.312200
C       4.668800     1.479000     9.639000
