82
Refcode: ANOXOR_comp_0 | Dataset: tmCAT | Charge: 1 | Potential Spins: [1, 3, 5]
Ir     13.224900    -0.589100     9.477500
N      17.869800     1.020300    10.961400
N      14.541700    -1.586100    12.064900
N      12.609200    -2.495600    11.789800
N      13.705100     1.735700    11.341700
N      11.602400     1.565200    11.039200
C      14.442800    -1.897300     8.250200
C      13.170100    -2.468200     8.364000
C      12.118900    -2.377100     7.322500
C      11.995500    -0.983800     6.684300
C      12.295600     0.124800     7.636500
C      13.571000     0.725800     7.767600
C      14.836200     0.311400     7.054600
C      14.974100    -1.190900     6.988300
C      15.256200     0.768900    13.652400
C      15.844000     0.615900    12.256500
C      17.323800     0.965400    12.188800
C      18.108100     1.151300    13.324000
C      19.445600     1.427700    13.174200
C      20.007700     1.505800    11.925200
C      19.171700     1.288100    10.854800
C      15.795400    -0.883500    11.825800
C      13.504500    -1.644400    11.191900
C      14.332700    -2.410500    13.167000
C      13.120100    -2.987000    12.982600
C      15.158000     1.592400    11.236600
C      12.742800     1.018600    10.670400
C      13.111600     2.741100    12.102400
C      11.789400     2.631100    11.918000
C      11.317100    -2.843100    11.223600
C      10.147900    -2.267400    12.018800
C       8.861100    -2.338900    11.189000
C       7.680500    -1.653200    11.906400
C      10.238400     1.146300    10.611400
C       9.397000     2.263900    10.048100
C       9.967800     2.962900     8.797700
C       9.095800     4.078500     8.326600
H      15.053100    -1.945500     9.041100
H      12.949300    -2.958100     9.206800
H      12.337800    -3.039300     6.606500
H      11.237700    -2.611200     7.734500
H      12.638500    -0.926100     5.919400
H      11.063400    -0.866700     6.342900
H      11.558900     0.454300     8.228600
H      13.644300     1.508500     8.385700
H      15.625600     0.678500     7.547200
H      14.822000     0.681800     6.125400
H      15.937500    -1.427100     6.860100
H      14.443400    -1.519400     6.206000
H      14.286900     0.525500    13.629400
H      15.737400     0.160400    14.283400
H      15.356300     1.715300    13.959300
H      17.694700     1.112700    14.234400
H      20.019800     1.559000    13.982300
H      20.979000     1.704200    11.791200
H      19.558200     1.334900     9.934300
H      16.508500    -1.371100    12.328500
H      15.987900    -0.929300    10.846200
H      14.956900    -2.548600    13.934800
H      12.671200    -3.639800    13.593400
H      15.553800     2.498300    11.377800
H      15.368200     1.276700    10.311700
H      13.581500     3.418300    12.668500
H      11.079000     3.195100    12.338600
H      11.241200    -3.840200    11.212100
H      11.264500    -2.495500    10.288700
H      10.023200    -2.800700    12.854400
H      10.340500    -1.315700    12.256500
H       8.629800    -3.297500    11.020500
H       9.021200    -1.875900    10.316000
H       6.859700    -1.709600    11.336000
H       7.513100    -2.113900    12.778000
H       7.903100    -0.692400    12.073600
H       9.770800     0.761500    11.406600
H      10.333500     0.443200     9.906900
H       9.271600     2.952000    10.764100
H       8.507700     1.879700     9.797400
H      10.862800     3.341600     9.032500
H      10.071500     2.290600     8.065800
H       9.504500     4.510300     7.522700
H       8.990300     4.758200     9.052600
H       8.199100     3.706500     8.084600
