46
Refcode: APABAV_comp_0 | Dataset: tmCAT | Charge: -2 | Potential Spins: [1, 3, 5]
C       8.156700     5.303400     2.271100
C      10.306200     6.088200     2.330200
H      11.229500     6.189000     2.132900
C       9.587500     6.794800     3.213400
H       9.907000     7.495300     3.769500
C       9.679600     4.235700     0.752500
C       8.881800     2.502500    -0.460500
H       8.190800     1.893600    -0.693500
C      10.115400     2.387300    -1.075300
H      10.287400     1.710500    -1.719300
C      11.080600     3.289400    -0.715200
H      11.926400     3.246200    -1.145700
C       7.127900     6.879100     3.834700
C       6.604000     8.066100     3.315900
C       5.424100     8.543400     3.869600
H       5.047200     9.349800     3.537900
C       4.781800     7.863500     4.901400
C       5.361600     6.718700     5.408800
H       4.936100     6.270200     6.129900
C       6.545700     6.200300     4.898700
C       7.283800     8.786100     2.186600
H       6.777200     9.595600     1.963300
H       7.323200     8.199800     1.402200
H       8.192800     9.033000     2.456900
C       3.483700     8.381900     5.466700
H       2.915000     7.625900     5.724600
H       3.025100     8.919800     4.789800
H       3.669100     8.935300     6.254000
C       7.171200     4.958800     5.492900
H       7.151300     4.234700     4.832500
H       6.669100     4.689300     6.289800
H       8.100800     5.148000     5.741100
C       4.869300     1.838100     1.610400
C       4.909100     3.156700     1.009200
C       4.812100     4.116400     2.056500
C       4.679900     3.361400     3.306200
N       8.274400     6.304000     3.161500
N       9.424100     5.179700     1.764000
N       8.636600     3.446800     0.453700
N      10.884200     4.234000     0.218000
O       4.863500     0.730200     1.149200
O       4.825000     1.993800     3.014400
O       4.465700     3.695700     4.437400
Pd      6.773500     4.037800     1.455400
H       4.620200     3.240000     0.137900
H       4.400700     4.947500     2.010200
