82
Refcode: APOVOS_comp_1 | Dataset: tmCAT | Charge: unknown | Potential Spins: [1, 3, 5]
Ti      0.923500    12.226800     6.502100
N       1.454200    13.657500     9.321800
N       2.940200    14.300900     7.865700
O      -0.190900    11.833200     7.948200
O       2.517100    12.682600     5.596600
O      -0.197500    13.317200     5.627600
O       0.880100    10.523200     5.808700
C       1.876700    13.497300     8.056200
C       2.255200    14.642900    10.080100
H       2.727700    14.215800    10.837100
H       1.688400    15.378800    10.422500
C       3.232300    15.144900     9.042900
H       3.079200    16.102600     8.843000
H       4.167200    15.022500     9.346000
C       3.684200    14.461700     6.678400
C       4.668800    15.443500     6.601500
H       4.843600    15.994900     7.356900
C       5.393700    15.625500     5.441500
H       6.065500    16.296000     5.402200
C       5.146100    14.831000     4.333900
H       5.633900    14.967200     3.529300
C       4.187000    13.839300     4.403000
H       4.031400    13.287600     3.645700
C       3.443900    13.634900     5.563900
C       0.409000    12.962200     9.960600
C      -0.392000    12.061400     9.251800
C      -1.423600    11.395000     9.913000
H      -1.969600    10.784800     9.432900
C      -1.664700    11.611100    11.259800
H      -2.374100    11.155000    11.698900
C      -0.869500    12.490900    11.954500
H      -1.030700    12.638400    12.880300
C       0.157400    13.161700    11.328600
H       0.699900    13.762800    11.825100
C      -1.622400    13.494300     5.651200
H      -2.055900    12.608100     5.818300
C      -2.050800    13.999800     4.289600
H      -3.024400    14.116400     4.276500
H      -1.789900    13.351200     3.603100
H      -1.616900    14.859500     4.109400
C      -1.993200    14.437700     6.770300
H      -2.967900    14.522500     6.816200
H      -1.596700    15.318100     6.603200
H      -1.656900    14.083200     7.620700
C       1.338700     9.334500     5.342800
C       1.975700     8.437800     6.226500
C       2.445600     7.231100     5.712700
H       2.897800     6.630000     6.293500
C       2.276000     6.876400     4.386300
C       1.625200     7.762900     3.553900
H       1.500400     7.522300     2.642900
C       1.140700     8.998600     3.986500
C       2.798200     5.552300     3.873400
H       2.354200     5.331600     3.028000
H       2.612500     4.851000     4.532100
H       3.764200     5.616200     3.727600
C       2.078500     8.735000     7.732600
C       0.659500     8.769000     8.325700
H       0.706600     9.027900     9.270700
H       0.251800     7.881400     8.249900
H       0.116100     9.420100     7.835300
C       2.835200    10.047800     8.024800
H       2.431100    10.494700     8.797100
H       2.781700    10.635600     7.243800
H       3.775300     9.845500     8.218800
C       2.846200     7.640500     8.489100
H       2.921600     7.886900     9.434500
H       3.743600     7.544400     8.105700
H       2.365300     6.790200     8.412100
C       0.422600     9.943300     3.000300
C      -0.987900    10.266300     3.501000
H      -1.433600    10.859400     2.860800
H      -0.930600    10.710200     4.373200
H      -1.500400     9.436700     3.588300
C       0.254200     9.301600     1.610700
H      -0.224200     9.920100     1.020800
H      -0.257400     8.469800     1.695900
H       1.137100     9.105200     1.233800
C       1.232900    11.229600     2.790100
H       0.757700    11.815200     2.164500
H       2.113300    11.005800     2.423400
H       1.342700    11.690900     3.649000
