82
Refcode: ARASIW_comp_0 | Dataset: tmCAT | Charge: 1 | Potential Spins: [1, 3, 5]
Zn      6.615600    -1.680400     3.511400
Cl      8.400600    -0.693700     2.529200
N       5.425100    -0.021900     4.065300
N       6.280100    -1.998700     5.664200
N       5.124100    -1.797600     2.011500
N       4.692400    -2.903200     1.430800
N       3.867600    -2.510400     0.460200
N       7.126500    -3.664800     3.536900
N       7.293100    -4.277500     2.378300
N       7.709700    -5.504000     2.668400
C       4.840400    -0.147400     5.190400
C       3.735100     0.541300     5.883800
C       2.929600     1.617800     5.599300
H       3.056900     2.118700     4.826400
C       1.901000     1.943200     6.516300
H       1.348000     2.667300     6.329500
C       1.686700     1.237000     7.664900
H       1.009100     1.497400     8.246000
C       2.485500     0.112600     7.978500
C       3.498000    -0.212600     7.056000
C       2.368800    -0.735700     9.106500
H       1.754900    -0.529100     9.773800
C       3.145400    -1.850500     9.226700
H       3.010900    -2.415100     9.953800
C       4.147700    -2.179700     8.284600
H       4.654600    -2.953000     8.382000
C       4.356800    -1.333100     7.224600
C       5.277100    -1.304800     6.070900
C       5.161100     1.030800     3.142100
C       5.374300     2.357100     3.495600
H       5.640900     2.569100     4.360700
C       5.191400     3.360900     2.567400
H       5.355100     4.246300     2.801300
C       4.762600     3.047000     1.279800
H       4.613300     3.724400     0.660800
C       4.557300     1.728800     0.923000
H       4.265300     1.528500     0.063200
C       4.781400     0.691700     1.830800
C       4.554700    -0.705100     1.417700
C       3.755000    -1.172300     0.407600
H       3.245500    -0.671500    -0.186800
C       3.130100    -3.514800    -0.330700
H       3.622600    -4.349900    -0.333900
H       3.049600    -3.210100    -1.247500
C       1.761500    -3.740900     0.244600
C       0.701900    -2.962600    -0.228100
H       0.862000    -2.358500    -0.916400
C      -0.537100    -3.054400     0.272000
H      -1.235100    -2.542300    -0.068700
C      -0.734600    -3.927300     1.299700
H      -1.581300    -3.965900     1.685800
C       0.275500    -4.782800     1.817600
H       0.103800    -5.399400     2.493600
C       1.566800    -4.637500     1.235100
H       2.275600    -5.159000     1.537400
C       6.911900    -2.961900     6.511500
C       7.132100    -2.648100     7.861500
H       6.873800    -1.817400     8.191100
C       7.731700    -3.562400     8.703400
H       7.864600    -3.349800     9.599300
C       8.133200    -4.789100     8.222700
H       8.492400    -5.421200     8.802500
C       8.003300    -5.078000     6.881400
H       8.307500    -5.895100     6.558900
C       7.415700    -4.155200     5.987600
C       7.432900    -4.508900     4.562400
C       7.810100    -5.701200     3.998700
H       8.077200    -6.475900     4.437600
C       7.830900    -6.504800     1.594300
H       8.584500    -7.087600     1.776400
H       7.993700    -6.057600     0.750100
C       6.576400    -7.320900     1.496600
C       5.451000    -6.824400     0.835000
H       5.477000    -5.977300     0.450600
C       4.306000    -7.578000     0.747800
H       3.557600    -7.235300     0.314600
C       4.260400    -8.845000     1.302400
H       3.489800    -9.360500     1.226900
C       5.364300    -9.342100     1.966000
H       5.334200   -10.189600     2.349300
C       6.512200    -8.579800     2.063400
H       7.251400    -8.918400     2.515600
