70
Refcode: AREKIS_comp_0 | Dataset: tmCAT | Charge: -4 | Potential Spins: [1, 3, 5]
Ni      3.927000     5.988300     2.348800
Cl      5.370800     4.251300     2.356900
C       3.258000     5.358000     0.687000
N       3.792300     5.578700    -0.538000
N       2.266200     4.468100     0.471400
C       3.153400     4.804800    -1.494500
H       3.351500     4.774900    -2.413500
C       2.203400     4.110100    -0.861700
H       1.607100     3.496100    -1.248400
C       4.921200     6.480700    -0.807200
H       5.101800     6.991100     0.022300
C       4.546300     7.479800    -1.891900
H       3.712200     7.916000    -1.654600
H       4.438700     7.015100    -2.736300
H       5.248400     8.144300    -1.976000
C       6.168700     5.688300    -1.139900
H       6.385800     5.101500    -0.398800
H       6.907400     6.299200    -1.296000
H       6.013100     5.159700    -1.937300
C       1.425800     3.890600     1.536900
H       1.560800     4.429000     2.356900
C      -0.031500     3.968800     1.165500
H      -0.266700     4.889100     0.970100
H      -0.571300     3.646800     1.904600
H      -0.195600     3.419600     0.382400
C       1.895200     2.470800     1.827200
H       2.854100     2.470800     1.974500
H       1.684900     1.898800     1.072800
H       1.446600     2.137400     2.620300
C       4.709400     6.657400     3.954400
N       5.709700     7.571100     3.997500
N       4.550900     6.260800     5.242100
C       6.204100     7.712600     5.288000
H       6.911200     8.267600     5.563400
C       5.472700     6.899700     6.061000
H       5.566700     6.783300     6.988900
C       6.255600     8.212400     2.790400
H       5.626800     8.027900     2.048900
C       7.583400     7.582600     2.422100
H       7.479000     6.620000     2.364400
H       8.241400     7.796100     3.100900
H       7.879600     7.928500     1.565300
C       6.330000     9.718500     2.954600
H       5.450400    10.063600     3.172300
H       6.639100    10.119600     2.127800
H       6.948600     9.935800     3.669300
C       3.569800     5.256000     5.676500
H       3.056400     4.975900     4.877500
C       2.584800     5.849300     6.670300
H       2.155800     6.624600     6.276200
H       3.056500     6.114200     7.475500
H       1.911700     5.186000     6.893700
C       4.265700     4.029300     6.222600
H       4.841300     3.651400     5.539600
H       3.602100     3.371700     6.487500
H       4.800100     4.277100     6.994900
C       2.643800     7.376100     2.355100
C       2.762500     8.569300     1.621100
H       3.533600     8.701500     1.099600
C       1.793500     9.559200     1.632400
H       1.916900    10.344500     1.130800
C       0.634900     9.387500     2.389500
C       0.481100     8.222200     3.125700
H      -0.296000     8.092900     3.639500
C       1.463200     7.248100     3.108900
H       1.335800     6.470500     3.621700
C      -0.398400    10.454500     2.424600
F      -1.613900    10.004000     2.787400
F      -0.570100    11.068000     1.261000
F      -0.130200    11.420300     3.313700
