62
Refcode: ASIGUF_comp_0 | Dataset: tmCAT | Charge: -2 | Potential Spins: [1, 3, 5]
Ir     -0.063900     9.750800     1.220500
Cl      1.144700    11.595900     2.149500
N       2.441700     8.923200    -0.114300
N       2.316600     8.106000     2.056800
C       1.732200     8.805000     1.032900
C       3.778300     8.491900    -0.278700
C       4.540900     8.853100    -1.362500
H       4.196600     9.450700    -2.015800
C       5.841600     8.326900    -1.495800
H       6.375800     8.589300    -2.235300
C       6.348900     7.443400    -0.576400
H       7.204300     7.054900    -0.717200
C       5.606600     7.109500     0.577600
C       6.115600     6.265000     1.608600
H       6.976200     5.870000     1.519800
C       5.366500     6.027200     2.717900
H       5.709400     5.446500     3.388100
C       4.100300     6.611900     2.906700
H       3.613000     6.441700     3.703100
C       3.566400     7.435600     1.930500
C       4.312700     7.673400     0.745700
C       1.801000     9.527400    -1.273500
C       1.578600    10.890300    -1.349200
H       1.836000    11.463300    -0.636700
C       0.970500    11.408700    -2.493300
H       0.805900    12.342900    -2.558700
C       0.606700    10.577200    -3.530600
H       0.188500    10.937100    -4.304700
C       0.851100     9.211700    -3.448500
H       0.591600     8.638700    -4.160600
C       1.465100     8.686800    -2.337200
H       1.659500     7.759100    -2.292300
C       1.612300     8.152800     3.372400
H       0.785400     8.692000     3.212200
C       2.412300     8.933600     4.415300
H       3.010200     8.321700     4.894500
H       1.796300     9.353300     5.052000
H       2.942900     9.626100     3.967900
C       1.117100     6.787300     3.859000
H       1.115900     6.771700     4.837600
H       1.712000     6.085700     3.520500
H       0.207200     6.632700     3.527200
C      -1.682300    11.072200     0.698700
H      -1.430800    12.040100     0.710500
C      -1.954100    10.544700     1.967200
H      -1.862700    11.199500     2.717900
C      -3.001500     9.450700     2.201800
H      -3.700000     9.513100     1.503000
H      -3.434200     9.595000     3.079800
C      -2.375500     8.046300     2.168300
H      -2.106200     7.791600     3.086500
H      -3.059300     7.396600     1.863300
C      -1.168300     7.955300     1.256700
H      -0.607800     7.140700     1.407500
C      -1.126200     8.442500    -0.083800
H      -0.541200     7.908500    -0.693700
C      -2.320900     9.087000    -0.774100
H      -3.155500     8.707600    -0.400500
H      -2.295500     8.870000    -1.739300
C      -2.337100    10.627900    -0.596500
H      -1.863600    11.046200    -1.358900
H      -3.275700    10.944900    -0.609900
