85
Refcode: AVAQOE_comp_0 | Dataset: tmCAT | Charge: unknown | Potential Spins: [1, 3, 5]
Ir      8.877700     9.806500    10.053400
N      10.714900     9.676700     9.077600
O       8.927300    10.505100    13.449100
O      11.103000    10.131000    13.078000
O      11.984400    13.912100    11.715700
O      10.559500    13.048700    13.178300
C      10.873600    12.019900     8.445100
C      10.473600    12.764500     9.577300
C      10.166500    14.113700     9.378200
H       9.932000    14.622700    10.120300
C       9.878700    16.120600     7.987400
H       9.625700    16.627400     8.724100
C       9.949000    16.711300     6.757700
H       9.730900    17.611700     6.676500
C      10.462400    16.583300     4.347200
H      10.234100    17.479100     4.240200
C      10.901200    15.876000     3.274600
H      10.982800    16.299700     2.449800
C      11.228700    14.550400     3.385600
H      11.534200    14.088600     2.638100
C      11.450300    12.522400     4.792700
H      11.737400    12.028200     4.058700
C      11.375400    11.914800     5.988500
H      11.600100    11.015800     6.057600
C      10.189500    14.730600     8.160700
C      10.347100    15.990400     5.603900
C      11.108100    13.883700     4.600400
C      10.956800    12.630500     7.159900
C      10.677500    14.617700     5.727100
C      10.599400    13.989300     7.006900
C      11.365500    10.643100     8.552100
H      12.212600    10.460100     8.213600
C      11.320000     8.356200     9.150700
C      10.751900     7.573600    10.184000
C       9.671400     8.133000    10.919400
C       9.228100     7.389700    11.990600
H       8.563300     7.735200    12.541800
C       9.764300     6.116300    12.269500
H       9.437700     5.644300    13.000800
C      10.730700     5.556100    11.516600
H      11.036200     4.698900    11.710200
C      11.283100     6.281000    10.423700
C      12.341900     5.832400     9.609800
H      12.716400     4.995300     9.768200
C      12.822400     6.591900     8.607600
H      13.489700     6.247800     8.057800
C      12.339100     7.899800     8.366600
H      12.704400     8.431000     7.696200
C      10.456400    12.227900    10.965400
C       9.875700    11.062600    11.322900
C      11.083900    13.149000    11.970300
C      11.189300    13.866700    14.191200
H      12.141600    13.764500    14.138400
H      10.884800    13.591500    15.059300
H      10.957700    14.787100    14.047700
C       9.878200    10.577100    12.727300
C      11.179500     9.529900    14.402500
H      10.797300    10.128400    15.048500
H      12.097600     9.361300    14.625900
H      10.692500     8.702000    14.406600
C       6.774900     9.622200    10.551000
C       6.982300    10.957400    10.096000
C       7.392100    10.916500     8.759300
C       7.431900     9.536600     8.373400
C       7.006900     8.765200     9.455400
C       6.177100     9.236700    11.883600
H       6.472700     9.852200    12.556600
H       6.458000     8.348000    12.115200
H       5.218600     9.263200    11.824000
C       6.718700    12.198400    10.922100
H       7.358000    12.877200    10.693200
H       6.799400    11.985600    11.855100
H       5.832300    12.520400    10.741900
C       7.507300    12.092300     7.824900
H       6.721300    12.142900     7.276400
H       8.280300    11.982200     7.265600
H       7.594400    12.899500     8.335400
C       7.815500     9.019300     7.002900
H       8.058000     8.091800     7.067900
H       8.561400     9.522500     6.668300
H       7.070800     9.113700     6.404300
C       6.787700     7.275400     9.450000
H       5.846200     7.090000     9.416100
H       7.159900     6.893600    10.247600
H       7.216500     6.891600     8.682100
