49
Refcode: AVODAR_comp_0 | Dataset: tmCAT | Charge: 0 | Potential Spins: [1, 3, 5]
I       3.759900     3.228500     1.840800
Cu      4.047300     4.590600    -0.164200
N       5.205600     5.132900    -1.629300
N       7.341800     5.265700    -2.620000
N       6.464300     3.222900    -1.996600
N       2.573500     6.159200    -1.061500
C       6.309600     4.571900    -2.059500
C       7.748500     6.561600    -2.108900
H       7.257500     6.756400    -1.283700
H       7.552400     7.252200    -2.775500
H       8.711300     6.552000    -1.922600
C       8.143500     4.740100    -3.718600
H       7.736500     3.914300    -4.054900
H       9.050200     4.551000    -3.400100
H       8.182000     5.402600    -4.439700
C       7.735500     2.619200    -1.640600
H       8.404600     3.322700    -1.503400
H       8.028400     2.026000    -2.363400
H       7.630800     2.101600    -0.814100
C       5.319900     2.332600    -1.931100
H       5.126200     2.116900    -0.995100
H       5.518800     1.507600    -2.422300
H       4.541600     2.771300    -2.333300
C       4.776100     6.399000    -2.218300
H       5.193300     6.518200    -3.107200
H       5.054400     7.153200    -1.639800
C       3.263700     6.378100    -2.353700
H       2.962000     7.239400    -2.738200
H       3.007000     5.658500    -2.983700
C       2.661700     7.357700    -0.171200
H       3.630700     7.598400    -0.122000
C       1.935500     8.610900    -0.659600
H       2.218400     8.816200    -1.575100
H       2.154000     9.364300    -0.073200
H       0.967800     8.454800    -0.644700
C       2.231100     7.034100     1.254100
H       2.702300     6.233200     1.563700
H       1.264200     6.873100     1.275100
H       2.448200     7.789100     1.840800
C       1.178700     5.642400    -1.259400
H       0.671200     5.842000    -0.422100
C       0.389300     6.257400    -2.421900
H       0.364000     7.232100    -2.320400
H      -0.525400     5.904000    -2.419400
H       0.824000     6.028800    -3.269500
C       1.204900     4.126800    -1.414800
H       1.703000     3.730000    -0.669100
H       1.642400     3.891700    -2.260100
H       0.287000     3.782300    -1.414300
