47
Refcode: AXENOI_comp_0 | Dataset: tmCAT | Charge: unknown | Potential Spins: [1, 3, 5]
W       4.384800     9.434900     8.335200
N       4.561800     4.594400     8.676400
C       5.092300     5.809100     8.050700
H       5.385900     5.614900     7.126000
H       5.871300     6.143300     8.562500
P       3.755700     7.072900     8.037300
C       2.895200     6.148400     9.313500
C       1.770500     6.529800    10.039300
H       1.403100     7.397700     9.928000
C       1.189800     5.637900    10.922300
H       0.421200     5.888300    11.420700
C       1.744900     4.367400    11.074100
H       1.337000     3.756300    11.675000
C       2.865000     3.972900    10.379300
H       3.230000     3.106100    10.510400
C       3.462300     4.864300     9.474700
C       5.516500     3.527700     8.988200
H       5.323100     3.191100     9.898600
H       6.427100     3.917100     9.001600
C       5.509400     2.336000     8.014700
C       4.152300     1.625700     8.051100
H       3.446200     2.258400     7.803400
H       3.985200     1.286600     8.956100
H       4.157600     0.877600     7.417900
C       5.828200     2.788400     6.597700
H       6.687200     3.260100     6.590600
H       5.122900     3.391000     6.281300
H       5.878800     2.005700     6.008200
C       6.610300     1.381900     8.502300
H       6.608600     0.572100     7.950700
H       6.443500     1.139500     9.436700
H       7.482100     1.824200     8.430000
C       2.245000     5.588300     6.401000
H       2.869700     4.836100     6.476800
H       1.867300     5.608000     5.496800
H       1.522800     5.479400     7.055100
C       4.977800    11.344900     8.586300
C       6.198000     9.016500     7.490600
C       5.107900     8.942100    10.170600
C       2.599500     9.884200     9.224400
C       3.551400     9.875000     6.504300
O       2.944000     6.822700     6.657400
O       5.331900    12.420100     8.725700
O       7.218600     8.786100     7.045300
O       5.490000     8.655800    11.206600
O       1.613700    10.146600     9.739200
O       3.070000    10.117400     5.502400
