85
Refcode: AXIVEI_comp_0 | Dataset: tmCAT | Charge: 1 | Potential Spins: [1, 3, 5]
Ru     10.974000     3.699100     5.672100
P      10.409500     1.559600     4.820300
C       8.815800     1.387000     3.931700
O      12.130900     2.606400     6.963400
N       9.641900     3.768700     7.294300
O       9.189000     4.449600     9.397300
C      10.121100     0.280100     7.254700
H       9.869700     1.138800     7.576100
C      11.421200     3.730100     8.978400
C      12.355300     3.039100     8.178800
C      10.894200    -1.157300     5.466600
H      11.155400    -1.281400     4.562600
C      12.955000     0.867100     4.016100
H      13.146700     0.977800     4.938200
C      10.198700     5.450900     4.570600
H       9.208000     5.581700     4.526400
C       8.475800     0.214700     3.274800
H       9.076300    -0.519900     3.298900
C       6.682100     2.286000     3.226500
H       6.062700     3.005500     3.208500
C      14.237300     4.224900     5.213500
H      14.852600     4.947700     4.970400
H      14.430600     3.433200     4.669000
H      14.351800     4.003500     6.161800
C       7.357600     2.730500     7.290800
H       7.767200     2.130000     6.603700
C      10.090900     3.976600     8.508300
C      11.417300     0.909000     2.214000
H      10.542400     1.036500     1.868400
C      10.101800     4.292000     2.356600
H       9.131900     4.392600     2.467100
H      10.307200     3.362800     2.121600
H      10.412900     4.887400     1.645400
C      11.657900     1.073400     3.560000
C      12.837400     4.664300     4.974400
C      12.449100     0.556800     1.364100
H      12.271800     0.459600     0.436000
C      10.493800     0.117400     5.936700
C      13.024600     3.914600    10.778500
H      13.268800     4.218200    11.646500
C      13.622300     2.760700     8.749400
H      14.263800     2.259200     8.259200
C       7.292900     0.088900     2.595700
H       7.096200    -0.717800     2.133600
C      10.523400    -2.061300     7.636400
H      10.540000    -2.809300     8.221000
C      13.704700     0.345500     1.820200
H      14.397200     0.090600     1.223500
C       6.396500     1.117000     2.581600
H       5.570700     1.019700     2.123600
C       7.897500     2.420200     3.915600
H       8.090100     3.228600     4.375700
C      10.113800    -0.818500     8.116600
H       9.833600    -0.721200     9.018600
C       8.173600     4.035300     7.323000
H       7.923500     4.607300     6.541500
C       7.362800     1.992500     8.614800
H       8.286200     1.875100     8.920200
H       6.942400     1.113700     8.502300
H       6.862000     2.510800     9.279800
C      10.888100     5.957400     5.691600
C      13.965900     0.504800     3.158200
H      14.845900     0.365600     3.491700
C      13.924100     3.215200    10.007100
H      14.788700     3.039100    10.360700
C      12.128200     4.251700     3.839300
H      12.508500     3.522100     3.270700
C       5.922400     3.052500     6.834800
H       5.386500     2.232400     6.840800
H       5.943200     3.423200     5.928700
H       5.525600     3.706600     7.447500
C       8.019000     4.832000     8.608800
H       8.016700     5.804800     8.423900
H       7.180700     4.590500     9.076900
C      10.787200     4.644200     3.638400
C      10.896400    -2.208900     6.350600
H      11.167400    -3.065900     6.045200
C      12.211600     5.549900     5.882500
H      12.656400     5.739400     6.758400
C      11.778300     4.166200    10.286300
H      11.144700     4.635800    10.816700
C      10.227500     6.901700     6.672100
H      10.665200     6.826200     7.546000
H       9.279300     6.668500     6.760500
H      10.307600     7.822500     6.344600
