92
Refcode: AZUVAS_comp_0 | Dataset: tmCAT | Charge: 0 | Potential Spins: [1, 3, 5]
Ni      7.005100     4.539100     3.260600
P       7.451400     6.600900     3.828000
O       8.860600     4.458500     2.836900
N       6.772300     2.730300     2.547300
C       9.507900     3.407800     3.313500
C      10.781700     3.596900     3.879000
H      11.151700     4.471300     3.917500
C      11.499300     2.537500     4.377700
H      12.347500     2.691000     4.778100
C      10.998300     1.243500     4.302600
H      11.499700     0.515000     4.651800
C       9.772700     1.024600     3.719400
H       9.442200     0.136600     3.651200
C       8.995900     2.091500     3.220200
C       7.727100     1.841700     2.535100
C       7.593800     0.551400     1.765900
H       7.541600    -0.199100     2.393900
H       8.373400     0.436000     1.183200
H       6.779800     0.578700     1.221600
C       5.572300     2.473300     1.779300
C       4.537600     1.701500     2.340300
C       3.358600     1.562300     1.593600
H       2.643000     1.045900     1.946400
C       3.216000     2.159000     0.356900
H       2.405500     2.059400    -0.129000
C       4.250900     2.900100    -0.172700
H       4.145600     3.294800    -1.030800
C       5.450500     3.085500     0.519000
C       6.518700     3.985600    -0.080600
H       7.298100     3.985800     0.544900
C       6.016900     5.425300    -0.192400
H       6.697900     5.975500    -0.632800
H       5.839300     5.780400     0.704200
H       5.190900     5.442900    -0.719300
C       7.015900     3.476500    -1.437100
H       7.314000     2.547300    -1.347900
H       7.765000     4.031700    -1.740500
H       6.287400     3.524400    -2.090500
C       4.644700     1.034100     3.695100
H       5.525800     1.286500     4.094500
C       3.547400     1.476000     4.653200
H       3.587100     2.448900     4.769900
H       3.674800     1.037300     5.520700
H       2.672900     1.227300     4.286700
C       4.598000    -0.501600     3.572900
H       3.707200    -0.779200     3.272300
H       4.788600    -0.905000     4.445900
H       5.269400    -0.798700     2.922300
C       5.238400     4.717800     3.924300
C       5.064800     4.805800     5.311600
H       5.820000     4.697300     5.877600
C       3.825900     5.045800     5.884400
H       3.748200     5.122000     6.828800
C       2.703000     5.174500     5.088000
H       1.853200     5.341900     5.479500
C       2.829100     5.058100     3.722300
H       2.059900     5.127300     3.169400
C       4.080800     4.838600     3.143200
H       4.149100     4.769100     2.197600
C       7.981900     7.633600     2.411000
C       8.535300     7.045600     1.279300
H       8.663600     6.104700     1.251800
C       8.904600     7.822400     0.190900
H       9.276900     7.412000    -0.580600
C       8.731100     9.186600     0.225200
H       8.966700     9.713700    -0.528500
C       8.216400     9.789000     1.350100
H       8.122200    10.733600     1.380900
C       7.835400     9.021300     2.437500
H       7.471700     9.441900     3.207800
C       8.864300     6.643800     4.987000
C      10.035800     7.337000     4.704000
H      10.090800     7.873000     3.921600
C      11.126900     7.249100     5.561300
H      11.927300     7.718000     5.356000
C      11.053600     6.485400     6.708700
H      11.803500     6.425700     7.290000
C       9.888000     5.807800     7.010500
H       9.830000     5.295200     7.808900
C       8.803800     5.874600     6.151700
H       8.010800     5.392300     6.356600
C       6.153600     7.636500     4.595100
C       6.197200     8.089300     5.908500
H       6.959200     7.915100     6.447200
C       5.114500     8.803200     6.434300
H       5.149300     9.118600     7.329800
C       4.002400     9.052100     5.669600
H       3.268700     9.530300     6.036800
C       3.955100     8.604600     4.363900
H       3.187100     8.777900     3.832400
C       5.023600     7.903600     3.825800
H       4.984400     7.603000     2.925100
