73
Refcode: BADGUL_comp_0 | Dataset: tmCAT | Charge: 1 | Potential Spins: [1, 3, 5]
Os     21.758100     8.226500     2.525500
H      22.553100     7.984100     1.170300
P      23.986500     8.498000     3.214500
N      21.503600    10.498500     0.398500
C      21.468000     9.864300     1.524400
C      21.210200    10.352300     2.849000
H      20.362300    10.311800     3.066900
C      21.872700    11.554400     3.445200
C      21.787600    11.727600     4.841500
H      21.352000    11.061900     5.362000
C      22.308300    12.820700     5.470000
H      22.233500    12.911700     6.412300
C      22.942300    13.785500     4.730500
H      23.331500    14.535500     5.166300
C      23.019700    13.671900     3.359500
H      23.452700    14.348900     2.852000
C      22.462900    12.564300     2.713800
C      22.499000    12.623900     1.189400
H      22.527400    13.576300     0.921100
H      23.344400    12.206700     0.885800
C      21.346900    11.957000     0.442900
H      20.493700    12.180800     0.890800
H      21.310800    12.310100    -0.481200
C      21.741200     9.830600    -0.886800
H      22.063400     8.908400    -0.722300
H      22.450000    10.316300    -1.381100
C      20.483400     9.778800    -1.735200
H      20.156100    10.700900    -1.880500
H      20.707600     9.395400    -2.620000
C      19.382800     8.964700    -1.119800
H      19.694700     8.047100    -0.979600
H      18.607000     8.957900    -1.719100
H      19.127600     9.358300    -0.259300
C      20.101900     7.542200     3.958700
H      19.800400     8.062800     4.694200
C      21.107100     6.562700     3.996100
H      21.589100     6.281600     4.763800
C      21.269500     6.060000     2.654300
H      21.903600     5.407800     2.377900
C      20.331300     6.703300     1.824000
H      20.199900     6.550300     0.895900
C      19.622500     7.617500     2.632100
H      18.931700     8.194400     2.330400
C      25.027500     6.968700     3.146600
H      25.945100     7.216000     3.460400
C      24.509400     5.883500     4.064700
H      23.718200     5.466300     3.664100
H      24.269700     6.274800     4.931300
H      25.205400     5.205400     4.193800
C      25.164100     6.399600     1.710000
H      25.630700     5.537100     1.743300
H      25.677100     7.026000     1.157200
H      24.274900     6.273700     1.321600
C      24.238800     9.116500     4.958500
H      24.200100    10.113900     4.903000
C      23.122800     8.707200     5.907800
H      23.189800     7.747900     6.096500
H      22.256700     8.899500     5.495200
H      23.205200     9.210900     6.745200
C      25.589400     8.782500     5.605200
H      25.718300     9.340300     6.401200
H      26.311100     8.957900     4.964600
H      25.604900     7.837900     5.863400
C      24.888300     9.829400     2.251800
H      24.339300    10.656000     2.379900
C      26.275000    10.202800     2.745100
H      26.865300     9.422400     2.681500
H      26.220900    10.496300     3.678300
H      26.633300    10.929200     2.194200
C      24.916700     9.606800     0.733400
H      25.097100    10.456900     0.281500
H      24.048100     9.258200     0.437800
H      25.620400     8.962400     0.510500
