59
Refcode: BADPOO_comp_0 | Dataset: tmCAT | Charge: 0 | Potential Spins: [1, 3, 5]
W       1.986200     8.993800     9.453700
C       0.838700    10.043900     8.111100
H       0.067900    10.729600     8.038600
C       1.715800     9.284700     7.466300
H       1.791900     9.272500     6.437800
C       0.710700    10.135900    10.412100
O      -0.037200    10.820600    10.977200
O      -1.108800     6.058200    10.317000
C      -0.228200     7.060800    10.478000
N       0.602900     7.268300     9.502700
C       0.432000     6.088400     8.559100
C      -0.986500     5.652000     8.924700
H      -1.658000     6.110500     8.359600
H      -1.095500     4.673000     8.827600
C       1.423100     4.990200     8.956900
H       1.238400     4.180000     8.438400
H       1.327600     4.795700     9.911900
H       2.337500     5.293600     8.774600
C       0.574800     6.451500     7.097100
H       0.331700     5.678800     6.543800
H       1.503000     6.706600     6.913400
H      -0.018400     7.202100     6.887600
S       2.484200     8.024100    11.709100
C       0.885800     8.127400    12.453400
C      -0.286600     7.723900    11.781200
C      -1.551200     7.875500    12.383200
H      -2.334000     7.601900    11.920100
C      -1.654200     8.424400    13.650400
H      -2.507600     8.556200    14.046300
C      -0.500000     8.784100    14.342400
H      -0.567800     9.135100    15.223000
C       0.751400     8.634200    13.753000
H       1.529500     8.880000    14.240200
O       5.484000    11.536400     8.898800
C       4.624900    10.513400     8.732000
N       3.625600    10.454800     9.562900
C       3.709700    11.682600    10.452400
C       5.117000    12.198700    10.137300
H       5.113000    13.182600    10.022500
H       5.747700    11.963400    10.863000
C       3.542500    11.360000    11.922500
H       4.190000    10.673100    12.182100
H       2.633100    11.031300    12.083600
H       3.694000    12.169500    12.454700
C       2.670900    12.704700     9.978300
H       1.770400    12.346100    10.123900
H       2.800800    12.883300     9.023000
H       2.777800    13.538300    10.484400
S       3.891300     7.458200     8.910100
C       4.633400     8.284100     7.556500
C       4.937300     9.664200     7.578000
C       5.575500    10.265700     6.479000
H       5.799900    11.188300     6.513600
C       5.880800     9.525400     5.345000
H       6.292300     9.942100     4.596300
C       5.577300     8.167600     5.315800
H       5.782900     7.655900     4.541800
C       4.975500     7.550400     6.407200
H       4.792900     6.618300     6.375700
