37
Refcode: BAFSOS_comp_0 | Dataset: tmCAT | Charge: 0 | Potential Spins: [1, 3, 5]
Zn      6.498700    10.315900    16.917700
Cl      6.937800    10.233700    14.715800
Cl      8.003700     9.107300    18.119700
N       4.686700     9.843400    17.572600
N       2.983300     6.614100    14.291100
H       3.778800     6.312500    13.996700
H       2.775000     7.351300    13.816800
O       6.417000    12.209200    17.388600
O       4.937000    15.944700    19.955000
C       4.384800    12.025900    18.664300
C       5.516100    12.727300    18.210500
C       5.708000    14.053000    18.631600
H       6.439200    14.528600    18.310600
C       4.841100    14.664100    19.508700
C       3.741400    13.952100    19.997400
H       3.163400    14.349300    20.608700
C       3.516700    12.676800    19.576200
H       2.773900    12.219900    19.897200
C       4.025700    10.677600    18.298400
H       3.212600    10.370700    18.629600
C       4.102900     8.525600    17.374200
H       3.205600     8.516300    17.742300
H       4.629300     7.868100    17.854700
C       4.045500     8.141700    15.902200
H       3.736700     8.897600    15.378800
H       4.931200     7.897300    15.591400
C       3.099100     6.975400    15.724300
H       3.426700     6.211600    16.225200
H       2.224000     7.210500    16.071900
C       1.940900     5.566000    14.051900
H       2.140900     4.788800    14.579400
H       1.935000     5.326800    13.121700
H       1.078700     5.908700    14.299300
C       6.025000    16.728400    19.512800
H       6.848700    16.292700    19.745900
H       5.989900    17.590500    19.931900
H       5.978200    16.833400    18.560100
