113
Refcode: BAQFUU_comp_1 | Dataset: tmCAT | Charge: 1 | Potential Spins: [1, 3, 5]
Rh      2.340000     6.024500     3.719100
P       3.179800     7.787100     4.719100
O       3.438100     8.376200     0.390100
O       2.452300     8.219600     6.066600
O       4.715400     7.629100     5.064000
O       4.388800    10.355600     8.308800
O       6.114600    10.520500     6.843200
N       3.150800     6.841800     1.954100
C       3.127100     8.060200     1.662500
C       3.768800     6.073900     0.813000
H       3.227300     5.306000     0.616100
C       3.621000     7.117600    -0.331800
H       4.409500     7.146700    -0.875000
H       2.861500     6.918000    -0.885900
C       5.214500     5.619200     1.082800
H       5.766400     6.402400     1.141100
C       5.653700     4.819500    -0.124000
H       6.553800     4.504800    -0.014600
H       5.065700     4.069600    -0.244300
H       5.605200     5.389200    -0.896900
C       5.370600     4.854100     2.358800
H       6.290300     4.603200     2.468200
H       5.096700     5.398900     3.098900
H       4.824900     4.064000     2.322400
C       2.653800     9.221700     2.468200
C       1.120200     9.214800     2.490100
H       0.808100     8.359600     2.796300
H       0.804000     9.899500     3.084300
H       0.789500     9.378400     1.604200
C       3.213900    10.539900     2.001500
H       4.172900    10.494200     2.008800
H       2.908000    10.720100     1.112000
H       2.922500    11.241300     2.588500
O       3.149800     9.097000     3.824400
C       2.669300     9.374200     6.963500
C       4.142900     9.382500     7.306200
H       4.385700     8.520400     7.648900
C       5.113300     9.748400     6.186900
H       4.660600    10.307000     5.552600
C       5.769500     8.561900     5.439500
C       5.750900    10.678500     8.254100
C       6.589000     9.711000     9.096300
H       6.442200     8.810100     8.797300
H       7.519000     9.931400     9.001500
H       6.333700     9.787300    10.018700
C       5.946200    12.072900     8.658800
H       5.404700    12.644000     8.108300
H       5.683700    12.172700     9.577500
H       6.869000    12.316900     8.560300
C       2.077100    10.580100     6.241600
C       2.716800    11.845600     6.223400
H       3.583800    11.964800     6.617100
C       2.077100    12.921200     5.610900
H       2.508100    13.777800     5.578100
C       0.861900    12.790900     5.064000
H       0.449500    13.525600     4.604600
C       0.186000    11.585000     5.166100
H      -0.708900    11.500500     4.834300
C       0.796800    10.538500     5.734800
H       0.311100     9.712400     5.782200
C       1.902500     9.011000     8.221300
C       1.196700    10.024300     8.917600
H       1.171900    10.919700     8.571300
C       0.561100     9.727600    10.095200
H       0.129200    10.423500    10.594700
C       0.539400     8.456600    10.554600
H       0.031000     8.266700    11.345700
C       1.201800     7.430900     9.934800
H       1.210100     6.547900    10.314000
C       1.879800     7.712300     8.746300
H       2.326200     7.004000     8.276000
C       6.747100     7.756600     6.285400
C       8.004700     8.302700     6.485900
H       8.257900     9.115000     6.041100
C       8.925500     7.640200     7.349900
H       9.781100     8.033800     7.532200
C       8.593800     6.463400     7.922300
H       9.223100     6.014300     8.494700
C       7.327800     5.900600     7.685300
H       7.085000     5.066200     8.097300
C       6.425700     6.559000     6.846800
H       5.570000     6.165400     6.657200
C       6.463900     8.994400     4.148900
C       6.639600    10.355600     3.788000
H       6.277900    11.034700     4.364000
C       7.266900    10.728400     2.676000
H       7.312300    11.657100     2.439000
C       7.850700     9.788600     1.873900
H       8.381900    10.063100     1.122900
C       7.683300     8.441300     2.143700
H       8.031600     7.776000     1.545800
C       7.018900     8.065700     3.292200
H       6.940300     7.132900     3.500000
C       0.816400     4.843000     2.544800
H       0.809200     5.087000     1.618700
C       1.777400     3.978100     2.818200
H       2.308600     3.702300     2.067200
C       1.687500     2.941300     3.981200
H       2.143300     2.136000     3.726000
H       0.765700     2.725100     4.138000
C       2.287900     3.469400     5.253600
H       3.232500     3.298900     5.228100
H       1.927300     2.969000     5.990000
C       2.073000     4.916500     5.534300
H       2.563900     5.254700     6.285400
C       0.886700     5.626200     5.228100
H       0.746100     6.376100     5.811400
C      -0.410300     5.053700     4.684900
H      -1.145000     5.561000     5.038500
H      -0.502200     4.148600     4.991100
C      -0.480500     5.071700     3.171800
H      -1.095400     4.395300     2.876500
H      -0.822600     5.922800     2.887500
