60
Refcode: BARQUH_comp_0 | Dataset: tmCAT | Charge: unknown | Potential Spins: [1, 3, 5]
Ti      3.653300     8.739900     0.351100
Cl      4.735400     8.624400     2.376100
Cl      3.205900     6.512700    -0.089800
P       0.562600     9.585600     1.321400
N       2.062100     9.346900     0.794800
C       3.848000    10.279500    -1.388100
C       4.848000    10.580400    -0.443600
C       5.800800     9.532400    -0.499400
C       5.363500     8.585500    -1.370400
C       4.140500     9.056400    -1.969200
C       2.716700    11.216000    -1.844000
C       4.938700    11.834700     0.363400
C       7.118200     9.519400     0.265400
C       6.047600     7.293600    -1.830400
C       3.389500     8.353300    -3.079700
C      -0.489700     9.950100    -0.151100
C      -0.419500     8.848800    -1.186700
C      -1.949200    10.366400     0.174200
C      -0.112800     8.106900     2.148800
C       0.946500     7.331200     2.995300
C      -1.363200     8.362400     2.995300
C       0.481100    11.004600     2.450900
C       1.401200    10.813900     3.690700
C       0.827300    12.300400     1.755500
H       3.026500    11.762100    -2.570700
H       2.452600    11.779000    -1.111800
H       1.965600    10.693300    -2.132500
H       5.467200    12.482000    -0.107500
H       5.350000    11.641500     1.209800
H       4.057800    12.185000     0.509000
H       7.812100     9.885200    -0.287100
H       7.340700     8.616600     0.503500
H       7.031000    10.048600     1.061500
H       6.683600     7.495900    -2.519000
H       5.386500     6.685300    -2.172000
H       6.499500     6.888900    -1.086000
H       3.732900     8.641300    -3.930200
H       2.456100     8.568600    -3.022500
H       3.504100     7.403800    -2.993900
H      -0.082300    10.734800    -0.575700
H      -0.973400     9.079700    -1.936500
H      -0.729400     8.026500    -0.801600
H       0.488500     8.743800    -1.480600
H      -2.424200    10.536300    -0.643700
H      -1.943500    11.161500     0.711700
H      -2.384400     9.658200     0.654600
H      -0.388000     7.497200     1.433000
H       0.528900     6.573700     3.413100
H       1.303400     7.911000     3.671700
H       1.655000     7.030300     2.423700
H      -1.648800     7.540000     3.400800
H      -2.064400     8.703500     2.436000
H      -1.161200     9.003200     3.681200
H      -0.440900    11.077200     2.773500
H       1.322200    11.576600     4.269100
H       2.313200    10.725700     3.402200
H       1.138300    10.022700     4.165700
H       0.777800    13.024200     2.384300
H       0.205900    12.454800     1.039700
H       1.717200    12.244600     1.400300
