43
Refcode: BEJWUL_comp_0 | Dataset: tmCAT | Charge: 0 | Potential Spins: [1, 3, 5]
Pd      8.499700     4.895800     6.652800
Se      7.760300     2.769800     5.914900
Cl      9.682200     3.807200     8.298400
Cl      9.190100     6.970400     7.436700
N       7.311700     5.761100     5.167600
C       6.762600     4.773700     4.199900
H       6.017200     5.174800     3.725400
H       7.447100     4.555700     3.546900
C      10.017000     3.128400     4.093400
H      10.189700     3.927700     4.536500
C       8.960500     2.332100     4.444100
C       6.304300     3.526500     4.859100
H       6.019800     2.886500     4.187300
H       5.547300     3.719600     5.433800
C       7.919400     6.915700     4.430100
H       8.626400     6.584200     3.855400
H       8.320000     7.521900     5.072100
C       6.931000     7.672200     3.598500
C       6.068000     8.620700     4.212400
C       5.120100     9.328400     3.338600
C       6.099100     8.923300     5.581000
H       6.696100     8.483400     6.143200
C       5.232300     9.888800     6.097800
H       5.248100    10.084900     7.006000
C       6.894700     7.476100     2.258100
H       7.497800     6.885800     1.868200
C       4.318500    10.235200     3.903900
H       3.710000    10.669200     3.349600
C      10.818700     2.693400     3.048900
H      11.537900     3.218000     2.782700
C       8.703400     1.175500     3.763000
H       7.959800     0.658900     3.977500
C       5.140000     8.999000     1.955900
H       4.532500     9.416000     1.389000
C       5.974600     8.141000     1.453200
H       5.956000     7.966800     0.540300
C      10.581900     1.532800     2.411600
H      11.147000     1.260100     1.724100
C       9.555800     0.782300     2.752900
H       9.404900    -0.021900     2.309800
C       4.316300    10.581600     5.236500
H       3.742600    11.236500     5.565400
H       6.625900     5.962100     5.621700
