43
Refcode: BEKBAX_comp_0 | Dataset: tmCAT | Charge: 0 | Potential Spins: [1, 3, 5]
Pd      3.286400    14.122000    15.450500
Cl      3.618600    12.317100    14.088400
Cl      4.394500    13.058100    17.162500
F       2.590600    18.944300    21.769600
F       2.365400    21.104100    21.721000
F      -0.799600    16.215700     7.573100
O       2.960600    20.071800    19.281700
O       0.143200    17.111700    10.035400
N       3.060400    15.881900    16.445300
N       2.262400    15.154100    14.053900
C       2.528700    16.877400    15.683400
C       2.453600    18.182200    16.154100
H       2.086000    18.851200    15.622300
C       2.930400    18.482400    17.421100
C       3.421900    17.445800    18.204800
H       3.712200    17.611400    19.072200
F       0.172600    17.899800     6.600400
C       3.477600    16.166200    17.685500
H       3.816600    15.480100    18.214700
C       2.057300    16.467700    14.354100
C       1.446600    17.322500    13.455900
H       1.329700    18.218900    13.672400
C       1.007000    16.837500    12.227000
C       1.174900    15.487200    11.959600
H       0.862200    15.126800    11.162000
C       1.808900    14.677800    12.883300
H       1.925700    13.776400    12.687500
C       2.978400    19.928000    17.868000
H       3.783400    20.340200    17.518500
H       2.217500    20.399700    17.493000
C       1.656400    19.897300    19.829000
H       1.288700    19.044300    19.547700
H       1.067400    20.602700    19.516600
C       1.762400    19.942600    21.315700
C       0.394700    17.793600    11.248400
H      -0.434200    18.146300    11.606400
H       0.998500    18.535900    11.091300
C      -0.040200    17.958200     8.922600
H       0.586700    18.697600     8.954500
H      -0.942000    18.316300     8.914900
C       0.195100    17.132500     7.718600
H       0.874600    19.873100    21.783500
H       1.137800    16.597700     7.782900
