73
Refcode: BELVIA_comp_0 | Dataset: tmCAT | Charge: 0 | Potential Spins: [1, 3, 5]
C       1.914100     7.460200    -3.255700
C       1.739300     7.905300    -1.986100
H       1.732900     8.815500    -1.797200
C       1.568800     6.966600    -0.974200
H       1.430000     7.250400    -0.098400
C       1.603500     5.608400    -1.261300
C       1.719800     5.196700    -2.579000
H       1.687900     4.290800    -2.785400
C       1.883200     6.129700    -3.592600
H       1.970000     5.860200    -4.477600
C       3.829700     5.474800     0.298400
H       3.825300     5.740000    -0.625300
H       4.638100     4.994800     0.489700
H       3.781000     6.254800     0.854900
C       2.633100     4.580900     0.573700
C       2.782900     3.693500     1.669300
C       4.012200     3.793700     2.552800
H       4.759500     3.367800     2.103200
H       4.236200     4.728800     2.678200
C       3.817900     3.148800     3.906100
H       4.676700     3.078400     4.350800
H       3.248500     3.716200     4.449200
C       3.202500     1.786300     3.808400
C       3.501400     0.771500     4.713700
H       4.155100     0.910900     5.360900
C       2.836800    -0.441600     4.662600
H       3.047100    -1.113600     5.269000
C       1.867400    -0.651400     3.715000
H       1.415400    -1.463400     3.684000
C       1.562300     0.345600     2.807900
H       0.900000     0.200500     2.171000
C       2.235500     1.565100     2.836300
C       1.918900     2.631800     1.843700
F       2.119600     8.379600    -4.244300
N       1.566100     4.638500    -0.194100
Ni      0.000000     3.555500     0.000000
O       0.852400     2.418500     1.153300
C      -1.914100    -0.349200     3.255700
C      -1.739300    -0.794300     1.986100
H      -1.732900    -1.704500     1.797200
C      -1.568800     0.144400     0.974200
H      -1.430000    -0.139400     0.098400
C      -1.603500     1.502600     1.261300
C      -1.719800     1.914300     2.579000
H      -1.687900     2.820200     2.785400
C      -1.883200     0.981300     3.592600
H      -1.970000     1.250800     4.477600
C      -3.829700     1.636200    -0.298400
H      -3.825300     1.371000     0.625300
H      -4.638100     2.116200    -0.489700
H      -3.781000     0.856200    -0.854900
C      -2.633100     2.530100    -0.573700
C      -2.782900     3.417500    -1.669300
C      -4.012200     3.317300    -2.552800
H      -4.759500     3.743200    -2.103200
H      -4.236200     2.382200    -2.678200
C      -3.817900     3.962200    -3.906100
H      -4.676700     4.032600    -4.350800
H      -3.248500     3.394800    -4.449200
C      -3.202500     5.324700    -3.808400
C      -3.501400     6.339500    -4.713700
H      -4.155100     6.200100    -5.360900
C      -2.836800     7.552600    -4.662600
H      -3.047100     8.224600    -5.269000
C      -1.867400     7.762400    -3.715000
H      -1.415400     8.574400    -3.684000
C      -1.562300     6.765400    -2.807900
H      -0.900000     6.910500    -2.171000
C      -2.235500     5.545900    -2.836300
C      -1.918900     4.479200    -1.843700
F      -2.119600    -1.268600     4.244300
N      -1.566100     2.472500     0.194100
O      -0.852400     4.692500    -1.153300
