89
Refcode: BEMZEA_comp_0 | Dataset: tmCAT | Charge: 0 | Potential Spins: [1, 3, 5]
C       7.007900     8.835300     5.302300
C       7.344900    10.011900     6.034300
C       7.156300    11.363700     5.790600
H       7.470200    11.954700     6.466100
C       6.568500    11.958900     4.691000
C       3.615200     4.465600     4.773800
C       2.908600     5.396000     4.030500
H       3.093800     6.322300     4.131800
C       1.923000     4.976000     3.128000
H       1.415700     5.619900     2.647600
C       1.689000     3.636800     2.936600
H       1.040400     3.353100     2.302300
C       2.389600     2.706400     3.666500
H       2.223200     1.780100     3.533300
C       3.343100     3.108300     4.599100
H       3.808100     2.460200     5.113200
C       5.411900     3.670100     6.911000
C       6.659600     3.106900     6.732500
H       7.230400     3.437900     6.047600
C       7.098800     2.055500     7.545000
H       7.958900     1.675800     7.409900
C       6.268700     1.566000     8.554500
H       6.559200     0.852500     9.111800
C       5.029800     2.122300     8.734600
H       4.463800     1.796800     9.425200
C       4.593500     3.159700     7.916500
H       3.727200     3.525500     8.046000
C       4.039800     6.148400     7.035900
C       2.694700     5.918900     7.364500
H       2.199100     5.254200     6.899500
C       2.091500     6.663000     8.368800
H       1.183400     6.490500     8.592000
C       2.779400     7.646200     9.049900
C       4.112200     7.904900     8.689800
H       4.593100     8.598900     9.126800
C       4.732500     7.152500     7.697600
H       5.637000     7.329100     7.470000
C       2.149800     8.388900    10.173800
H       2.786500     9.042500    10.530400
H       1.895300     7.758900    10.879400
H       1.350600     8.856200     9.849200
O       7.380100     7.707400     5.697100
P       4.940200     5.091600     5.860000
Cu      6.568500     6.065400     4.691000
Br      8.231000     9.619100     7.682400
Br      6.568500    13.851700     4.691000
C       6.129100     8.835300     4.079700
C       5.792100    10.011900     3.347700
C       5.980700    11.363700     3.591400
H       5.666800    11.954700     2.915900
C       9.521700     4.465600     4.608300
C      10.228400     5.396000     5.351500
H      10.043200     6.322300     5.250200
C      11.214000     4.976000     6.254000
H      11.721300     5.619900     6.734400
C      11.448000     3.636800     6.445400
H      12.096600     3.353100     7.079700
C      10.747400     2.706400     5.715500
H      10.913800     1.780100     5.848700
C       9.793900     3.108300     4.782900
H       9.328900     2.460200     4.268800
C       7.725100     3.670100     2.471000
C       6.477400     3.106900     2.649500
H       5.906600     3.437900     3.334400
C       6.038200     2.055500     1.837000
H       5.178100     1.675800     1.972100
C       6.868300     1.566000     0.827500
H       6.577800     0.852500     0.270200
C       8.107200     2.122300     0.647400
H       8.673200     1.796800    -0.043200
C       8.543500     3.159700     1.465500
H       9.409800     3.525500     1.336000
C       9.097200     6.148400     2.346100
C      10.442300     5.918900     2.017500
H      10.937900     5.254200     2.482500
C      11.045500     6.663000     1.013300
H      11.953600     6.490500     0.790000
C      10.357500     7.646200     0.332100
C       9.024800     7.904900     0.692200
H       8.543900     8.598900     0.255200
C       8.404400     7.152500     1.684400
H       7.500000     7.329100     1.912100
C      10.987200     8.388900    -0.791800
H      10.350500     9.042500    -1.148400
H      11.241700     7.758900    -1.497400
H      11.786300     8.856200    -0.467200
O       5.756900     7.707400     3.684900
P       8.196800     5.091600     3.522000
Br      4.906000     9.619100     1.699600
