71
Refcode: BENBOO_comp_0 | Dataset: tmCAT | Charge: 0 | Potential Spins: [1, 3, 5]
C      12.971300    13.916300     5.938600
C      13.841500    14.973500     6.272300
H      14.585400    14.809000     6.805700
C      13.599200    16.232500     5.817100
H      14.190400    16.914100     6.040100
C      12.509300    16.526300     5.041500
H      12.375100    17.390000     4.724400
C      11.613800    15.525000     4.736900
H      10.849300    15.721200     4.245100
C      11.847100    14.215500     5.163800
C      10.880700    13.211300     4.837600
H      10.108800    13.495700     4.402300
C      19.474400    13.952600     6.416300
H      20.190600    14.512300     6.606800
C       9.788600    11.154300     4.666100
H      10.086300    10.352000     4.210100
H       9.260600    11.674100     4.041200
C       8.925300    10.766000     5.843700
H       9.476000    10.325600     6.509500
H       8.558200    11.568400     6.245700
C       7.801600     9.852400     5.455900
C       7.826900     8.504000     5.773800
H       8.540300     8.164700     6.264000
C       6.811400     7.652000     5.379300
H       6.846100     6.750100     5.604900
C       5.758300     8.133900     4.658700
H       5.082400     7.552100     4.389900
C       5.679800     9.458900     4.324100
H       4.954500     9.783500     3.840600
C       6.700500    10.306500     4.720200
C       5.627900    12.194200     3.688300
H       4.801900    12.050200     4.157700
H       5.591800    11.756400     2.835300
H       5.760100    13.137300     3.559300
C      12.201700     8.310000     5.488400
C      13.403700     7.984000     6.125000
C      14.282900     9.000000     6.597700
H      15.074500     8.711200     6.991300
C      15.306100    11.069800     6.925600
H      15.862100    10.556200     7.532200
H      15.034100    11.885700     7.375000
C      16.091900    11.408700     5.660600
H      16.389400    10.584100     5.243700
H      15.503100    11.860700     5.035600
C      17.299800    12.290200     5.924400
C      17.231100    13.643500     5.699700
H      16.438800    14.009900     5.379300
C      18.315400    14.479900     5.940200
H      18.247400    15.393700     5.778000
C      19.594900    12.604000     6.616000
H      20.397100    12.245600     6.918100
C      18.514200    11.779600     6.364700
C      19.802400     9.845200     6.835700
H      20.143500    10.243300     7.640400
H      20.417200    10.003900     6.115000
H      19.699200     8.899200     6.965500
C      13.786100     6.633300     6.201600
H      14.578600     6.410700     6.636000
C      13.033900     5.653600     5.662300
H      13.297400     4.764000     5.736400
C      11.855600     5.985700     4.989900
H      11.349600     5.313400     4.593700
C      11.436500     7.279300     4.905800
H      10.645100     7.483100     4.463100
N      14.104900    10.277900     6.541900
N      10.976500    11.950500     5.088100
O      13.235200    12.722900     6.375500
O      11.757100     9.531900     5.399300
O       6.710200    11.661700     4.453100
O      18.549000    10.416800     6.521100
Ni     12.516800    11.118300     5.869800
