83
Refcode: BENTAR_comp_0 | Dataset: tmCAT | Charge: 0 | Potential Spins: [1, 3, 5]
Ir      6.680700     3.452900     8.073600
Cl      6.952000     4.602800     5.979800
P       4.725000     4.449200     8.503900
C       3.031900     4.329300     8.288700
C       2.180800     5.380300     8.713500
C       2.634000     6.574200     9.318000
C       3.987200     6.856900     9.585400
C       4.440400     8.211200    10.109600
H       4.444300     8.853100     9.354800
H       3.771500     8.530800    10.767500
C       5.801600     8.237500    10.763700
H       6.126500     9.172800    10.781700
H       5.708800     7.934900    11.700600
C       6.836300     7.381100    10.081200
C       8.200200     7.653400    10.162700
H       8.505000     8.433500    10.609200
C       9.112100     6.777300     9.587000
H      10.037700     6.987800     9.602900
C       8.688200     5.590700     8.986500
H       9.334700     5.002700     8.610700
C       7.334800     5.246800     8.923700
C       6.424100     6.209100     9.428500
C       4.997200     5.955000     9.263200
C       0.693100     5.192200     8.469900
H       0.457500     5.553900     7.590200
H       0.185500     5.663100     9.163500
H       0.475700     4.237100     8.499700
C       2.463100     3.106100     7.637200
C       1.944900     2.052100     8.456700
C       1.955800     2.102100     9.871200
H       2.295700     2.875600    10.306800
C       1.486700     1.060300    10.623600
H       1.510800     1.112900    11.570700
C       0.968100    -0.089500     9.997900
H       0.654600    -0.814300    10.524200
C       0.915100    -0.165700     8.633600
H       0.548400    -0.939200     8.223300
C       1.397100     0.887900     7.825200
C       1.353400     0.834000     6.420600
H       0.971500     0.076300     5.993200
C       1.854000     1.852200     5.666500
H       1.819500     1.786400     4.719900
C       2.426400     3.009800     6.260400
C       2.961000     4.106900     5.374500
H       2.625400     4.972500     5.688500
H       2.663500     3.956900     4.453000
H       3.940400     4.104300     5.407400
C       1.612300     7.620300     9.654600
C       1.086900     8.430800     8.657900
H       1.391300     8.329600     7.762600
C       0.123700     9.388500     8.950900
H      -0.237000     9.925200     8.254000
C      -0.309400     9.562200    10.249900
H      -0.961700    10.223800    10.450900
C       0.206600     8.771600    11.255300
H      -0.089600     8.888600    12.149500
C       1.164000     7.800700    10.961200
H       1.513000     7.257400    11.658100
C       8.416300     2.077100     8.074200
C       7.445600     1.497000     7.180800
C       6.271800     1.226000     7.881400
C       6.475600     1.647000     9.248300
C       7.823100     2.121900     9.368800
C       9.854100     2.340200     7.729500
H      10.329300     2.654600     8.528000
H       9.902400     3.024300     7.030300
H      10.269100     1.512800     7.408300
C       7.730400     1.210200     5.735300
H       8.327600     0.436700     5.667200
H       8.159500     1.990300     5.327100
H       6.891500     1.018200     5.268000
C       5.057800     0.527500     7.323200
H       4.871300     0.865600     6.420800
H       4.286100     0.698500     7.902000
H       5.227300    -0.436700     7.280700
C       5.500300     1.379900    10.365200
H       5.600600     0.453800    10.670600
H       4.586500     1.519400    10.039900
H       5.681000     1.991600    11.110000
C       8.497900     2.486200    10.655500
H       7.832600     2.826900    11.289600
H       9.172400     3.176900    10.486400
H       8.931300     1.691700    11.032100
