97
Refcode: BEPLIS_comp_0 | Dataset: tmCAT | Charge: 0 | Potential Spins: [1, 3, 5]
Pd     -0.800600     3.470000     4.406100
P       0.977700     4.577700     3.494200
O      -3.735000     1.124400     4.958700
O       1.044400     3.092400     7.138300
O       0.856900     0.739300     3.109300
C      -2.883200     3.307700     4.928300
H      -3.094300     3.384000     5.903000
C       2.247700     2.470400     4.736900
C      -3.309800     2.078000     4.283900
C       2.455300     3.621900     3.975700
C      -2.620500     4.531800     4.254800
H      -2.988700     4.563100     3.325200
C      -3.232100     1.958000     2.807500
H      -2.841900     2.662200     2.302100
C       3.774900     3.962300     3.620500
H       3.931400     4.725600     3.075600
C       4.637000     2.086700     4.835400
H       5.376400     1.575200     5.144800
C       0.880100     1.950300     5.113600
C       3.339800     1.716600     5.166300
H       3.193600     0.939700     5.693200
C      -2.640400     7.223200     6.940400
H      -2.574900     7.291600     7.885000
C       1.063000     6.237100     5.703300
H       0.234500     5.754800     5.950500
H       1.831000     5.747500     6.089900
C       0.292400     0.905900     4.346400
C      -2.577300     5.981200     6.333500
H      -2.477200     5.204900     6.872500
C      -2.656100     5.842100     4.948300
C       0.385500     2.136800     6.426400
C      -0.608900     1.312500     6.943000
H      -0.934600     1.452700     7.823700
C       1.196500     6.280500     4.176700
H       0.414600     6.809300     3.847500
C      -3.730600     0.619200     0.742900
C      -2.794000     7.011400     4.197300
H      -2.845300     6.952800     3.250200
C       0.402700     3.607600     8.306200
H      -0.513000     3.875700     8.084100
H       0.900200     4.383500     8.637000
H       0.380700     2.914400     8.998500
C      -2.795900     8.363500     6.175600
H      -2.859200     9.214300     6.592200
C      -4.114900    -0.644600     0.289500
H      -4.314500    -1.325700     0.920500
C       1.181300     4.738300     1.656200
H       2.073900     5.155600     1.485700
C       4.841100     3.207500     4.049700
H       5.724600     3.457300     3.804600
C      -2.857600     8.254400     4.804800
H      -2.944200     9.036300     4.271800
C      -3.694600     0.891200     2.182600
H      -4.050900     0.208900     2.740100
C      -1.119400     0.292700     6.174100
H      -1.776100    -0.285800     6.543200
C      -3.451000     1.582600    -0.212900
H      -3.171800     2.447500     0.061300
C       2.427100     7.062200     3.769400
H       2.476700     7.114600     2.783000
H       3.239100     6.600200     4.097200
C      -0.696700     0.096100     4.873700
H      -1.083500    -0.591700     4.343800
C       1.180300     3.361100     0.995600
H       1.907300     2.811000     1.383100
H       0.321100     2.907800     1.182400
C      -4.208100    -0.919800    -1.059900
H      -4.461000    -1.789100    -1.349400
C       0.184300    -0.104500     2.167300
H       0.162600    -1.023100     2.510400
H       0.662900    -0.085900     1.312600
H      -0.730800     0.216700     2.035600
C      -3.571000     1.303300    -1.554600
H      -3.399300     1.985300    -2.193300
C       2.223700     8.446200     5.878500
H       3.034100     8.040100     6.275200
H       2.142200     9.369700     6.224600
C       2.363800     8.482100     4.360600
H       3.187300     8.975200     4.120200
H       1.593300     8.965700     3.971600
C       0.133800     5.626500     1.021600
H       0.189600     6.533500     1.413700
H      -0.767700     5.264200     1.217700
C       1.019300     7.652800     6.278300
H       0.203000     8.111800     5.956600
H       0.973200     7.604300     7.266200
C       1.378200     3.470300    -0.514600
H       2.274800     3.845400    -0.703000
H       1.332500     2.568000    -0.919000
C       0.325500     4.352400    -1.142600
H       0.504900     4.443000    -2.112200
H      -0.565200     3.935400    -1.032300
C      -3.938200     0.053800    -1.978900
H      -4.005000    -0.134300    -2.908600
C       0.331800     5.711400    -0.497800
H      -0.391800     6.261300    -0.891400
H       1.192900     6.160200    -0.690800
