73
Refcode: BESYEG_comp_0 | Dataset: tmCAT | Charge: -2 | Potential Spins: [1, 3, 5]
Pd     -0.138100    10.503800     4.078800
Cl      1.347500    11.740700     5.554500
N      -1.569300    13.111500     3.578700
C      -1.509500    11.919800     4.197200
C      -1.233000     9.411600     2.824000
N      -2.603900    11.890800     5.007900
C      -1.135300    14.539800     1.590400
N       1.134300     8.790300     4.010600
C      -0.568800    13.584700     2.612700
H      -0.188700    12.819700     2.151700
H       0.148500    14.027400     3.093600
C      -2.951200    10.807900     5.926300
H      -2.869600     9.960300     5.463200
H      -3.875700    10.909500     6.200900
C      -3.306100    13.063600     4.891300
H      -4.084700    13.284200     5.349700
C      -2.550600     9.577100     2.408400
H      -3.037900    10.302800     2.723700
C      -0.545800     8.308400     2.299200
C      -2.674800    13.831400     4.005800
H      -2.925900    14.682000     3.729200
C      -1.804600    14.028800     0.484800
C      -0.964500    15.901300     1.725000
C      -2.277800    14.867800    -0.516800
C      -1.147800     7.433200     1.432200
H      -0.669000     6.707400     1.103100
C      -3.156900     8.680000     1.532100
H      -4.042800     8.807800     1.277900
C      -2.460400     7.620400     1.046300
H      -2.865100     7.023900     0.458500
C       0.654200     7.918000     5.102300
H       0.714900     8.386800     5.937600
H       1.194700     7.125500     5.138700
H      -0.260000     7.674100     4.936700
C      -1.421800    16.766400     0.703600
C       0.903300     8.166200     2.687400
H       1.140900     7.225600     2.723700
H       1.464000     8.594400     2.022300
C      -0.327300    16.480400     2.971100
H      -0.514900    15.911500     3.720100
H      -0.683800    17.355700     3.134500
H       0.623100    16.540000     2.844000
C      -1.983200    12.070800     7.910000
H      -2.877100    12.348000     8.161900
H      -1.613600    12.754400     7.328900
C      -2.069700    16.246800    -0.390400
C       2.567600     9.003700     4.201300
H       2.898000     9.590100     3.515800
H       3.026300     8.161800     4.149100
H       2.721700     9.398500     5.061500
C      -2.070200    10.789100     7.151900
H      -2.398600    10.101100     7.751100
H      -1.175400    10.533600     6.879500
C      -1.126400    11.973500     9.160600
H      -0.240700    11.693400     8.922300
H      -1.512300    11.333400     9.764400
H      -1.085900    12.832800     9.587300
C      -2.050200    12.514900     0.367700
H      -1.552000    12.166600    -0.376800
H      -2.986500    12.352400     0.229200
H      -1.765900    12.080900     1.173400
C      -2.584500    17.169900    -1.486700
H      -2.526800    16.722800    -2.335500
H      -2.051500    17.968200    -1.509400
H      -3.498600    17.400700    -1.307400
C      -3.009200    14.287200    -1.709100
H      -2.603500    13.452600    -1.956500
H      -2.958200    14.899800    -2.444500
H      -3.929700    14.137700    -1.477600
C      -1.156200    18.274500     0.801200
H      -1.973600    18.731700     1.010000
H      -0.817200    18.593800    -0.038600
H      -0.510100    18.441400     1.491200
