79
Refcode: BICXOB_comp_0 | Dataset: tmCAT | Charge: unknown | Potential Spins: [1, 3, 5]
Ir      2.281800     2.118100     5.304700
P       3.678500     2.649600     3.562500
P       0.763100     3.833500     5.807500
C       1.227100     1.022700     4.230700
C       2.363400     7.098700     8.687000
H       2.696900     7.750600     9.292400
C       6.499100     2.288700     3.597400
H       6.575000     3.231000     3.497200
O       0.589300     0.341900     3.542900
C       4.957900     7.077900     3.130700
H       5.181500     7.997300     3.049300
C       4.482700     4.953200     2.117200
H       4.400000     4.418400     1.336800
C       7.652400     1.502400     3.670600
H       8.509800     1.907300     3.617200
C       7.538000     0.135700     3.821700
H       8.321500    -0.399500     3.872900
C      -1.360200     4.883600     4.190500
H      -1.968000     4.475500     4.797000
C       6.297100    -0.463400     3.898400
H       6.226400    -1.404700     3.998100
C       1.597900     6.479200     6.489700
H       1.426100     6.721500     5.587100
C      -1.599400     4.127900     7.350000
H      -1.401400     5.057200     7.370100
C       4.763800     6.518600     4.382600
H       4.877400     7.049200     5.162100
C       1.623100     4.861300     8.238700
H       1.462100     3.976600     8.546400
C       4.257700     4.384900     3.372200
C       2.129000     5.800300     9.115200
H       2.318400     5.556100    10.013700
C      -0.733600     3.249200     6.713900
C       5.244000     1.699200     3.670100
C       4.403500     5.183300     4.500400
H       4.255500     4.810500     5.361400
C      -3.065900     2.308600     7.945000
H      -3.866600     1.997500     8.352400
C       1.342000     5.185500     6.911200
C      -1.044200     1.893100     6.711700
H      -0.458900     1.281300     6.280200
C       4.825500     6.295500     2.002600
H       4.969300     6.675500     1.144600
C       0.380800     6.110300     2.413300
H       0.977200     6.537400     1.809500
C      -2.204000     1.412000     7.336200
H      -2.396500     0.482300     7.341900
C      -0.994500     6.208800     2.226200
H      -1.339800     6.703100     1.492000
C       0.877700     5.379600     3.493500
H       1.816700     5.298400     3.613600
C       2.107600     7.436000     7.374700
H       2.277800     8.319500     7.070300
C       5.145900     0.324400     3.827700
H       4.290300    -0.082800     3.888700
C      -1.844400     5.596300     3.095100
H      -2.782700     5.655600     2.952300
C       0.014500     4.767300     4.397500
C      -2.759800     3.652500     7.959000
H      -3.347100     4.261900     8.389500
C       3.114600     2.244200     1.858000
C       3.892000     2.553500     6.745100
H       3.271600     3.229100     6.996200
H       4.771000     2.792800     6.477700
C       3.968100     1.721000     0.897700
H       4.878600     1.555600     1.112800
C       3.497200     1.169000     6.769200
H       4.077200     0.456600     6.527100
C       1.785600     2.498100     1.526900
H       1.195200     2.866400     2.172800
C       2.151900     0.973900     7.190400
H       1.614500     1.723200     7.421200
H       1.792500     0.097600     7.241400
C       3.499100     1.440200    -0.366800
H       4.088600     1.082500    -1.019400
C       1.324400     2.208300     0.239900
H       0.418400     2.380400     0.010600
C       2.179200     1.673500    -0.692900
H       1.860300     1.465400    -1.562600
