57
Refcode: BIDBUN_comp_0 | Dataset: tmCAT | Charge: 1 | Potential Spins: [1, 3, 5]
C       4.725100    12.987400    -1.832200
H       3.824300    13.288600    -1.868200
C       5.324800    12.551900    -2.992000
H       4.851500    12.576000    -3.815000
C       6.622900    12.080500    -2.945100
H       7.055000    11.777400    -3.734900
C       7.281800    12.056100    -1.729800
H       8.167400    11.717100    -1.671500
C       6.639600    12.529700    -0.598700
C       7.239100    12.534900     0.749400
C       8.514000    12.107600     1.029000
H       9.095000    11.809700     0.339900
C       8.927600    12.127000     2.371300
C       6.821700    12.787000     3.005500
C       5.145100    15.963700     0.876800
C       4.954600    15.640600     2.247300
H       5.659400    15.802900     2.864100
C       3.739000    15.082200     2.718400
H       3.633400    14.903100     3.645000
C       2.688100    14.791100     1.831200
C       2.876800    15.054000     0.456200
H       2.190400    14.838500    -0.164300
C       4.080900    15.634100     0.000300
H       4.181100    15.809400    -0.928500
C       6.419900    16.635600     0.408000
H       7.173000    16.280800     0.960800
C       6.310700    18.141800     0.675500
H       5.594400    18.519600     0.123600
H       7.160600    18.575600     0.450900
H       6.106700    18.291400     1.622400
C       6.746200    16.360200    -1.055600
H       6.769900    15.391700    -1.209400
H       7.619600    16.745800    -1.274000
H       6.059000    16.765100    -1.625200
C       1.421100    14.131300     2.309200
H       1.643800    13.312200     2.798000
H       0.856700    13.908500     1.539500
H       0.937200    14.743800     2.903400
C      10.297400    11.721000     2.773200
C      11.334600    11.653600     1.846700
H      11.178300    11.900100     0.942500
C      12.592900    11.227400     2.238300
H      13.296400    11.185400     1.601300
C      12.830400    10.864200     3.548500
H      13.692500    10.563200     3.810800
C      11.810500    10.940400     4.479300
H      11.975700    10.698900     5.382600
C      10.552600    11.367700     4.099400
H       9.857500    11.422200     4.744900
N       5.369200    13.001800    -0.647300
N       6.396600    12.957900     1.726700
N       8.069700    12.437600     3.347800
N       5.936100    13.003300     3.991600
H       6.175300    12.791300     4.773000
H       5.071000    12.972100     3.802400
Cl      3.554500    11.706600     1.518800
Ru      4.584700    13.831800     1.096500
