56
Refcode: BIDBIB_comp_0 | Dataset: tmCAT | Charge: 1 | Potential Spins: [1, 3, 5]
C       9.341100     3.343800    22.462400
H      10.116200     2.840900    22.241500
C       9.413500     4.264300    23.486900
H      10.228200     4.392500    23.960000
C       8.295700     4.999100    23.820500
H       8.324300     5.629600    24.529100
C       7.128000     4.797500    23.100700
H       6.347900     5.300200    23.303200
C       7.110500     3.860800    22.089000
C       5.900500     3.508600    21.323300
C       4.692600     4.164500    21.445400
H       4.584400     4.902300    22.032300
C       3.649200     3.693500    20.669400
H       2.824700     4.164500    20.691700
C       4.930100     2.011600    19.848600
C       8.673900     2.842500    18.383400
C       9.771300     2.613700    19.248500
H      10.292800     3.355100    19.533300
C      10.119400     1.317600    19.704000
H      10.877200     1.202800    20.266600
C       9.354500     0.203200    19.330200
C       8.232000     0.406200    18.477900
H       7.706000    -0.336900    18.206200
C       7.894900     1.701000    18.035200
H       7.125800     1.816900    17.488600
C       8.377100     4.225600    17.842200
H       8.879000     4.885900    18.399600
C       6.911900     4.605600    17.882500
H       6.388500     3.943900    17.382900
H       6.792300     5.489500    17.477400
H       6.606100     4.629500    18.813500
C       8.918200     4.313500    16.415500
H       9.843800     3.996000    16.397700
H       8.885500     5.245100    16.112000
H       8.369600     3.757600    15.824100
C       9.675300    -1.156600    19.857600
H      10.203500    -1.648500    19.193600
H       8.841900    -1.642500    20.037100
H      10.188800    -1.073200    20.687200
C       3.958500     0.393500    18.259700
H       3.080500     0.569400    18.680800
H       4.052000    -0.585800    18.149900
C       3.994100     1.046300    16.904200
H       4.862400     0.854100    16.469700
H       3.918000     2.028600    17.009500
C       2.863400     0.544000    16.019800
H       2.956400    -0.421800    15.887100
H       2.900900     0.998600    15.151600
H       2.003200     0.733300    16.451700
N       8.208000     3.133800    21.766000
N       6.057800     2.470500    20.474200
N       3.740800     2.621500    19.898100
N       5.020500     0.879400    19.145500
H       5.732400     0.402400    19.222900
Cl      7.437300     0.187400    21.904800
Ru      8.025800     1.761500    20.214100
