45
Refcode: BIGXIB_comp_0 | Dataset: tmCAT | Charge: unknown | Potential Spins: [1, 3, 5]
Zn      3.824600     4.359900     9.613200
O       4.609300     5.690400     8.371900
N       2.104900     4.181500     8.562900
N       3.431900     5.737400    11.165500
N       3.145300     8.399300    14.397300
C       3.908300     6.302100     7.475500
C       2.612100     6.014100     7.094500
H       2.231700     6.589700     6.441500
C       1.771900     4.953600     7.563800
C       4.632500     7.432200     6.781000
H       5.438100     7.084600     6.344400
H       4.885500     8.111900     7.440100
H       4.043400     7.833000     6.108100
C       0.465900     4.759800     6.836800
H       0.376100     5.441800     6.139000
H      -0.276400     4.841800     7.471400
H       0.448900     3.869400     6.427600
C       1.218900     3.077400     8.930400
H       0.330700     3.429800     9.148000
H       1.585100     2.610400     9.710300
H       1.147200     2.452100     8.179200
C       3.550100     7.070600    11.007700
H       3.713300     7.399100    10.131400
C       3.450900     7.989600    12.028400
H       3.540400     8.917300    11.844600
C       3.215500     7.548400    13.350500
C       3.075400     6.153100    13.509900
H       2.894100     5.789400    14.368600
C       3.200900     5.319900    12.423900
H       3.119100     4.385000    12.571700
C       3.322000     9.830400    14.225200
H       4.071800     9.996000    13.616200
H       3.509700    10.243200    15.094000
H       2.504100    10.217700    13.849300
C       2.787600     7.929400    15.725600
H       1.895900     7.523600    15.699500
H       2.784400     8.685100    16.349700
H       3.441300     7.262700    16.023400
C       4.632700     2.704000    10.378400
H       5.512700     2.940100    10.765600
H       4.056800     2.394100    11.121600
C       4.834900     1.533900     9.410100
H       3.984300     1.321600     8.972200
H       5.151300     0.750300     9.906400
H       5.498300     1.781400     8.732700
