104
Refcode: BIJHUY_comp_0 | Dataset: tmCAT | Charge: unknown | Potential Spins: [1, 3, 5]
Fe      0.143100     4.339900     7.687700
N       0.180100     2.379600     7.349900
N       1.180300     4.217400     9.380300
C       0.820300    -0.080400     7.857000
C       0.793700     1.469900     8.108300
C       1.508100     1.852000     9.258700
H       1.938600     1.129800     9.700300
C       1.709100     3.100700     9.883900
C       2.611600     3.014800    11.152000
C       2.279400    -0.498000     7.577100
H       2.315200    -1.460400     7.397800
H       2.834800    -0.290000     8.357400
H       2.616100    -0.007100     6.798100
C       0.321200    -0.799800     9.134000
H      -0.596200    -0.516300     9.331900
H       0.904000    -0.569300     9.886600
H       0.340700    -1.769800     8.991400
C      -0.042800    -0.617900     6.706000
H      -0.971500    -0.330600     6.832400
H      -0.001800    -1.596500     6.697500
H       0.293400    -0.268700     5.855700
C       4.003600     2.515900    10.713600
H       4.588100     2.446900    11.497300
H       4.390800     3.148800    10.073000
H       3.917500     1.635400    10.291400
C       2.002000     2.006500    12.150100
H       2.565100     1.959000    12.951600
H       1.953800     1.120900    11.730700
H       1.101700     2.298400    12.401100
C       2.838100     4.316400    11.933800
H       3.401200     4.133600    12.716000
H       1.975300     4.674600    12.229800
H       3.283500     4.971600    11.355900
C      -0.441800     2.145700     6.071200
C       0.368200     2.082000     4.920600
C      -0.254600     1.883600     3.687800
H       0.276500     1.821100     2.902200
C      -1.625000     1.776100     3.587500
H      -2.029600     1.591200     2.748000
C      -2.406500     1.939300     4.716900
H      -3.352900     1.902400     4.632800
C      -1.847300     2.157000     5.969700
C       1.873000     2.316100     4.988300
H       2.162000     2.178200     5.935000
C       2.686100     1.358000     4.105900
H       3.642600     1.509900     4.253700
H       2.471000     1.520500     3.163500
H       2.462900     0.431400     4.337200
C       2.183500     3.762100     4.611100
H       1.706100     4.367000     5.215300
H       1.897000     3.928500     3.688200
H       3.148400     3.919700     4.686300
C      -2.723800     2.452400     7.176600
H      -2.228600     3.127600     7.723400
C      -2.939100     1.265900     8.070200
H      -3.456700     1.539900     8.856400
H      -2.071200     0.912300     8.357400
H      -3.429300     0.572800     7.579900
C      -4.056300     3.104600     6.801100
H      -4.468600     3.490100     7.601300
H      -4.654300     2.427500     6.419000
H      -3.899900     3.811800     6.140600
C       1.153900     5.524700     9.964800
C       2.077600     6.505900     9.537300
C       1.886400     7.815100     9.953700
H       2.494500     8.486400     9.670300
C       0.825300     8.163300    10.774000
H       0.700100     9.068100    11.032500
C      -0.047300     7.194200    11.213700
H      -0.760000     7.438000    11.792900
C       0.092900     5.861300    10.827100
C       3.270700     6.132700     8.669400
H       3.346900     5.136100     8.661500
C       3.107400     6.605300     7.228900
H       2.273200     6.246400     6.860200
H       3.864600     6.288800     6.693200
H       3.079300     7.584800     7.207200
C       4.579600     6.704300     9.228900
H       4.668200     6.456800    10.173600
H       4.570300     7.682000     9.147700
H       5.336600     6.341900     8.723600
C      -0.887400     4.804400    11.334100
H      -0.539100     3.909100    11.056100
C      -2.259900     4.989300    10.688700
H      -2.876200     4.308600    11.032500
H      -2.179500     4.893900     9.717400
H      -2.604500     5.880400    10.901900
C      -1.000200     4.806300    12.853700
H      -1.591800     4.078800    13.137900
H      -1.370200     5.662900    13.152900
H      -0.111800     4.678200    13.247100
C      -0.691500     5.629000     6.322400
H       0.013000     6.274700     6.063500
H      -0.903500     5.098900     5.513000
C      -1.908700     6.420400     6.658500
H      -2.548800     5.815000     7.130100
C      -1.521400     7.579500     7.648000
H      -2.330500     8.063900     7.916200
H      -0.902600     8.194700     7.202900
H      -1.090700     7.199300     8.443000
C      -2.625300     7.042000     5.519500
H      -2.643300     6.417900     4.765500
H      -2.162600     7.864100     5.251700
H      -3.543200     7.255900     5.789300
