92
Refcode: BIJJUA_comp_0 | Dataset: tmCAT | Charge: unknown | Potential Spins: [1, 3, 5]
Fe      1.158000     7.436400     4.299700
N       2.781900     8.191800     3.758000
N      -0.445900     6.822700     3.330400
N       0.417700     6.902200     6.049700
C       2.402600     4.892400     6.772500
H       1.616500     4.816600     6.157700
C      -1.541000     6.295200     3.866700
C       0.218200     5.925500     1.146500
C      -0.317800     6.977800     1.909100
C      -0.612900     8.223900     1.328800
C       3.878300     8.476700     4.668000
H       4.625300     7.863700     4.454400
H       3.578300     8.267300     5.587900
C      -0.783700     6.374900     6.271600
C      -1.697900     6.097000     5.244100
H      -2.529500     5.727000     5.518200
C       0.522200     4.578000     1.773200
H      -0.011100     4.514300     2.617700
C       1.248300     8.431500     7.770100
C      -2.671700     5.877400     2.959900
H      -2.948000     6.640300     2.410500
H      -3.429700     5.573200     3.502200
H      -2.371200     5.147600     2.378600
C       1.319300     7.184000     7.132000
C      -1.239900     9.344200     2.136800
H      -1.469700     8.978900     3.040000
C       2.337700     6.267000     7.431500
C       0.487400     6.160700    -0.195800
H       0.852000     5.463000    -0.727100
C      -0.319700     8.398600    -0.020100
H      -0.506600     9.234800    -0.430300
C       0.234900     7.388000    -0.774900
H       0.443100     7.534900    -1.689300
C       3.182300     8.275200     2.365100
H       3.502200     9.180800     2.169400
H       2.415300     8.068600     1.790900
H       3.901400     7.631000     2.193300
C       4.412200     9.904800     4.653600
C      -0.443500    10.086000     8.677500
H      -0.710500     9.388200     9.311200
H      -1.228900    10.612700     8.420700
H       0.219800    10.673500     9.098100
C       2.226300     8.750500     8.704600
H       2.194900     9.590200     9.147900
C       0.719200    10.498300     6.481800
H       1.453000    10.979700     6.918700
H       0.007700    11.130400     6.247300
H       1.052700    10.065800     5.667600
C       2.294700     3.775100     7.793400
H       3.078400     3.793600     8.380900
H       2.252600     2.912800     7.331100
H       1.482300     3.898200     8.327100
C       0.166800     9.438700     7.432900
H      -0.564400     8.951600     6.954500
C       6.183300    11.465600     5.139300
H       7.067800    11.627000     5.444500
C       3.242500     7.866400     8.999100
H       3.906900     8.101800     9.636000
C      -1.205500     6.054200     7.684900
H      -0.650100     5.325300     8.034300
H      -2.146800     5.780200     7.691600
H      -1.093700     6.849000     8.247400
C       3.293400     6.646400     8.373300
H       3.997900     6.045300     8.586100
C       3.661800     4.745100     5.927400
H       3.710200     5.480900     5.281100
H       3.634900     3.890200     5.448500
H       4.450500     4.768500     6.508300
C       3.645600    10.975800     4.254400
H       2.769600    10.826400     3.918500
C      -2.532300     9.842300     1.490500
H      -2.323700    10.289000     0.643500
H      -2.975300    10.477300     2.091700
H      -3.127200     9.082400     1.320800
C      -0.265500    10.491800     2.333400
H       0.559700    10.153700     2.741200
H      -0.667300    11.165000     2.920500
H      -0.058500    10.896700     1.466200
C       5.702500    10.157300     5.088300
H       6.262000     9.436900     5.352900
C       0.097700     3.413300     0.875900
H      -0.829400     3.545800     0.585700
H       0.166300     2.573200     1.376600
H       0.683300     3.374800     0.091600
C       1.993500     4.472600     2.156100
H       2.540000     4.428900     1.344700
H       2.134700     3.661900     2.689400
H       2.251800     5.257600     2.681400
C       5.407600    12.513500     4.758600
H       5.747900    13.400400     4.787100
C       4.137100    12.278200     4.336500
H       3.579300    13.007300     4.093800
