59
Refcode: BIXROS_comp_0 | Dataset: tmCAT | Charge: 1 | Potential Spins: [1, 3, 5]
Ni     14.721900     0.781300     9.467700
P      14.857800    -1.178900    10.431600
P      14.621600     2.848400     8.747400
O      15.342300     0.254800     7.822600
H      15.608500    -0.540700     7.865200
N      13.874300     1.423300    11.103400
C      13.991800    -2.584500     9.641200
H      14.423600    -2.738500     8.752400
C      14.063500     2.875400    11.389400
H      14.992300     3.035300    11.692600
H      13.450800     3.152700    12.115900
C      16.558100    -1.769800    10.798000
H      16.487500    -2.587700    11.369000
C      14.138200    -3.876500    10.449300
H      15.082000    -4.138700    10.478100
H      13.614300    -4.588000    10.025300
H      13.811800    -3.729900    11.361600
C      16.202900     3.739600     8.450500
H      15.986900     4.702000     8.286000
C      14.154400     0.623000    12.339500
H      13.509400     0.870400    13.048700
H      15.066000     0.826400    12.667600
C      14.039400    -0.863100    12.041300
H      13.086800    -1.129000    11.997100
H      14.478600    -1.389000    12.755800
C      13.783700     3.705800    10.140300
H      14.141400     4.622600    10.247300
H      12.809300     3.763600     9.974700
C      12.524800    -2.235500     9.380900
H      12.058500    -2.126100    10.235900
H      12.103300    -2.956900     8.868800
H      12.473300    -1.399900     8.871400
C      13.608200     3.085600     7.236800
H      14.064200     2.586600     6.499900
C      17.348300    -0.715400    11.572700
H      17.339500     0.129700    11.076500
H      18.274100    -1.018100    11.685000
H      16.939700    -0.581800    12.453100
C      12.232900     2.444400     7.422600
H      12.342200     1.510800     7.699800
H      11.739400     2.478400     6.576500
H      11.734800     2.933200     8.110900
C      17.276300    -2.152300     9.505900
H      16.712600    -2.763800     8.987700
H      18.124400    -2.593500     9.721900
H      17.453000    -1.345100     8.979100
C      16.899900     3.193400     7.200300
H      17.087500     2.239100     7.321400
H      17.741000     3.676000     7.058000
H      16.317500     3.315500     6.421700
C      13.525200     4.556200     6.796000
H      13.210600     5.104400     7.544700
H      12.900100     4.637500     6.045800
H      14.412900     4.863800     6.516200
C      17.106000     3.665200     9.675000
H      16.655100     4.082000    10.439000
H      17.944000     4.138900     9.492100
H      17.299200     2.727100     9.881800
H      13.040000     1.315600    10.938200
