75
Refcode: BOBNOX_comp_0 | Dataset: tmCAT | Charge: 0 | Potential Spins: [1, 3, 5]
Fe      5.305600    11.642700     4.277300
P       6.315500    10.903200     6.522900
Cl      5.815400     9.932500     2.831600
Cl      3.094200    11.646300     4.964100
N       7.307100    12.549400     4.431700
N       5.300600    13.406600     2.987800
O       7.944100    11.249400     6.220700
C       8.281200    12.084600     5.189300
C       9.615800    12.382700     4.979000
H      10.294900    11.989400     5.514100
C       9.931000    13.275000     3.959900
H      10.836600    13.503300     3.784300
C       8.906500    13.828100     3.200200
H       9.097500    14.465100     2.522200
C       7.606300    13.437100     3.451400
C       6.431100    13.959200     2.689600
C       6.634300    15.087600     1.713400
H       5.764700    15.464000     1.464300
H       7.086100    14.750200     0.912900
H       7.183600    15.784700     2.130100
C       4.073700    13.959200     2.401700
C       3.427100    14.987000     3.092000
C       2.247000    15.513500     2.526300
H       1.789400    16.219800     2.967400
C       1.750700    15.016700     1.341800
H       0.963000    15.389200     0.963900
C       2.385700    13.991100     0.710700
H       2.022600    13.659300    -0.102100
C       3.559000    13.405200     1.213100
C       4.268200    12.292600     0.453400
H       5.098900    12.054900     0.955800
C       4.672500    12.743400    -0.927200
H       3.875600    12.819800    -1.492900
H       5.288500    12.089600    -1.317200
H       5.116100    13.616500    -0.870000
C       3.399200    11.051300     0.363500
H       3.187400    10.736100     1.266200
H       3.880600    10.349400    -0.122500
H       2.568900    11.266000    -0.110300
C       3.959100    15.541100     4.397000
H       4.731600    14.977600     4.687000
C       4.444000    16.996600     4.264200
H       5.137100    17.047900     3.573900
H       4.812600    17.295800     5.122000
H       3.689700    17.569500     4.013000
C       2.903300    15.496200     5.483400
H       2.179400    16.119800     5.260800
H       3.303500    15.753500     6.339100
H       2.541800    14.589000     5.548800
C       6.498200     9.122600     7.006900
C       6.735100     8.301300     5.797900
H       7.601900     8.538800     5.405800
H       6.024600     8.469100     5.144400
H       6.737400     7.353200     6.043000
C       7.504800     8.834200     8.056700
H       7.149600     8.159300     8.673400
H       7.705300     9.654800     8.552900
H       8.325400     8.496200     7.640000
C       5.140800     8.696400     7.619600
H       4.763200     7.958000     7.096800
H       4.522500     9.454800     7.607400
H       5.278400     8.403300     8.544800
C       6.028500    11.988300     8.001500
C       6.956200    11.829800     9.161500
H       7.882100    11.827000     8.840900
H       6.767200    10.983600     9.616900
H       6.829400    12.574300     9.786400
C       4.604500    11.715100     8.532500
H       4.578600    10.832700     8.957300
H       3.968700    11.738300     7.787100
H       4.364000    12.401200     9.190100
C       5.926900    13.381000     7.472600
H       5.605000    13.977300     8.179200
H       5.299300    13.399600     6.719000
H       6.809400    13.680700     7.168300
