41
Refcode: BOBTET_comp_0 | Dataset: tmCAT | Charge: unknown | Potential Spins: [1, 3, 5]
Co      4.768300     5.221400     3.421500
P       4.602200     3.104700     3.028000
F       7.278000     6.216700     4.014900
F       7.372600     4.147700     3.663400
C       2.731200     5.749900     3.520200
H       1.969700     5.124800     3.691300
C       3.268700     6.086500     2.240800
H       2.944100     5.743400     1.358900
C       4.311100     6.984500     2.432900
H       4.857600     7.411800     1.712600
C       4.451400     7.209300     3.834600
H       5.104500     7.830800     4.267300
C       3.448900     6.466000     4.496500
H       3.287300     6.441900     5.482800
C       5.352000     1.955600     4.240400
H       5.026300     1.046500     4.073500
H       5.103800     2.230800     5.147700
H       6.327000     1.975200     4.148000
C       2.906700     2.436100     2.847400
C       2.183900     2.704400     1.684300
H       2.571600     3.243400     1.005200
C       0.905300     2.194100     1.507500
H       0.423700     2.385100     0.710700
C       0.332800     1.408600     2.490600
H      -0.537900     1.049400     2.365300
C       1.023900     1.148800     3.648000
H       0.625200     0.617400     4.327600
C       2.306300     1.659500     3.832200
H       2.775300     1.476100     4.637400
C       5.337800     2.565800     1.437600
C       5.366500     1.213900     1.081300
H       5.008600     0.560600     1.669900
C       5.918200     0.825800    -0.132900
H       5.947300    -0.094000    -0.366800
C       6.425300     1.774900    -1.004000
H       6.803100     1.504600    -1.833100
C       6.382900     3.113100    -0.669200
H       6.720000     3.764600    -1.272400
C       5.846000     3.509400     0.552100
H       5.826500     4.431400     0.781900
C       6.481600     5.159800     3.734500
