105
Refcode: BOMNOJ_comp_0 | Dataset: tmCAT | Charge: 0 | Potential Spins: [1, 3, 5]
Ti     14.874300    11.014700     6.627500
F       9.562600    14.976300    11.956500
F      11.173600    13.238600    14.103300
F       6.790700    15.384800     8.204300
F      13.342000    12.339500    12.923400
F      11.573900    15.914500    10.340200
F       9.315500    10.744500    10.505000
F       7.568500    16.203800    10.694200
F      10.194700    12.177300     8.187800
F       8.124000     9.173000    12.244100
F       9.945700    11.649500    15.800300
F      13.298000    17.562300    11.459400
F       8.442000     9.554200    14.934900
F      15.064100    14.042000    14.055000
F       8.133600    13.316800     7.009100
F      15.045000    16.700300    13.349200
N      13.165800    12.157700     9.135500
N      12.880400    10.033100     8.968300
C      13.571900    11.053400     8.436700
C      12.163900    11.833300    10.108200
C      12.062400    10.490400     9.985200
H      11.505000     9.939200    10.521500
C      13.964600    13.381300     9.075100
C      13.573800    14.468100     8.285800
C      14.410900    15.582200     8.274200
H      14.177200    16.328900     7.733200
C      15.550700    15.635000     9.007800
H      16.089000    16.418800     8.986900
C      15.937600    14.558000     9.785500
H      16.740300    14.599100    10.291700
C      15.154200    13.418500     9.822700
C      12.305700    14.454400     7.496400
H      12.437900    14.945000     6.658300
H      11.591200    14.880500     8.014200
H      12.056700    13.527900     7.296800
C      15.610100    12.216400    10.621300
H      14.943400    11.501000    10.542400
H      16.470200    11.901700    10.275400
H      15.707800    12.468500    11.563900
C      12.895700     8.653100     8.520300
C      11.851700     8.199600     7.728600
C      11.901500     6.888100     7.266600
H      11.221500     6.561700     6.688500
C      12.932100     6.067100     7.647400
H      12.983800     5.185600     7.294500
C      13.891800     6.505000     8.531900
H      14.552700     5.895100     8.838300
C      13.916700     7.832200     8.996200
C      10.658300     9.063600     7.359500
H      10.043400     8.547600     6.797600
H      10.194700     9.345000     8.176700
H      10.964800     9.853200     6.869600
C      14.941500     8.277800     9.994500
H      15.558300     7.539000    10.182500
H      15.443400     9.038200     9.630000
H      14.493300     8.549500    10.823300
C      10.041500    13.559200    10.131500
C       9.591300    13.156500     8.877800
C       8.493700    13.748800     8.230100
C       7.813700    14.786700     8.833700
C       8.208300    15.201100    10.092000
C       9.281000    14.560000    10.709500
C      12.305700    14.014600    11.619600
C      12.390000    15.373100    11.273700
C      13.284500    16.260500    11.847100
C      14.177200    15.836300    12.801300
C      14.171500    14.495500    13.133300
C      13.284500    13.645200    12.559900
C      10.457200    12.005300    12.181400
C      10.472500    12.206600    13.560500
C       9.807800    11.416900    14.475200
C       9.060700    10.367300    14.055000
C       8.918900    10.158200    12.699200
C       9.576000    10.979100    11.803000
C      12.863100    11.504900     5.527700
H      12.020300    11.809800     5.968800
C      13.177300    10.185500     5.209700
H      12.598800     9.393900     5.407000
C      14.351500    10.164000     4.392500
C      14.778700    11.542000     4.339100
H      15.546800    11.882100     3.795800
C      13.857300    12.343400     5.007700
H      13.836200    13.342200     4.998400
C      14.836200     9.040100     3.584600
C      14.523900     7.675800     4.248500
H      13.552700     7.560500     4.313500
H      14.916600     7.652300     5.147000
H      14.903200     6.954500     3.707600
C      14.066100     9.059700     2.247300
H      14.370700     8.316900     1.683200
H      13.106400     8.963900     2.421400
H      14.232800     9.908000     1.785300
C      16.318800     9.178900     3.229300
H      16.600400     8.410700     2.690700
H      16.456700    10.003700     2.716300
H      16.851400     9.214100     4.051200
C      16.251800     9.360700     6.925300
H      15.757600     8.516300     6.902100
H      16.926100     9.366500     6.214900
H      16.694300     9.456500     7.795900
C      16.328400    12.554500     6.753500
H      15.893600    13.424300     6.637500
H      16.765200    12.521300     7.628800
H      16.998900    12.429400     6.047800
B      11.267400    12.888800    11.009000
