97
Refcode: BOPZOX_comp_0 | Dataset: tmCAT | Charge: unknown | Potential Spins: [1, 3, 5]
Zr      7.351800     3.501800     4.619900
O       7.598200     3.772100     2.480500
O       6.418100     2.387000     6.010000
N       6.323100     2.134300     3.108900
N       6.540100     0.121500     6.407100
C       5.359500     1.092600     3.200100
N       9.307000     3.613500     5.076900
C       3.460300     2.658200     2.541700
C       4.808100     1.397300     7.512700
C       8.890800    -0.334900     5.911700
C       7.570100    -0.110200     5.473600
N       6.556400     5.298900     5.054100
C       4.868900    -1.183100     3.897800
C       3.111200     0.274900     3.127600
H       2.189000     0.403400     2.936400
C       8.161500    -0.884300     3.242900
C       5.793300    -0.140400     3.715400
C       3.995200     1.332400     2.946600
C       6.004400     1.261700     6.587600
C       9.344600    -0.030800     7.297900
C       3.774800     3.819700     3.234500
H       4.386900     3.779600     3.959200
C      10.445700    -0.730400     9.330200
H      10.832000    -1.420800     9.855000
C       7.219900    -0.350900     4.126800
C       6.792300     2.816600     2.099900
C       9.958600    -1.010200     8.064100
H      10.047400    -1.889300     7.714300
C       3.538900    -0.955500     3.576300
H       2.911400    -1.662000     3.667000
C       6.603900     2.681500     0.593800
C       9.254700     1.246700     7.819400
H       8.828400     1.932400     7.318200
C       9.453000    -1.130500     3.699700
H      10.100500    -1.493900     3.107200
C       9.803100    -0.850100     5.005800
H      10.694100    -1.015600     5.290100
C       2.542400     2.757400     1.490000
H       2.301600     1.977600     1.003500
C       3.209900     5.037300     2.886800
H       3.443000     5.821100     3.369500
C       4.445300     0.066200     8.153100
H       4.270600    -0.596400     7.451900
H       3.644900     0.176700     8.705400
H       5.189400    -0.239200     8.712400
C       5.312300    -2.503900     4.460100
H       5.560400    -2.391900     5.401000
H       6.085700    -2.830200     3.955700
H       4.579200    -3.151500     4.390500
C       1.981700     3.971900     1.147300
H       1.363000     4.020600     0.427800
C      10.368100     0.543400     9.822000
H      10.719400     0.743500    10.682400
C       8.003800     2.537100    -0.014400
H       8.552000     3.308100     0.242900
H       7.933200     2.497800    -0.991100
H       8.420700     1.714700     0.316900
C       9.780100     1.534300     9.068000
H       9.734400     2.421200     9.406000
C      10.155300     4.544800     5.782300
H      10.592900     4.086800     6.529500
H       9.613400     5.285800     6.124600
H      10.836700     4.895100     5.170400
C       3.621800     1.900700     6.683900
H       3.831700     2.784000     6.316500
H       2.827800     1.964400     7.254800
H       3.447900     1.273500     5.950300
C       5.127000     2.401600     8.609400
H       5.884100     2.076100     9.140200
H       4.344400     2.511800     9.189500
H       5.357700     3.264300     8.205400
C       7.808900    -1.256000     1.829600
H       6.860600    -1.499000     1.783300
H       8.356500    -2.018400     1.545700
H       7.980700    -0.493300     1.239400
C       5.740300     1.506300     0.151400
H       6.082000     0.680600     0.552800
H       5.768500     1.430500    -0.825600
H       4.816300     1.653200     0.441900
C       2.314300     5.115400     1.844100
H       1.928000     5.950300     1.605500
C      10.069200     2.548900     4.452300
H      10.695000     2.932600     3.802600
H       9.458600     1.935200     3.994400
H      10.570100     2.059100     5.138700
C       5.984300     3.991700     0.094900
H       5.079400     4.086500     0.463000
H       5.938700     3.980700    -0.883700
H       6.535600     4.747100     0.387300
C       5.505400     5.736400     5.944700
H       5.874400     6.362800     6.601700
H       5.126200     4.961300     6.409800
H       4.802600     6.182700     5.427400
C       7.111800     6.424400     4.323600
H       6.424400     6.806800     3.739200
H       7.868200     6.119000     3.779700
H       7.419300     7.105900     4.957400
