90
Refcode: BORJIC_comp_0 | Dataset: tmCAT | Charge: 0 | Potential Spins: [1, 3, 5]
Zn      6.710200     1.791100    20.908700
N       6.733600     1.839100    22.973100
N       7.096000     3.837300    20.921000
N       7.375100     1.733100    18.939800
N       7.078500    -0.273800    21.015000
N       4.676400     1.694300    20.440000
N       0.612400     1.402800    19.492200
C       6.725800     2.953900    23.758600
C       6.659900     2.552900    25.169800
C       6.637700     1.203100    25.179800
C       6.660900     0.750800    23.809000
C       6.641500    -0.602400    23.415800
C       6.811100    -1.060000    22.085300
C       6.681300    -2.439800    21.674500
C       6.896400    -2.466300    20.349000
C       7.134700    -1.109500    19.933200
C       7.356600    -0.715500    18.605200
C       7.490400     0.606000    18.161600
C       7.806300     0.969900    16.805900
C       7.816000     2.325000    16.768100
C       7.540800     2.803800    18.108700
C       7.482600     4.160600    18.511900
C       7.254900     4.634100    19.794600
C       7.178400     6.028000    20.187700
C       6.998100     6.054500    21.543500
C       6.955500     4.678200    21.987000
C       6.792700     4.282500    23.322600
C       6.353700    -1.636000    24.464200
C       5.141500    -1.620100    25.132000
C       4.826600    -2.625300    26.046700
C       5.726800    -3.630600    26.278600
C       6.970000    -3.635900    25.661200
C       7.272300    -2.635900    24.754000
C       7.446800    -1.816200    17.584600
C       6.292700    -2.272000    16.934400
C       6.354700    -3.326700    16.034800
C       7.567900    -3.938000    15.750000
C       8.729700    -3.469800    16.372400
C       8.675500    -2.416800    17.282200
C       7.658000     5.155200    17.393000
C       6.584400     5.436100    16.546300
C       6.743300     6.264700    15.452600
C       7.974900     6.837100    15.190600
C       9.046600     6.589800    16.039800
C       8.862500     5.752400    17.133500
C       6.705500     5.342500    24.388600
C       5.507800     5.625200    25.026100
C       5.461300     6.552700    26.074400
C       6.607600     7.155100    26.515400
C       7.833400     6.906000    25.880400
C       7.867300     5.996200    24.806900
C       3.974800     0.531800    20.545600
C       2.653100     0.378100    20.238100
C       1.966100     1.468100    19.764400
C       2.636600     2.660700    19.618200
C       3.979700     2.715400    19.948300
H       6.511700     3.127100    25.981200
H       6.611500     0.648400    25.951000
H       6.483600    -3.181800    22.231400
H       6.892500    -3.236600    19.789600
H       7.984600     0.229700    16.027200
H       7.973900     2.863800    16.002000
H       7.160900     6.801800    19.504800
H       6.916700     6.828300    22.090300
H       4.520400    -0.918700    24.968200
H       3.994200    -2.612900    26.507900
H       5.496200    -4.335500    26.870800
H       7.603700    -4.316000    25.857700
H       8.120200    -2.632400    24.325600
H       5.458400    -1.855000    17.110800
H       5.561100    -3.632300    15.608900
H       7.608600    -4.665900    15.140200
H       9.566000    -3.872600    16.170800
H       9.471000    -2.107700    17.700500
H       5.733600     5.051000    16.722700
H       6.004900     6.443200    14.880600
H       8.088200     7.397200    14.429500
H       9.893500     6.989100    15.878500
H       9.594100     5.588100    17.718100
H       4.711300     5.185300    24.748900
H       4.629900     6.762900    26.482700
H       6.573700     7.748700    27.256300
H       8.626000     7.344200    26.167700
H       8.689000     5.823000    24.360800
H       4.442900    -0.233200    20.855500
H       2.221900    -0.461100    20.346500
H       2.186100     3.432700    19.295600
H       4.434100     3.538700    19.814800
H       0.181200     2.121800    19.222600
H       0.181200     0.639500    19.585400
