73
Refcode: BOTBAP_comp_0 | Dataset: tmCAT | Charge: 0 | Potential Spins: [1, 3, 5]
Co      2.334100     1.738500     7.239800
Cl      7.147300    -4.763300    10.589600
O       2.743900     0.121200     8.258600
O       3.890500     1.368400     6.208800
O       6.138100     0.591300     5.185100
O       2.414600     4.633700     8.837800
O       3.438400     2.649700     8.465400
O       1.319400     0.626600     5.967400
N       3.077200    -0.506800    10.464600
N       2.614600    -0.177900    11.768300
N       0.731100     2.126600     8.241200
N       1.867600     3.263400     6.239000
C       5.978400    -3.492500    10.428600
C       4.704600    -3.785900     9.973700
H       4.487200    -4.645700     9.695300
C       3.761300    -2.773800     9.942600
H       2.901300    -2.955000     9.639400
C       4.086800    -1.502300    10.355200
C       5.364900    -1.236200    10.764100
H       5.587800    -0.365700    11.002800
C       6.322700    -2.202500    10.832500
H       7.179100    -2.008300    11.138200
C       1.660800     0.700300    11.589400
C       1.478300     0.996700    10.186200
C       2.437800     0.209100     9.512600
C       1.011900     1.282000    12.812300
H       1.369400     0.859900    13.596500
H       0.063800     1.133300    12.772500
H       1.185300     2.225400    12.849600
C       0.568400     1.872300     9.517600
C      -0.514200     2.520000    10.309300
C      -1.580300     1.778800    10.831300
H      -1.602700     0.856400    10.721900
C      -2.606600     2.423200    11.514800
H      -3.348100     1.940300    11.800700
C      -2.530300     3.754500    11.764600
H      -3.209300     4.168500    12.248100
C      -1.458200     4.510800    11.312200
H      -1.411600     5.420200    11.501100
C      -0.454300     3.897200    10.574000
H       0.260100     4.400000    10.254600
C      -0.145400     2.932300     7.455700
C      -1.532200     3.028300     7.597400
H      -1.972600     2.557700     8.268500
C      -2.243800     3.844600     6.712500
H      -3.167500     3.909300     6.794500
C      -1.604300     4.552100     5.720700
H      -2.088600     5.123600     5.168900
C      -0.227000     4.411500     5.541800
H       0.204600     4.862800     4.853200
C       0.484400     3.600600     6.395600
C       2.667700     3.927200     5.462200
H       2.355900     4.732300     5.118000
C       3.978100     3.525600     5.094400
C       4.706100     4.376400     4.234300
H       4.373700     5.221300     4.029300
C       5.892200     3.971200     3.702400
H       6.367200     4.541000     3.140600
C       6.397600     2.709100     3.993200
H       7.205800     2.439700     3.619100
C       5.715000     1.851100     4.832100
C       4.494700     2.239500     5.426200
C       7.327400     0.120000     4.594700
H       7.515800    -0.764200     4.919100
H       8.052300     0.705900     4.823400
H       7.223100     0.096600     3.641500
C       4.221100     3.924200    10.233500
H       4.064900     4.766700    10.666000
H       5.120900     3.898400     9.896600
H       4.095600     3.211500    10.863600
C       3.256400     3.760800     9.092500
H       1.862300     0.398100     5.290700
H       0.629400     0.527200     5.379000
