34
Refcode: BOTZUI_comp_0 | Dataset: tmCAT;tmPHOTO | Charge: unknown | Potential Spins: [1, 3, 5]
Au      0.543900     8.497900     6.022900
Cl      0.748700    10.505100     4.867500
N       0.325800     6.365400     8.169000
N       0.525100     5.533200     6.208800
C       0.451300     6.737200     6.876000
C       0.343500     4.970900     8.303400
H       0.268500     4.477600     9.111500
C       0.486700     4.468400     7.067400
H       0.549500     3.549700     6.833300
C       0.642400     5.369100     4.815000
C       1.846400     4.971500     4.246100
F       2.924000     4.893700     5.038700
C       1.962700     4.647100     2.940200
F       3.117100     4.258600     2.412700
C       0.851700     4.754800     2.114000
F       0.939400     4.423600     0.805500
C      -0.342800     5.205000     2.618300
F      -1.427900     5.293500     1.842500
C      -0.450200     5.495500     3.970700
F      -1.635500     5.867300     4.460700
C       0.107900     7.272200     9.297700
H      -0.779400     7.098100     9.698600
H       0.125600     8.210000     8.979700
C       1.189900     7.064900    10.338600
C       2.360200     7.775900    10.284300
F       2.518400     8.714800     9.354600
C       3.426100     7.527200    11.189300
F       4.535800     8.233600    11.066500
C       3.265100     6.602800    12.151300
F       4.239100     6.389000    13.026600
C       2.091000     5.890900    12.276700
F       1.915100     4.996400    13.230900
C       1.068700     6.119000    11.372900
F      -0.067600     5.422600    11.485400
