83
Refcode: BOWXIW_comp_0 | Dataset: tmCAT | Charge: 0 | Potential Spins: [1, 3, 5]
Zr      5.764000     1.403100     4.341400
O       5.859400    -0.844900     4.223200
O       9.531700     1.588200     4.898600
O       6.163600     3.035900     2.858800
N       7.241700     0.124200     5.590500
N       7.602100     1.384400     2.919300
N       3.811800     1.161700     5.078400
N       4.573700     0.812900     2.249600
N       6.131000     2.940000     5.697600
C       6.848600    -1.002800     5.038100
C       8.269200     0.331800     6.538700
C       9.411000     1.060200     6.188500
C      10.397900     1.344000     7.125100
H      11.180600     1.816000     6.863900
C      10.237200     0.934400     8.449300
H      10.909100     1.131000     9.091400
C       9.091500     0.235600     8.829000
H       8.972200    -0.034500     9.731700
C       8.122900    -0.060100     7.870300
H       7.344900    -0.540200     8.129100
C       9.722800     0.665800     3.870200
C       8.800700     0.645300     2.819700
C       9.027100    -0.229000     1.755100
H       8.403100    -0.270100     1.040100
C      10.158000    -1.041300     1.730400
H      10.305300    -1.624100     0.995200
C      11.069200    -1.003400     2.771400
H      11.836000    -1.564300     2.755300
C      10.857300    -0.141400     3.842100
H      11.485700    -0.103400     4.553500
C       7.332700     2.598800     2.493600
C       8.201000     3.505500     1.616500
C       7.934400     3.118200     0.148700
H       8.197200     2.186100     0.003500
H       8.456600     3.699800    -0.443100
H       6.980000     3.225100    -0.048500
C       9.701200     3.364200     1.921600
H       9.849000     3.463100     2.885100
H      10.198900     4.057300     1.441700
H      10.011900     2.480300     1.632000
C       7.797800     4.970300     1.850100
H       6.845300     5.082500     1.649400
H       8.325200     5.551500     1.263400
H       7.965700     5.210100     2.784700
C       7.356100    -2.444600     5.227700
C       8.765700    -2.572300     5.820500
H       9.051200    -3.509000     5.784000
H       8.756800    -2.268900     6.751400
H       9.388900    -2.020600     5.302900
C       7.350900    -3.127400     3.851500
H       7.989000    -2.675700     3.260600
H       6.452000    -3.074600     3.464900
H       7.607800    -4.067600     3.952900
C       6.336900    -3.130900     6.154700
H       6.565200    -4.080300     6.246100
H       5.438100    -3.048100     5.771900
H       6.356600    -2.703300     7.037000
C       3.018900     2.245900     5.659000
H       2.334800     2.530900     5.017300
H       3.604500     3.002200     5.870500
H       2.584600     1.929800     6.479700
C       2.922600     0.050600     4.762000
H       2.425200    -0.209200     5.565900
H       3.450900    -0.710300     4.444400
H       2.293200     0.325300     4.063700
C       3.680300     1.706800     1.790200
H       3.674300     2.576900     2.170300
C       2.768500     1.419500     0.790100
H       2.158900     2.082700     0.488100
C       2.759500     0.151700     0.235500
H       2.131300    -0.078200    -0.437900
C       3.682900    -0.771200     0.682900
H       3.708300    -1.645900     0.311500
C       4.574900    -0.405700     1.681400
H       5.214300    -1.044800     1.976500
C       6.476600     4.343100     5.534200
H       5.821900     4.898600     6.007200
H       6.472000     4.572200     4.581200
H       7.368600     4.505500     5.905100
C       6.039400     2.635500     7.118400
H       6.915400     2.766500     7.537200
H       5.757100     1.704500     7.236000
H       5.385000     3.232000     7.538900
