31
Refcode: BUTZUM_comp_0 | Dataset: tmCAT | Charge: -2 | Potential Spins: [1, 3, 5]
Au      1.037200    13.474100    11.927100
Cl     -0.330600    12.490300    13.478700
C       2.148600    14.393500    10.542400
N       3.232200    15.081500    10.886100
N       1.815900    14.421300     9.256200
H       2.246100    14.869700     8.843300
C       4.062500    15.854800     9.946800
H       3.525000    16.542700     9.479500
H       4.484400    15.263500     9.274400
C       5.116200    16.499600    10.849000
H       5.978300    16.601400    10.373600
H       4.816000    17.388000    11.167800
C       5.243300    15.517500    12.006500
H       5.807700    14.743200    11.759700
H       5.625800    15.955600    12.807600
C       3.807200    15.096900    12.243800
H       3.762100    14.199200    12.660600
H       3.335400    15.745800    12.822800
C       0.693800    13.731300     8.576900
C      -0.637600    14.274200     9.090000
H      -0.726300    14.073700    10.045100
H      -1.373700    13.852600     8.598000
H      -0.668500    15.245000     8.955600
C       0.824400    14.066500     7.096700
H       1.674700    13.716900     6.757200
H       0.800500    15.038300     6.977600
H       0.082800    13.658300     6.603400
C       0.797100    12.225800     8.774000
H       0.723100    12.016000     9.729000
H       1.661800    11.911100     8.437200
H       0.073800    11.781600     8.284700
