119
Refcode: BUVNEM_comp_0 | Dataset: tmCAT | Charge: 0 | Potential Spins: [1, 3, 5]
Ir     -0.715400    18.670500     5.968900
H      -0.807700    16.978000     6.003900
Cl     -0.441700    21.135200     5.902500
P      -0.165800    18.655000     3.698600
P       1.321600    18.021200     6.640200
N      -2.773300    19.117700     5.545500
H      -2.874200    20.026500     5.437300
H      -3.022600    18.706200     4.761600
N      -4.326300    16.949400     5.104000
C       1.427200    19.509500     3.369900
C       1.492000    20.819100     2.856600
H       0.693000    21.227000     2.544400
C       2.642400    21.516800     2.790300
H       2.638700    22.400600     2.439600
C       3.870100    20.937100     3.243600
C       5.086600    21.683200     3.250000
H       5.084100    22.593800     2.976300
C       6.253300    21.098100     3.647700
H       7.054700    21.606200     3.686200
C       6.262000    19.742100     3.998300
H       7.085900    19.323400     4.220700
C       5.115300    19.013900     4.030400
H       5.150200    18.101500     4.287000
C       3.863900    19.590000     3.686800
C       2.636200    18.883300     3.771900
C       2.208700    16.947600     5.420200
C       2.318300    15.568200     5.726200
H       2.010500    15.248000     6.566200
C       2.859300    14.691600     4.834300
H       2.925300    13.772000     5.065300
C       3.327900    15.124500     3.564300
C       3.848900    14.197800     2.610700
H       3.890100    13.274700     2.828800
C       4.285200    14.618200     1.398300
H       4.630500    13.993900     0.769700
C       4.217900    16.004800     1.073300
H       4.525800    16.299900     0.224500
C       3.721800    16.910000     1.958300
H       3.688200    17.829600     1.721200
C       3.249400    16.491400     3.240100
C       2.668600    17.430600     4.188600
C       0.024900    17.121100     2.717100
C       0.435000    17.237400     1.374800
H       0.600800    18.094400     1.000600
C       0.593300    16.113900     0.613600
H       0.868800    16.198000    -0.292900
C       0.359000    14.861600     1.141800
H       0.473600    14.086900     0.603000
C      -0.042400    14.741700     2.463100
H      -0.199400    13.883000     2.837300
C      -0.216900    15.886700     3.239300
H      -0.507300    15.804400     4.139400
C      -1.489500    19.520200     2.745200
C      -2.398100    18.738400     1.983800
H      -2.264700    17.800900     1.907200
C      -3.490000    19.337700     1.344900
H      -4.092000    18.802800     0.840300
C      -3.700600    20.702800     1.441100
H      -4.426000    21.110700     0.983500
C      -2.841800    21.468500     2.217300
H      -2.996400    22.402400     2.304900
C      -1.750000    20.883500     2.869000
H      -1.180400    21.423800     3.403900
C       1.267600    16.936800     8.133900
C       0.188200    16.037000     8.293800
H      -0.499800    16.008300     7.639600
C       0.123400    15.188900     9.397100
H      -0.610700    14.595000     9.499800
C       1.134200    15.214000    10.352900
H       1.094400    14.630800    11.101200
C       2.187500    16.083500    10.213500
H       2.870500    16.103100    10.874600
C       2.268500    16.942200     9.108500
H       3.008900    17.530800     9.020800
C       2.566400    19.259000     7.171500
C       2.167500    20.405800     7.820200
H       1.242700    20.599000     7.911100
C       3.113600    21.282400     8.343000
H       2.826900    22.064200     8.802700
C       4.472200    21.026600     8.201900
H       5.114100    21.629500     8.559000
C       4.877200    19.894100     7.539100
H       5.803300    19.718800     7.427900
C       3.932500    18.997800     7.026800
H       4.219100    18.210600     6.579100
C      -3.647000    18.647200     6.658200
H      -4.527000    19.121300     6.615400
C      -2.926600    19.028200     7.932500
C      -1.523100    18.931600     7.888900
C      -0.868800    19.223200     9.091400
H       0.076000    19.133800     9.134100
C      -1.558000    19.645400    10.233100
H      -1.071900    19.861900    11.017800
C      -2.945300    19.751000    10.235300
H      -3.412700    20.039000    11.011400
C      -3.630800    19.425400     9.063600
H      -4.578100    19.473700     9.037900
C      -3.868900    17.135400     6.481300
H      -2.990200    16.670300     6.589700
C      -4.859800    16.552200     7.496300
C      -6.177300    16.298200     7.139200
H      -6.472700    16.494900     6.258300
C      -7.067200    15.757900     8.056500
H      -7.969600    15.602200     7.804200
C      -6.639700    15.444800     9.350100
H      -7.245400    15.072700     9.980800
C      -5.324700    15.684500     9.696500
H      -5.025600    15.466300    10.571000
C      -4.434800    16.237300     8.787800
H      -3.534800    16.403700     9.046500
C      -4.095700    15.868800     4.498600
C      -4.634200    15.765000     3.100300
H      -4.962000    16.641700     2.811700
H      -5.369600    15.119200     3.081100
H      -3.921200    15.468000     2.497300
C      -3.371600    14.655800     5.026800
H      -2.917900    14.884800     5.862800
H      -2.711000    14.357000     4.366100
H      -4.017200    13.936600     5.191400
