74
Refcode: BUWPIT_comp_0 | Dataset: tmCAT | Charge: 0 | Potential Spins: [1, 3, 5]
Pd      2.208700     4.275800     9.717200
P       0.839400     4.432900    11.555400
Si      2.021300     4.598700     6.405400
C       1.289300     5.384700    13.052400
O       2.696900     3.102200     6.381600
Si      2.831600     1.945700     7.533600
C       0.484000     5.232400    14.188100
H      -0.277500     4.666000    14.144200
C       0.774100     5.888000    15.369000
H       0.211500     5.778400    16.126100
C       1.887300     6.704600    15.443000
H       2.096300     7.154400    16.254900
C       2.693200     6.864000    14.333900
H       3.455900     7.427800    14.390900
C       2.412600     6.215400    13.128900
C       3.367600     6.455500    12.020100
C       3.417600     7.704000    11.409400
H       2.807000     8.383000    11.671700
C       4.353600     7.964700    10.419300
H       4.373400     8.816200     9.999600
C       5.257500     6.988000    10.041900
H       5.891400     7.164100     9.358200
C       5.233200     5.751000    10.666600
H       5.863900     5.084100    10.421800
C       4.291700     5.482800    11.649500
H       4.277400     4.631400    12.071900
C       0.494300     2.817900    12.337600
C       1.443500     2.307600    13.221300
H       2.202300     2.832800    13.448000
C       1.296700     1.046700    13.771400
H       1.946300     0.718200    14.382700
C       0.208300     0.264100    13.435100
H       0.113100    -0.607200    13.801600
C      -0.739500     0.759200    12.562100
H      -1.490100     0.225500    12.329600
C      -0.604900     2.031000    12.021500
H      -1.270000     2.365000    11.430500
C      -0.816800     5.028700    11.094700
C      -1.540600     6.003200    11.765200
H      -1.192600     6.383800    12.562600
C      -2.768900     6.426200    11.280000
H      -3.252700     7.099300    11.743000
C      -3.293800     5.874600    10.126300
H      -4.133400     6.169900     9.794100
C      -2.589100     4.890300     9.458000
H      -2.953100     4.494700     8.675700
C      -1.358500     4.482800     9.927000
H      -0.871400     3.821800     9.448700
C       2.453000     5.526600     7.941900
H       3.326700     6.011000     7.897200
C       1.518100     6.109800     8.793000
H       0.643800     6.027800     8.634600
H       1.753300     6.835700     9.358200
C       3.570400     2.680000     9.052300
H       4.540700     2.918000     9.001900
C       3.069800     2.398000    10.319300
H       2.346500     1.803000    10.430000
H       3.609200     2.565600    11.052200
C       2.722900     5.488800     4.934000
H       3.694500     5.568900     5.032700
H       2.325800     6.382900     4.873700
H       2.518500     4.984700     4.119900
C       0.191600     4.438800     6.215200
H      -0.008200     3.902500     5.419200
H      -0.206300     5.329200     6.118200
H      -0.181100     3.999300     7.006300
C       3.888500     0.609600     6.789800
H       3.463500     0.273400     5.972900
H       3.988900    -0.123400     7.431200
H       4.771500     0.974700     6.570500
C       1.171100     1.234300     7.956100
H       0.668400     1.876700     8.500200
H       1.291100     0.403000     8.461900
H       0.675700     1.047500     7.132400
