89
Refcode: BUYWEY_comp_0 | Dataset: tmCAT | Charge: unknown | Potential Spins: [1, 3, 5]
Ru      5.829700     2.802800     9.145700
O       6.639000     1.268200     7.972800
O       8.506200     0.256200     7.281600
O       5.276000     4.401200    10.343900
O       5.448400     6.606100    10.609900
N       5.789000     1.055900    11.663100
N       3.952200     0.843600    10.548400
N       8.003700     2.855000     9.630800
N       6.476900     4.455100     7.996900
C       5.160300     1.455700    10.528400
C       5.034900     0.084200    12.471700
H       4.871700     0.426600    13.385400
H       5.511800    -0.781400    12.529900
C       3.737400    -0.050700    11.692400
H       3.594500    -0.984200    11.395900
H       2.961300     0.240100    12.235100
C       7.126400     1.334200    12.117000
C       8.153600     0.467700    11.730900
C       9.419000     0.690600    12.259500
H      10.139200     0.137700    11.981900
C       9.657400     1.699600    13.182100
C       8.615100     2.514500    13.546400
H       8.776600     3.208900    14.173900
C       7.328400     2.362400    13.027800
C       7.898800    -0.679100    10.792400
H       7.746900    -1.496800    11.310900
H       8.676900    -0.802500    10.209500
H       7.108800    -0.484900    10.247500
C      11.037400     1.889900    13.749500
H      11.411400     2.735400    13.423400
H      11.612300     1.148700    13.465000
H      10.989100     1.909100    14.727400
C       6.214300     3.285400    13.434600
H       5.930000     3.815300    12.660100
H       6.528300     3.885100    14.143200
H       5.458000     2.758400    13.765200
C       2.858000     0.995700     9.638300
C       2.724600     0.063100     8.610900
C       1.595600     0.160700     7.811300
H       1.478900    -0.471500     7.111400
C       0.640200     1.131500     7.984900
C       0.815100     2.022900     9.019400
H       0.161000     2.701000     9.147900
C       1.907500     1.977900     9.885400
C       3.793200    -0.955500     8.373200
H       4.619400    -0.504000     8.102500
H       3.507000    -1.568600     7.664800
H       3.952200    -1.460500     9.198500
C      -0.550800     1.221400     7.073400
H      -1.256100     0.620700     7.395300
H      -0.288500     0.960300     6.165500
H      -0.886100     2.142400     7.062600
C       2.085900     2.967900    10.976300
H       2.049700     2.510700    11.842700
H       1.371300     3.636400    10.931100
H       2.955000     3.411700    10.876900
C       8.684700     3.707200    10.415000
H       8.199600     4.307900    10.969100
C      10.057000     3.740700    10.445500
H      10.508300     4.355700    11.012500
C      10.775100     2.878900     9.651200
H      11.726200     2.884700     9.659700
C      10.079800     2.005700     8.842000
H      10.548000     1.394500     8.285200
C       8.708200     2.025800     8.845600
C       7.907600     1.099900     7.959600
C       7.061600     4.437000     6.798000
H       7.181000     3.602000     6.362600
C       7.498700     5.584700     6.164800
H       7.914500     5.535900     5.311800
C       7.320600     6.812800     6.793800
H       7.606100     7.618100     6.378900
C       6.721300     6.831900     8.028000
H       6.588500     7.657300     8.478700
C       6.309700     5.648800     8.616100
C       5.638600     5.581800     9.955000
C       4.363800     2.649400     8.011700
H       4.223700     1.747400     7.746200
C       3.363700     3.548400     7.415000
C       2.706300     3.149600     6.231900
H       2.942800     2.327000     5.820000
C       1.724800     3.935800     5.665600
H       1.295000     3.659400     4.865100
C       1.371800     5.125600     6.265000
H       0.699200     5.670800     5.874300
C       1.985700     5.525400     7.422500
H       1.732000     6.347000     7.825800
C       2.971000     4.749700     8.010800
H       3.378900     5.034800     8.820500
