64
Refcode: CADNIF_comp_0 | Dataset: tmCAT | Charge: 0 | Potential Spins: [1, 3, 5]
Br      5.500100    -0.664100     3.387700
Cu      3.413500     0.535900     2.874600
P       1.576400    -0.543000     3.470400
N       3.824500     2.523800     3.408100
N       3.794600     1.380900     0.949400
C       3.853000     3.070400     4.631100
C       4.231900     4.396800     4.842500
C       4.599000     5.184200     3.781100
C       4.581700     4.641400     2.486600
C       4.937100     5.397300     1.318300
C       4.895300     4.833500     0.099700
C       4.506100     3.469800    -0.081200
C       4.468300     2.830500    -1.333800
C       4.109100     1.525200    -1.413800
C       3.788200     0.799800    -0.254300
C       3.433900    -0.647900    -0.319300
C       3.454200     2.186400     5.776900
C       4.181600     3.303500     2.341600
C       4.147000     2.692900     1.038200
C       1.677900    -1.719100     4.878300
C       0.817200    -2.801800     5.028300
C       0.939100    -3.662900     6.101600
C       1.918200    -3.447800     7.050800
C       2.778600    -2.404300     6.916300
C       2.674300    -1.557600     5.828400
C       0.962300    -1.612100     2.122100
C      -0.084400    -1.255700     1.288900
C      -0.359700    -2.002000     0.157100
C       0.374100    -3.104800    -0.134300
C       1.401900    -3.506100     0.693100
C       1.693300    -2.749300     1.817100
C       0.127800     0.520800     3.855300
C       0.249400     1.882600     3.644200
C      -0.830400     2.732100     3.851800
C      -2.029900     2.218900     4.272500
C      -2.160400     0.880100     4.501000
C      -1.097900     0.032500     4.294100
H       4.235800     4.746500     5.704200
H       4.855800     6.067200     3.917400
H       5.199000     6.286000     1.406400
H       5.125300     5.341900    -0.643100
H       4.688300     3.301600    -2.103500
H       4.075100     1.106600    -2.243400
H       3.261600    -0.975700     0.567000
H       4.162100    -1.139100    -0.706900
H       2.650300    -0.761600    -0.861500
H       3.214500     1.318700     5.444100
H       2.703300     2.573500     6.231900
H       4.191200     2.102300     6.386600
H       0.150400    -2.947100     4.396000
H       0.361500    -4.387200     6.185300
H       1.987800    -4.017400     7.783200
H       3.437100    -2.260000     7.554900
H       3.285900    -0.863900     5.731200
H      -0.604000    -0.511300     1.489900
H      -1.052900    -1.746900    -0.407400
H       0.183200    -3.595000    -0.900800
H       1.892500    -4.272500     0.500700
H       2.390000    -3.009200     2.375900
H       1.062400     2.233300     3.360200
H      -0.738000     3.646600     3.706300
H      -2.755700     2.783700     4.403300
H      -2.972100     0.539000     4.798500
H      -1.199900    -0.879200     4.450000
