59
Refcode: CAFROS_comp_1 | Dataset: tmCAT | Charge: 1 | Potential Spins: [1, 3, 5]
Zn     -1.599100     9.016900    11.914100
Cl     -3.518000     8.141800    11.189100
S      -1.712800    11.008200    13.088500
S      -0.008400     7.615700    12.790100
C      -2.346200    12.794000     9.679800
H      -2.211400    12.943300     8.772700
N      -3.073600    12.927500    11.730200
N       0.783100     7.770600    10.145100
N      -0.453100     9.800700    10.337300
C       1.464700     5.719800     9.723800
H       1.798400     4.955900     9.309900
N       1.012600     5.814600    11.034500
C      -3.158900    13.484400    10.469400
H      -3.687100    14.208400    10.221400
N      -1.734500    11.814000    10.441500
C      -3.864500    13.338800    12.882400
H      -3.878600    14.308100    12.923500
H      -3.433500    13.016100    13.689700
C       0.311800    11.759900     9.171900
H       0.166500    12.641900     8.916600
C      -5.321500    12.818000    12.851600
C       2.242200     4.345000    12.697500
C      -0.597200    11.087200     9.968900
C       2.548400     5.423100    13.733700
H       3.317000     5.163200    14.247400
H       1.794100     5.529000    14.317900
H       2.728100     6.252900    13.287500
C       0.636200     9.165200     9.879400
C       1.438400    11.078800     8.768300
H       2.079300    11.506900     8.248700
C      -2.198800    11.913900    11.725800
C       3.428600     4.234900    11.755200
H       3.228000     3.601800    11.060900
H       4.200000     3.939700    12.243900
H       3.607000     5.092900    11.363300
C       1.617100     9.767000     9.132300
H       2.380900     9.299600     8.879900
C      -6.118800    13.528700    11.752200
H      -7.050700    13.317700    11.846200
H      -5.808100    13.236600    10.892100
H      -5.996900    14.478200    11.831500
C      -5.940900    13.190700    14.212200
H      -5.463100    12.742300    14.913800
H      -6.861700    12.921200    14.228300
H      -5.883400    14.140600    14.341300
C       0.603800     7.064200    11.294300
C       1.334100     6.926800     9.164600
H       1.563200     7.163900     8.295700
C      -5.355500    11.314700    12.666600
H      -4.947200    11.085300    11.830000
H      -6.267300    11.013000    12.672500
H      -4.874800    10.894000    13.382900
C       0.941300     4.663300    11.946000
H       0.683600     3.881400    11.433700
H       0.241900     4.829400    12.596200
C       2.004700     3.029000    13.397600
H       1.261900     3.115400    13.999400
H       2.789800     2.783600    13.892200
H       1.812100     2.349200    12.747400
