59
Refcode: CAKBOG_comp_0 | Dataset: tmCAT | Charge: unknown | Potential Spins: [1, 3, 5]
Zr     -6.171900    18.917500     2.331400
Si     -3.897200    17.364800     4.902200
N      -7.721800    17.856500     1.653400
N      -6.335600    20.865700     1.768400
C      -5.383800    18.247500     5.740000
C      -6.463700    19.002100     4.664900
C      -2.331500    18.156000     5.456000
C      -3.972500    15.579000     5.327700
C      -4.134900    17.630100     3.085900
C      -3.683400    18.755100     2.342600
C      -4.067500    18.583600     1.001800
C      -4.765900    17.392300     0.902000
C      -4.792300    16.793200     2.149200
C      -8.024200    16.546200     0.995700
C      -8.933800    18.688800     1.844800
C      -7.284900    21.412200     0.796200
C      -5.367900    21.837500     2.244900
B      -5.390400    19.946500     5.635200
B      -5.204200    19.107300     7.184700
B      -6.158700    17.618700     7.110400
B      -6.916500    17.563800     5.484500
B      -7.092100    20.406100     5.451900
B      -6.293400    20.477000     7.043200
B      -6.812200    19.029500     7.960500
B      -7.879000    18.046300     6.888500
B      -8.024200    18.915200     5.362300
B      -7.959500    19.864200     6.882400
H      -1.584200    17.717000     5.038600
H      -2.253600    18.080600     6.410000
H      -2.336800    19.084400     5.208600
H      -3.235800    15.121600     4.916400
H      -4.798900    15.208500     5.010100
H      -3.921000    15.476100     6.280700
H      -3.070800    19.445700     2.673500
H      -3.771800    19.137000     0.248400
H      -5.055000    16.973800     0.065200
H      -5.123700    15.890000     2.334500
H      -8.972100    16.463900     0.866400
H      -7.715200    15.828200     1.553600
H      -7.581900    16.502800     0.144600
H      -9.702100    18.208600     1.531200
H      -8.840100    19.505200     1.351000
H      -9.038100    18.887800     2.777400
H      -7.156800    22.361200     0.720800
H      -8.182600    21.233900     1.089400
H      -7.139600    21.000600    -0.058000
H      -5.581800    22.701900     1.889600
H      -4.490000    21.579100     1.955800
H      -5.394300    21.869600     3.204000
H      -4.575800    20.543300     5.195400
H      -4.274800    19.166700     7.767100
H      -5.848500    16.710900     7.650000
H      -7.085500    16.617100     4.952000
H      -7.403700    21.311600     4.911300
H      -6.063700    21.428200     7.543100
H      -6.949500    19.038700     9.051900
H      -8.692200    17.415200     7.277400
H      -8.947000    18.848900     4.763700
H      -8.820300    20.422100     7.281500
