80
Refcode: CAMDIE_comp_0 | Dataset: tmCAT | Charge: -2 | Potential Spins: [1, 3, 5]
W       1.946900     4.304600    19.775000
Cl      2.053700     2.335800    18.530500
Cl      2.647900     5.761500    18.103500
S       0.258000     2.838200    21.109000
O       0.167600     4.590100    18.842700
O       1.339000     5.441600    21.155500
C      -0.869300     3.716300    18.825400
C      -0.997100     2.792800    19.841600
C      -2.068800     1.891500    19.910700
H      -2.138300     1.273000    20.627300
C      -3.023300     1.927500    18.909900
C      -2.869200     2.851000    17.878400
H      -3.521400     2.856200    17.186800
C      -1.826700     3.762500    17.793800
C      -4.212800     0.964600    18.921400
H      -5.043600     1.471800    19.029000
H      -4.116100     0.334100    19.664900
H      -4.241300     0.469500    18.076200
C       0.279800     5.354200    22.018000
C      -0.359100     4.173700    22.141000
C      -1.444500     3.969800    22.990000
H      -1.869800     3.121700    23.049600
C      -1.880700     5.040700    23.745000
C      -1.194900     6.250300    23.652800
H      -1.491800     6.973300    24.194500
C      -0.091900     6.469600    22.811400
C      -3.088000     4.931000    24.651700
H      -2.869700     5.299400    25.533400
H      -3.342800     3.988700    24.745800
H      -3.834900     5.433000    24.265600
C      -1.649000     4.703100    16.616300
C      -2.858900     4.626000    15.648100
H      -3.679400     4.852200    16.132200
H      -2.931400     3.718000    15.287000
H      -2.729000     5.261700    14.912400
C      -0.400700     4.310800    15.834500
H      -0.401000     3.342700    15.682700
H       0.397600     4.560900    16.345400
H      -0.394500     4.776800    14.972000
C      -1.540600     6.161200    17.063900
H      -0.752900     6.267400    17.636300
H      -2.345200     6.409600    17.563300
H      -1.452200     6.738600    16.276300
C       0.666700     7.795700    22.776800
C       0.698300     8.350900    21.343800
H       1.135700     9.228100    21.343800
H      -0.218000     8.443400    21.009500
H       1.196800     7.737500    20.765600
C       2.108700     7.549000    23.264700
H       2.097000     7.331400    24.219400
H       2.644300     8.357700    23.120700
H       2.499800     6.803700    22.763400
C       0.026200     8.849500    23.700800
H       0.106000     8.558200    24.632500
H      -0.920600     8.954000    23.470300
H       0.486900     9.707800    23.587500
C       4.925500     5.660900    20.485100
C       4.605300     7.021300    20.510100
H       3.694800     7.293700    20.488900
C       5.603300     7.965400    20.565800
H       5.380400     8.887100    20.610000
C       6.955900     7.569600    20.561900
H       7.648200     8.218900    20.602300
C       7.257800     6.233200    20.496600
H       8.168200     5.962500    20.479300
C       6.270600     5.282300    20.454400
H       6.502100     4.362200    20.406300
C       3.866200     4.641500    20.475500
C       3.936200     2.314700    21.645400
C       3.294900     1.105100    21.597300
H       2.547600     0.992000    21.021100
C       3.723500     0.044500    22.379200
H       3.261700    -0.784700    22.348400
C       4.817100     0.191900    23.197500
H       5.116200    -0.534600    23.731500
C       5.487500     1.422100    23.241700
H       6.242000     1.533400    23.808400
C       5.055100     2.458700    22.467500
H       5.518900     3.287900    22.488700
C       3.490700     3.455800    20.859700
