31
Refcode: CATLOB_comp_0 | Dataset: tmCAT;tmPHOTO | Charge: unknown | Potential Spins: [1, 3, 5]
Re      2.058400     1.287700     3.543200
Cl      2.727000     0.595200     1.280000
O       4.512400    -0.006400     4.831600
O       3.547100     3.947900     3.354600
O       1.027900     2.180200     6.255700
N       0.250000     1.781300     2.519200
N       0.851500    -0.555800     3.548300
N      -0.160000     2.882500     1.933700
N      -1.335500     2.563200     1.366900
C      -1.674800     1.288300     1.613500
H      -2.446700     0.846400     1.342600
C      -1.178700    -1.596600     2.865900
H      -1.993700    -1.534200     2.422200
C      -0.653600     0.786400     2.337600
C      -0.332300    -0.502200     2.930900
C      -0.812800    -2.748100     3.450300
H      -1.380400    -3.484800     3.431900
C       0.423300    -2.829100     4.082100
H       0.704200    -3.623500     4.476700
C       1.220100    -1.710600     4.111800
H       2.044600    -1.758600     4.538800
C      -2.066800     3.597500     0.613000
H      -2.868400     3.848700     1.098300
H      -1.510600     4.387100     0.520900
C      -2.435500     3.097400    -0.720900
H      -2.910100     3.780800    -1.199100
H      -1.640800     2.860700    -1.204300
H      -2.996000     2.323400    -0.627900
C       3.611600     0.500400     4.360500
C       2.987800     2.940000     3.431600
C       1.416500     1.833400     5.243200
