66
Refcode: CAWTEA_comp_0 | Dataset: tmCAT | Charge: 0 | Potential Spins: [1, 3, 5]
Pd      7.776700     9.280100     1.323900
N       2.462900     9.745500     3.805000
C       2.088600    11.147400     3.979900
H       2.069600    11.364300     4.935600
H       1.200300    11.299200     3.593800
H       2.743600    11.720100     3.527600
C       2.035900     9.117600     2.570400
H       2.589500     9.442500     1.830000
H       1.097400     9.342000     2.397800
H       2.130300     8.145700     2.647600
C       3.388700     9.241000     4.642400
O       3.737600     9.818300     5.673600
N       3.962300     8.029100     4.285300
H       3.950200     7.774400     3.525700
C       4.984500     7.440900     5.048400
N       4.691700     7.070900     6.295700
C       5.786200     6.565000     7.132700
H       6.340400     5.950000     6.606600
H       5.415100     6.090800     7.904900
H       6.334600     7.314900     7.441200
C       3.369900     7.129900     6.884600
H       3.308700     7.912600     7.473400
H       3.207700     6.316600     7.405300
H       2.698700     7.202300     6.175100
N       6.151500     7.156100     4.543300
C       6.664900     7.718800     3.429200
N       6.882700     8.977000     3.150800
C       6.564100    10.046200     4.102300
H       6.062200     9.672000     4.867400
H       5.992900    10.724300     3.661900
C       7.847200    10.703700     4.603600
H       8.372800    11.023700     3.828500
H       7.614600    11.491100     5.158900
C       8.700400     9.748400     5.425700
H       8.179600     9.419400     6.188400
H       9.496300    10.217300     5.751200
H       8.973100     8.991000     4.867400
C       7.191700     6.756700     2.414200
N       7.773700     7.360400     1.373400
C       7.111700     5.376300     2.450200
H       6.723800     4.929100     3.192600
C       7.615000     4.661700     1.367900
H       7.576500     3.712700     1.372000
C       8.172600     5.318500     0.284200
H       8.498300     4.827400    -0.459900
C       8.247400     6.695300     0.301100
C       8.744400     7.609300    -0.784400
O       9.154600     7.124000    -1.859500
N       8.634100     8.905400    -0.472000
C       9.008900     9.905000    -1.468400
H       8.293700    10.586100    -1.532900
H       9.095200     9.468400    -2.352300
C      10.302300    10.578900    -1.122200
H      10.467500    11.292300    -1.788400
H      10.197500    11.015400    -0.240300
C      11.493400     9.712800    -1.069200
H      11.335700     8.977900    -0.439100
H      12.266200    10.237700    -0.772100
H      11.671200     9.345800    -1.960600
O       7.802300    11.311900     1.290900
C       6.662900    11.902100     1.170900
O       5.606400    11.365200     0.924500
C       6.731700    13.397900     1.396600
H       5.964200    13.829000     0.967100
H       7.561200    13.747700     1.008700
H       6.715800    13.583600     2.358000
