51
Refcode: CEBKIE_comp_0 | Dataset: tmCAT | Charge: 1 | Potential Spins: [1, 3, 5]
Ni      1.108600     7.469500     1.097200
O       0.346800     9.575600    -2.146900
N       0.575600     8.913400     0.041900
N       1.132500     6.411500    -0.543500
N       2.108000     6.178900     2.139600
H       1.534700     5.441400     2.361500
N       0.585000     8.296200     2.784800
C       0.512300     8.694000    -1.284100
C       0.657600     7.267900    -1.702300
H       1.361300     7.211100    -2.480400
C       2.479000     5.811400    -0.874400
H       2.393800     5.252400    -1.759700
H       3.163100     6.588600    -1.050000
C       3.015500     4.931200     0.203000
H       3.884000     4.456700    -0.146300
H       2.307900     4.184400     0.415200
C       3.339600     5.660800     1.472500
H       3.842600     5.013100     2.127400
H       3.980900     6.464300     1.256700
C       2.488300     6.900500     3.393200
H       3.214700     7.630100     3.186500
H       2.883500     6.225100     4.093700
C       1.239500     7.548100     3.940600
H       1.499600     8.227500     4.697400
C       0.910700     9.746100     2.886500
H       1.942400     9.880900     2.740100
H       0.670900    10.089700     3.848600
C       0.146800    10.560200     1.856600
H      -0.874000    10.326300     1.933500
H       0.257700    11.579200     2.083500
C       0.591200    10.331600     0.417100
H      -0.043700    10.864200    -0.226800
H       1.563600    10.708300     0.294500
C      -0.664600     6.652000    -2.178600
H      -1.339400     7.392200    -2.493200
H      -0.508400     5.972700    -2.963300
C      -1.166100     5.941000    -0.921900
H      -1.590900     6.620300    -0.243300
H      -1.873700     5.202100    -1.157900
C       0.091400     5.335600    -0.371300
H       0.354600     4.471200    -0.905500
H      -0.025800     5.087100     0.642000
C       0.167900     6.570100     4.472400
H       0.553700     5.594700     4.527300
H      -0.152300     6.859500     5.429100
C      -0.993500     6.630900     3.477300
H      -0.870800     5.929100     2.707200
H      -1.912700     6.461700     3.954700
C      -0.902900     8.051700     2.946800
H      -1.399600     8.138900     2.024900
H      -1.323800     8.732300     3.625500
