69
Refcode: CEMSUL_comp_0 | Dataset: tmCAT | Charge: 0 | Potential Spins: [1, 3, 5]
Ni      1.899200     3.995000     4.248600
S       0.975500     5.896600     4.669800
S       3.061600     2.350100     3.393400
P       0.676600     3.847600     2.507000
P       3.221100     3.956900     6.050400
C       0.095300     6.348200     3.199500
C      -0.074600     5.436500     2.160200
C      -0.818300     5.776900     1.041000
H      -0.934700     5.161000     0.353100
C      -1.385500     7.036800     0.946000
H      -1.895300     7.266200     0.203200
C      -1.191800     7.943700     1.957000
H      -1.557400     8.796000     1.882100
C      -0.465500     7.617600     3.079600
H      -0.351100     8.243400     3.757400
C       2.817400     2.524200     1.653900
C       1.710300     3.231400     1.160900
C       1.539500     3.355600    -0.208200
H       0.817100     3.837400    -0.541300
C       2.426900     2.771600    -1.072600
H       2.299200     2.858600    -1.990300
C       3.500300     2.064100    -0.606300
H       4.094500     1.671400    -1.204200
C       3.700500     1.933700     0.749500
H       4.429300     1.449400     1.064300
C      -0.714900     2.678300     2.648200
C      -1.973200     3.093800     2.976300
H      -2.139200     4.002200     3.086200
C      -3.003400     2.192700     3.149500
H      -3.851400     2.497000     3.377700
C      -2.783100     0.877300     2.986300
H      -3.479100     0.269300     3.089600
C      -1.531500     0.438800     2.669900
H      -1.378500    -0.473000     2.569900
C      -0.483800     1.326900     2.491600
H       0.364300     1.016200     2.268500
C       3.657200     2.225000     6.419000
C       2.613300     1.366100     6.725400
H       1.754800     1.710400     6.813700
C       2.815400     0.017600     6.902000
H       2.100600    -0.543500     7.103500
C       4.087000    -0.489700     6.778700
H       4.237500    -1.399800     6.898700
C       5.122500     0.335400     6.482300
H       5.978100    -0.018100     6.394000
C       4.923200     1.706400     6.309100
H       5.642800     2.264400     6.120800
C       2.766100     4.687300     7.664800
C       2.570300     6.060500     7.731400
H       2.609200     6.569800     6.955300
C       2.317000     6.679400     8.947300
H       2.196100     7.601200     8.978900
C       2.245400     5.953500    10.086500
H       2.079700     6.376500    10.897600
C       2.416500     4.593900    10.044800
H       2.367000     4.096400    10.827700
C       2.664100     3.956000     8.832300
H       2.762100     3.031900     8.809000
C       4.785700     4.817000     5.714500
C       5.735700     4.998900     6.702100
H       5.596400     4.644000     7.549900
C       6.890500     5.706400     6.432300
H       7.529800     5.808700     7.100200
C       7.105700     6.250200     5.216500
H       7.884400     6.731700     5.051600
C       6.175900     6.092700     4.225500
H       6.315600     6.472800     3.387700
C       5.033500     5.366400     4.475300
H       4.415000     5.243800     3.790800
