51
Refcode: CEPDEI_comp_0 | Dataset: tmCAT;tmPHOTO | Charge: unknown | Potential Spins: [1, 3, 5]
Au      8.049600     8.133500     7.650700
Cl      7.223600     7.159600     9.539800
N       7.657500     8.401200     2.752500
N       8.550300     9.062100     4.746400
N       9.682100    10.114100     6.240500
N       6.945600     7.597400     1.938100
N       5.571400     5.777300     1.560200
N       4.818300     4.749400     2.083700
C       8.774100     9.125700     6.085200
C       9.314300    10.027700     4.079100
H       9.332100    10.184900     3.163900
C      10.013500    10.679600     5.017500
H      10.609500    11.379900     4.875100
C      10.176000    10.588200     7.507500
C      11.399600    10.105600     7.976600
C      11.861800    10.608300     9.180900
H      12.671700    10.296500     9.517900
C      11.153900    11.562700     9.902800
C       9.936600    12.000900     9.406000
H       9.449600    12.628700     9.891200
C       9.420400    11.526400     8.204700
C      12.195200     9.081300     7.199400
H      12.652600     9.514200     6.474500
H      11.602500     8.413300     6.850800
H      12.836600     8.667300     7.781900
C      11.705900    12.105800    11.192800
H      11.045900    12.662300    11.614100
H      12.493400    12.624600    11.011200
H      11.930900    11.377200    11.776800
C       8.076700    11.984800     7.700600
H       7.788000    12.747000     8.209000
H       7.439900    11.273700     7.799400
H       8.146800    12.226800     6.775200
C       7.716000     8.147100     4.034100
C       7.049900     7.087900     4.635500
H       7.103000     6.938700     5.552100
C       6.316300     6.276000     3.826300
H       5.841900     5.552800     4.167700
C       6.304900     6.574400     2.458800
C       5.432900     5.874100     0.193200
C       4.568000     4.874000    -0.156900
H       4.271300     4.671100    -1.014000
C       4.216400     4.211300     1.034300
C       6.114800     6.866100    -0.688600
H       5.857000     6.712900    -1.600800
H       7.066700     6.769300    -0.604300
H       5.859700     7.754600    -0.428500
C       3.322400     3.037900     1.211500
H       3.735700     2.259600     0.828000
H       2.483900     3.204500     0.772800
H       3.170600     2.888700     2.147000
