103
Refcode: CEPNIW_comp_0 | Dataset: tmCAT | Charge: unknown | Potential Spins: [1, 3, 5]
Y       1.527800     1.527000    15.989300
Cl      2.454500     0.558400    18.266200
P      -1.777800     2.584600    15.686600
P       3.462100    -0.387900    13.872900
O       2.228100     3.803600    16.697400
N      -0.726000     1.996500    16.740000
N       3.497700     0.937300    14.779000
C      -0.944200     2.935800    14.140300
C       0.443000     2.702600    14.079100
C       0.994800     2.977300    12.813900
H       1.928800     2.853500    12.701100
C       0.262900     3.415500    11.725600
H       0.693300     3.568400    10.893300
C      -1.109400     3.634100    11.853500
H      -1.620600     3.939800    11.113500
C      -1.710900     3.398100    13.068600
H      -2.643200     3.548100    13.178200
C      -3.168800     1.477100    15.317900
C      -3.067300     0.601700    14.230300
H      -2.316100     0.659700    13.650300
C      -4.043300    -0.345300    13.989100
H      -3.966600    -0.926700    13.241800
C      -5.126600    -0.446900    14.832100
H      -5.791900    -1.105600    14.668000
C      -5.252600     0.400500    15.910400
H      -6.005700     0.327900    16.485600
C      -4.280300     1.361000    16.157300
H      -4.370500     1.944300    16.901400
C      -2.520600     4.147800    16.257800
C      -3.792300     4.586900    15.891300
H      -4.364900     4.014300    15.394500
C      -4.224100     5.857000    16.248800
H      -5.092700     6.150100    15.998700
C      -3.390200     6.696600    16.967700
H      -3.685000     7.567200    17.204800
C      -2.132500     6.271000    17.339100
H      -1.564000     6.846500    17.835900
C      -1.700100     5.004800    16.985800
H      -0.833100     4.716600    17.243900
C      -1.337900     1.633800    18.057800
H      -2.278700     1.973300    18.063400
C      -1.385700     0.120900    18.222900
H      -1.925800    -0.268900    17.505700
H      -1.785900    -0.100600    19.090900
H      -0.475200    -0.240900    18.180800
C      -0.595000     2.289600    19.213900
H       0.336100     1.983000    19.220500
H      -1.024400     2.042900    20.059600
H      -0.619400     3.262700    19.108000
C       1.840900    -1.135600    13.964400
C       0.914500    -0.565900    14.861500
C      -0.322000    -1.257500    14.884500
H      -1.003800    -0.935400    15.463000
C      -0.596400    -2.370900    14.119500
H      -1.447500    -2.786800    14.181100
C       0.358400    -2.886400    13.260600
H       0.166800    -3.652500    12.732900
C       1.593600    -2.274100    13.180900
H       2.266900    -2.618500    12.603300
C       3.842000    -0.048400    12.132900
C       2.817700     0.323100    11.273700
H       1.914200     0.235100    11.551400
C       3.104400     0.819300    10.021700
H       2.391900     1.064000     9.442700
C       4.413200     0.967300     9.595300
H       4.601600     1.331000     8.738100
C       5.433200     0.581300    10.427300
H       6.334100     0.662600    10.139900
C       5.155700     0.078400    11.676400
H       5.871700    -0.189600    12.241200
C       4.680200    -1.620200    14.421600
C       5.267600    -2.558500    13.561300
H       5.052300    -2.554600    12.635100
C       6.165900    -3.492900    14.062300
H       6.577400    -4.117800    13.476600
C       6.461500    -3.515200    15.412100
H       7.077800    -4.154600    15.751700
C       5.870200    -2.620400    16.261500
H       6.069600    -2.652300    17.190100
C       4.982300    -1.665700    15.781300
H       4.582500    -1.045700    16.377900
C       4.822700     1.640500    14.771400
H       5.512200     1.001200    14.428200
C       4.795300     2.851600    13.840400
H       4.552400     2.562400    12.936000
H       5.681700     3.269500    13.821500
H       4.135500     3.498700    14.166500
C       5.211400     2.039100    16.177800
H       4.546300     2.664900    16.534500
H       6.090900     2.471500    16.162600
H       5.247400     1.242000    16.744900
C       2.085400     5.045400    15.925400
H       1.287500     5.000900    15.340700
H       2.885200     5.199200    15.362700
C       1.934200     6.148200    16.942500
H       2.558700     6.892000    16.749800
H       1.008100     6.500300    16.945500
C       2.262700     5.503000    18.257600
H       2.962600     6.023400    18.726400
H       1.457600     5.474000    18.834000
C       2.727400     4.179700    17.999100
H       2.390700     3.555800    18.689700
H       3.717000     4.154600    18.007100
