71
Refcode: CEQWIG_comp_0 | Dataset: tmCAT | Charge: unknown | Potential Spins: [1, 3, 5]
Zr      2.180100     2.631400     2.076200
P       3.010100     4.540300     3.748800
C      -1.001300     3.732600     3.081400
C      -0.321200     2.598300     2.034500
C       3.619700     1.295000     3.624100
H       4.358500     1.661000     4.155600
C       2.374700     1.121400     4.073600
H       2.061600     1.329100     4.978200
C       1.681600     0.418800     3.140700
H       0.796700     0.015200     3.253800
C       2.571300     0.172400     2.100400
H       2.438200    -0.446900     1.354100
C       3.749500     0.743700     2.479200
H       4.603200     0.619400     2.015600
C       3.679700     3.970800     0.591400
H       4.421900     4.522100     0.918800
C       2.474600     4.433000     0.354200
H       2.200500     5.366700     0.469300
C       1.721000     3.467500    -0.253900
H       0.845300     3.580100    -0.678500
C       2.602900     2.319100    -0.356200
H       2.457500     1.505000    -0.882000
C       3.810700     2.770700     0.189400
H       4.660600     2.283900     0.149800
C       0.042800     4.531500     3.847500
H      -0.127800     5.475800     3.708900
H      -0.066000     4.352000     4.794500
C       1.297200     4.276900     3.513900
H       1.266800     4.935000     2.787400
C       3.565900     6.201900     3.301300
C       2.741100     7.296400     3.346200
H       1.849400     7.197800     3.590200
C       3.243000     8.560900     3.022000
H       2.680800     9.301100     3.050300
C       4.559000     8.718100     2.664900
H       4.886300     9.561500     2.450900
C       5.370700     7.653000     2.624500
H       6.262700     7.762100     2.388800
C       4.889400     6.386100     2.931500
H       5.461300     5.654100     2.889100
C       3.488900     4.440000     5.488200
C       2.627800     5.010100     6.442600
H       1.788700     5.349100     6.227700
C       3.159900     5.024200     7.779700
H       2.665800     5.455900     8.441200
C       4.293200     4.464600     8.121800
H       4.550100     4.447000     9.017900
C       5.100200     3.915600     7.188900
H       5.923000     3.556700     7.432000
C       4.690500     3.888700     5.854600
H       5.235400     3.496900     5.210000
B      -1.102700     2.115000     3.486200
H      -0.538800     1.651700     4.308200
B      -2.450800     3.213000     3.793700
H      -2.778000     3.468700     4.814300
B      -2.445400     4.401300     2.504700
H      -2.763800     5.439400     2.677100
B      -1.112900     4.007100     1.436100
H      -0.554300     4.794300     0.907400
B      -1.420200     1.273900     1.981700
H      -1.083200     0.242800     1.803600
B      -2.755200     1.642300     3.092700
H      -3.283300     0.856300     3.652400
B      -3.597300     3.059300     2.459400
H      -4.679500     3.208300     2.597900
B      -2.771500     3.561400     0.988900
H      -3.313600     4.040000     0.161100
B      -1.421400     2.454000     0.708400
H      -1.081800     2.210000    -0.308100
B      -2.963600     1.860500     1.356900
H      -3.637100     1.216500     0.771800
