54
Refcode: CERQIB_comp_0 | Dataset: tmCAT | Charge: unknown | Potential Spins: [1, 3, 5]
C     -11.281100     0.756700    -2.415000
C     -10.317500    -1.002400    -0.973900
H      -9.405400    -1.383400    -0.909000
H     -10.969000    -1.747500    -0.928000
C     -10.553800    -0.057900     0.166300
H      -9.847800     0.638300     0.178900
H     -10.517500    -0.550100     1.024600
C     -11.908300     0.583100    -0.004800
H     -12.617300    -0.095300     0.123500
H     -12.032500     1.293500     0.673000
C      -9.699400    -0.816300    -3.369900
C     -10.305400    -1.728800    -4.233000
C      -9.538800    -2.239700    -5.270300
H      -9.920500    -2.886000    -5.853000
C      -8.217600    -1.828500    -5.482500
C      -7.641900    -0.950700    -4.583000
H      -6.732900    -0.697000    -4.692200
C      -8.375200    -0.432600    -3.520400
C     -11.744700    -2.138300    -4.093600
H     -11.917400    -2.423100    -3.172000
H     -11.935600    -2.879800    -4.706500
H     -12.323400    -1.378000    -4.313800
C      -7.417700    -2.400000    -6.629000
H      -6.496500    -2.068800    -6.581500
H      -7.820700    -2.123100    -7.479400
H      -7.414700    -3.378300    -6.572000
C      -7.732800     0.543000    -2.568600
H      -8.314600     1.323700    -2.457800
H      -6.866200     0.829700    -2.929700
H      -7.596500     0.111300    -1.699200
C     -12.896100     2.296700    -1.531400
C     -12.408300     3.559900    -1.290600
C     -13.293000     4.637900    -1.387200
H     -12.974900     5.518300    -1.227300
C     -14.617200     4.448300    -1.708700
C     -15.059600     3.184200    -1.943100
H     -15.974700     3.060500    -2.174300
C     -14.232400     2.056400    -1.857600
C     -10.935600     3.795800    -0.992900
H     -10.687200     3.323100    -0.171000
H     -10.775000     4.756300    -0.878900
H     -10.393200     3.460200    -1.737200
C     -15.553500     5.632300    -1.822700
H     -15.568700     6.118300    -0.972300
H     -16.456500     5.316300    -2.036500
H     -15.238400     6.229600    -2.533800
C     -14.768700     0.654300    -2.080900
H     -14.308100     0.246600    -2.844200
H     -15.729200     0.697000    -2.264600
H     -14.611100     0.113900    -1.278000
N     -10.466000    -0.294700    -2.256600
N     -12.014300     1.165300    -1.366700
Cl    -11.427400     3.103200    -6.007600
Au    -11.356800     1.788600    -4.118200
