64
Refcode: CERSEZ_comp_0 | Dataset: tmCAT | Charge: 1 | Potential Spins: [1, 3, 5]
Rh      2.617000     9.900600     2.571800
P       3.146900    11.777500     3.670700
N       1.971600     7.837100     2.065000
N       1.788400     9.373600     4.371600
C       1.997800    11.674200     5.129800
H       2.466400    11.997800     5.939800
H       1.216500    12.261300     4.973300
C       1.524000    10.263100     5.358200
C       0.824700     9.874600     6.493700
H       0.666100    10.495500     7.194900
C       0.361700     8.573800     6.595200
H      -0.137300     8.302200     7.356000
C       0.632800     7.668500     5.574500
H       0.318000     6.773600     5.625400
C       1.369500     8.096200     4.484900
C       1.833100     7.161300     3.398900
H       2.706800     6.775000     3.657200
H       1.185800     6.416500     3.316800
C       4.852000    11.697400     4.479800
C       5.941600    11.567700     3.425900
H       6.810400    11.460400     3.866400
H       5.954000    12.373700     2.868600
H       5.761500    10.785900     2.864700
C       4.838900    10.422400     5.331800
H       5.719000    10.298700     5.746300
H       4.633300     9.651500     4.762800
H       4.157300    10.503900     6.030800
C       5.196200    12.878000     5.399400
H       5.370900    13.675200     4.857600
H       5.994600    12.660300     5.925600
H       4.445400    13.051400     6.004800
C       2.750800    13.482300     2.982900
C       1.305500    13.401700     2.442500
H       1.108800    14.204300     1.916300
H       0.679100    13.342800     3.194700
H       1.212200    12.607800     1.876000
C       3.703000    13.791600     1.822600
H       3.408800    14.607500     1.368000
H       3.698200    13.044600     1.188700
H       4.610000    13.919100     2.169600
C       2.804600    14.619000     4.008500
H       2.326500    14.349200     4.820000
H       2.381600    15.419100     3.631200
H       3.738800    14.816500     4.228800
C       3.023100     7.112100     1.276400
H       3.897600     7.252300     1.718800
H       3.076800     7.521200     0.376800
C       2.802700     5.609600     1.110800
H       1.921400     5.450300     0.712000
H       2.848600     5.173000     1.987700
H       3.497000     5.239700     0.526200
C       0.672900     7.760000     1.326600
H       0.339900     6.828500     1.364100
H       0.832800     7.984000     0.375500
C      -0.393600     8.681800     1.872100
H      -0.062700     9.603100     1.866900
H      -0.614900     8.417900     2.789300
H      -1.195400     8.619900     1.312200
C       3.956700    10.230800     0.923100
H       4.547400    10.966000     1.104300
H       4.380300     9.393500     0.792500
C       2.664700    10.455500     0.506200
H       2.326300    11.341100     0.389800
H       2.202500     9.758000     0.039000
