84
Refcode: CEYPOM_comp_0 | Dataset: tmCAT | Charge: 0 | Potential Spins: [1, 3, 5]
Ru      2.643100     2.628800     9.681400
P       2.842100     2.437600     7.310200
P       2.532200     2.821900    12.060700
Cl      2.828500     0.229800     9.873700
S       1.486400     4.733400     9.383900
N       0.538900     2.459400     9.584900
O       5.511200     3.486300     9.912700
C       0.954200     2.384900    12.794100
C       3.802300     1.820100    12.970800
C       4.445000     3.144800     9.786000
C       2.848200     4.508000    12.762400
C       2.893600     5.984100    14.657000
H       2.698300     6.145900    15.552500
C       1.361600     1.748300     6.540200
C      -0.437200     1.304100     9.623900
H      -0.229700     0.700800     8.894100
H      -0.308000     0.818900    10.453600
C      -0.038400     3.314300    12.845300
H       0.115700     4.184500    12.561400
C       3.749900     6.299900     4.962400
H       3.925500     7.093200     4.510400
C       0.229500     2.503000     6.299000
H       0.242300     3.422100     6.446400
C       2.758400     4.153700     5.022100
H       2.279200     3.476000     4.603000
C       1.305900     0.379900     6.296500
H       2.048700    -0.154000     6.464700
C       3.567600     6.936600    13.896700
H       3.828800     7.742700    14.278100
C       3.150800     3.997100     6.361100
C       3.072000     5.291000     4.325200
H       2.829000     5.378300     3.432200
C       0.690600     1.065400    13.212000
H       1.338800     0.400500    13.148700
C       3.461700     5.432200    12.040000
H       3.647600     5.257600    11.144400
C       0.151000    -0.179700     5.799500
H       0.132500    -1.085900     5.598400
C       2.522400     4.808400    14.068500
H       2.034600     4.192200    14.564400
C       3.841400     6.672200    12.587000
H       4.274300     7.306300    12.060700
C      -0.558800     0.793300    13.718900
H      -0.734600    -0.066700    14.021000
C      -0.983900     0.580200     5.604500
H      -1.780900     0.179700     5.321800
C       5.131600     0.741900     7.522200
H       5.093200     0.880500     8.442100
C       4.280900     1.096200     5.320600
H       3.699200     1.512100     4.726100
C       0.171100     3.619800     9.416800
H      -0.720000     3.868800     9.316900
C       4.188800     1.355500     6.666900
C       6.087800    -0.043600     6.984900
H       6.730500    -0.397900     7.556300
C      -1.346300     2.921500    13.354600
H      -2.049600     3.529900    13.368000
C       6.169300    -0.346600     5.683700
H       6.832100    -0.916500     5.365700
C       4.168600     6.148400     6.251500
H       4.673800     6.821100     6.649900
C       5.801300     0.467200    14.382900
H       6.445200    -0.002600    14.860500
C       5.902700     0.618700    12.996400
H       6.645700     0.302900    12.535800
C       4.841000     1.263100    12.311600
H       4.859800     1.301600    11.382000
C      -1.511700     1.684100    13.792000
H      -2.331000     1.442800    14.169700
C      -1.837800     1.684100     9.527700
H      -1.998800     2.446500     9.016000
C       3.851700     5.003500     6.980100
H       4.109900     4.923900     7.869500
C       3.760700     1.714900    14.346300
H       3.058900     2.117900    14.803200
C       5.248900     0.205400     4.840600
H       5.266200    -0.010300     3.936600
C      -0.936100     1.889500     5.834800
H      -1.692200     2.408000     5.680000
C       4.683700     1.057700    15.045700
H       4.597100     0.980700    15.969200
C      -2.845700     1.155200    10.002800
H      -2.774100     0.392800    10.530400
H      -3.688300     1.530100     9.849300
