69
Refcode: CEZGOE_comp_0 | Dataset: tmCAT | Charge: unknown | Potential Spins: [1, 3, 5]
Ru      5.470600     4.713800     3.721300
Cl      4.199800     5.875900     5.291100
Cl      5.897200     3.097700     2.108700
O       5.296100     2.951900     5.134000
N       4.472200     6.677600     1.794500
N       6.623200     7.031900     2.067200
C       5.627700     6.263200     2.441500
C       6.216400     8.042100     1.102900
H       6.706100     7.929400     0.251100
H       6.388600     8.951500     1.454100
C       4.713600     7.818400     0.896500
H       4.187900     8.611700     1.167600
H       4.504700     7.591200    -0.043100
C       3.182100     6.027600     1.840700
C       2.219200     6.538600     2.723300
C       1.031300     5.825000     2.849700
H       0.371500     6.128400     3.461200
C       0.791400     4.698700     2.118000
C       1.699800     4.234200     1.167600
H       1.503400     3.474800     0.631500
C       2.962800     4.955400     1.025900
C       2.374900     7.885300     3.424200
H       1.586000     8.056500     3.980300
H       2.459200     8.594700     2.752600
H       3.175300     7.870900     3.988000
C      -0.463200     3.842700     2.319800
H      -0.443500     3.081600     1.703600
H      -1.259400     4.385100     2.142600
H      -0.490200     3.515500     3.244000
C       3.854800     4.585900    -0.090900
H       3.490200     3.805400    -0.557600
H       4.744700     4.369000     0.260300
H       3.926700     5.337700    -0.716300
C       7.957400     6.990300     2.498400
C       8.312300     7.753100     3.656800
C       9.687800     7.690400     4.008000
H       9.969200     8.168400     4.779700
C      10.657600     6.978500     3.302500
C      10.257600     6.313200     2.153400
H      10.903300     5.854700     1.628200
C       8.907200     6.308900     1.752900
C       7.297400     8.498900     4.448500
H       7.735200     8.942200     5.204800
H       6.621600     7.873500     4.782800
H       6.869100     9.171000     3.878600
C      12.121900     6.926800     3.718400
H      12.246200     7.444600     4.541000
H      12.677100     7.306500     3.005200
H      12.384300     5.995400     3.875500
C       8.521600     5.510600     0.526800
H       9.319000     5.084300     0.151000
H       8.124100     6.108100    -0.140200
H       7.871100     4.822400     0.777900
C       7.026000     4.809700     4.618000
H       7.716900     5.381800     4.302200
C       4.210900     2.015400     5.305000
H       3.587800     2.097600     4.553300
H       3.738900     2.209500     6.141400
H       4.568200     1.103500     5.334200
C       7.239900     4.013900     5.830200
C       8.309800     4.161300     6.715900
H       8.984500     4.808000     6.540300
C       8.395300     3.364700     7.858900
H       9.119700     3.469700     8.464200
C       7.379100     2.385800     8.108400
H       7.404300     1.866200     8.903200
C       6.334300     2.193400     7.162600
H       5.679300     1.516200     7.292000
C       6.289600     3.013800     6.052000
