66
Refcode: CEZJOJ_comp_0 | Dataset: tmCAT | Charge: 0 | Potential Spins: [1, 3, 5]
Rh      3.160700     2.019500     8.298300
O       2.812600     0.665300     9.778700
O       1.599300     1.833400     1.462700
O       0.266400     2.340900    -5.469900
O       1.238200     4.268200    -4.892100
N       2.034500     0.896700     6.966700
C       1.957500    -0.324400     9.770500
C       1.762300    -1.072500    10.958700
H       2.286400    -0.868700    11.724900
C       0.839600    -2.080700    11.033600
H       0.719700    -2.545600    11.853000
C       0.067800    -2.437900     9.919400
H      -0.582200    -3.128400     9.979800
C       0.271300    -1.772600     8.744700
H      -0.227100    -2.030600     7.978500
C       1.198600    -0.713700     8.632300
C       1.314700    -0.125200     7.334400
H       0.799300    -0.533300     6.648000
C       1.962100     1.163600     5.539900
C       0.955400     1.960800     5.026200
H       0.322300     2.364200     5.608700
C       0.874000     2.170600     3.656900
H       0.184800     2.723400     3.305300
C       1.788200     1.581100     2.800500
C       2.806700     0.801600     3.316100
H       3.451400     0.412400     2.737300
C       2.881900     0.592500     4.693800
H       3.574600     0.049500     5.050300
C       2.394900     1.062400     0.548700
H       2.196400     0.097100     0.644100
H       3.359500     1.205900     0.721500
C       2.031400     1.541500    -0.835100
C       1.095300     0.859200    -1.596400
H       0.699300     0.064100    -1.259300
C       0.734000     1.333800    -2.854500
H       0.103300     0.857700    -3.381400
C       1.300800     2.510200    -3.334700
C       2.250000     3.180100    -2.577700
H       2.649400     3.975100    -2.910100
C       2.612700     2.688200    -1.341400
H       3.271500     3.143100    -0.831400
C       0.876100     3.000300    -4.672100
C       0.850600     4.822800    -6.173000
H       1.333800     4.360000    -6.888500
H       1.069100     5.778500    -6.194800
H      -0.113500     4.704500    -6.301100
C       3.711400     3.412500     9.825100
H       3.058700     2.994600    10.373800
C       4.817100     2.679000     9.471000
H       4.879300     1.788700     9.796100
C       5.933000     3.181600     8.609400
H       6.263000     4.031900     8.994900
H       6.675600     2.529100     8.652900
C       5.609700     3.414300     7.199000
H       6.243300     2.892000     6.645600
H       5.760200     4.371000     6.999600
C       4.209800     3.056900     6.779700
H       4.088600     2.289000     6.234700
C       3.080800     3.787800     7.143500
H       2.236400     3.480300     6.835300
C       3.110200     5.028200     7.988200
H       3.754900     5.663000     7.587000
H       2.216200     5.452300     7.949500
C       3.468100     4.835400     9.398500
H       2.741600     5.208500     9.959300
H       4.286700     5.360600     9.587000
