84
Refcode: CEZZAL_comp_0 | Dataset: tmCAT | Charge: unknown | Potential Spins: [1, 3, 5]
Rh     12.042200     2.649000    12.363300
H      11.563700     1.125700    12.212700
P      13.617700     2.265600    13.888600
P      10.955400     3.446600    10.581700
O      12.564400     4.745400    12.698300
C      13.673500     5.029700    13.501700
C      14.361500     3.948700    14.067600
C      15.470600     4.262800    14.862300
H      15.969500     3.562200    15.262800
C      15.856600     5.577500    15.075800
H      16.628500     5.766400    15.595300
C      15.121300     6.608700    14.535300
H      15.386700     7.504200    14.702400
C      14.003000     6.366600    13.753500
C      13.052600     7.447100    13.270600
C      12.500400     7.025500    11.923900
C      12.148000     7.926500    10.916500
H      12.349300     8.848400    11.022200
C      11.511800     7.493200     9.767700
H      11.319600     8.108400     9.070200
C      11.157900     6.168100     9.637700
H      10.685000     5.890400     8.860900
C      11.473700     5.212600    10.621500
C      12.193700     5.685500    11.720700
C      13.678100     8.840700    13.232800
H      14.414900     8.850300    12.588300
H      14.019800     9.068800    14.123600
H      13.000700     9.495800    12.966000
C      11.853500     7.480600    14.265200
H      11.188400     8.128000    13.953200
H      12.173900     7.742300    15.154000
H      11.446200     6.591000    14.314500
C      15.016000     1.122200    13.330100
C      14.483600    -0.293200    13.298500
H      13.624700    -0.309000    12.824300
H      14.357000    -0.616000    14.213900
H      15.122800    -0.871800    12.832500
C      16.321900     1.165100    14.121500
H      16.903100     0.431000    13.834200
H      16.126600     1.072600    15.078000
H      16.771900     2.021200    13.961400
C      15.337900     1.541000    11.915100
H      15.995400     0.923000    11.533300
H      15.705500     2.448300    11.919200
H      14.520200     1.523300    11.375200
C      13.058700     1.922200    15.665500
C      12.161700     0.690800    15.644500
H      12.703300    -0.104300    15.451600
H      11.476700     0.795100    14.950800
H      11.730000     0.586500    16.518900
C      14.137300     1.704300    16.722100
H      14.750500     2.467900    16.726200
H      14.637700     0.885600    16.516900
H      13.719300     1.615800    17.604700
C      12.199800     3.123300    16.048900
H      11.781800     2.961900    16.919200
H      11.504200     3.257100    15.371500
H      12.762800     3.924300    16.100200
C      11.507200     2.810400     8.886900
C      11.557600     1.268000     8.986100
H      10.646800     0.917100     9.072300
H      12.083900     1.007600     9.770100
H      11.972500     0.901400     8.177400
C      10.643800     3.186300     7.689300
H      10.596500     4.162400     7.612900
H       9.740600     2.824200     7.812000
H      11.035800     2.812300     6.874000
C      12.942800     3.308300     8.674100
H      13.339400     2.843800     7.908500
H      13.473700     3.125300     9.478700
H      12.930600     4.272600     8.503700
C       9.078500     3.572600    10.718400
C       8.494300     2.164900    10.578800
H       7.539300     2.184500    10.800500
H       8.958000     1.556700    11.190500
H       8.608700     1.851900     9.657200
C       8.341700     4.542300     9.792300
H       8.529400     4.310000     8.858800
H       8.645300     5.457400     9.969200
H       7.377600     4.481200     9.954900
C       8.840600     4.062100    12.162000
H       7.877900     4.091600    12.342000
H       9.220400     4.959500    12.270100
H       9.272300     3.448000    12.791500
