34
Refcode: CIDPOX_comp_0 | Dataset: tmCAT | Charge: unknown | Potential Spins: [1, 3, 5]
W      -0.384400     0.787500     7.128700
O       6.151000     2.507800    11.609700
N       2.020700     2.455500    11.343200
O      -0.685900     0.531300     4.032000
C       1.107900     1.673500     8.688300
O       1.244200    -1.833900     6.778300
C      -0.574500     0.637300     5.168200
C       2.105800     0.894400     9.483300
H       2.777500     0.502800     8.870100
H       1.645000     0.149700     9.946100
C       4.007700     3.264200    12.454900
H       4.386400     3.795500    13.145100
C       2.812000     1.758200    10.509200
C       2.638100     3.182600    12.277600
H       2.091400     3.686500    12.869700
C       4.803700     2.540200    11.585200
C       4.191900     1.777900    10.591700
H       4.716900     1.278000     9.977300
C      -0.198200     2.009900     9.106500
H      -0.623300     1.710200     9.900400
C       6.827800     3.344300    12.561900
H       6.563600     4.277900    12.422600
H       7.796900     3.257800    12.442600
H       6.584600     3.068300    13.470700
C       0.627800    -0.882500     6.874200
C       1.334500     2.334900     7.446200
H       2.129700     2.293100     6.927700
C       0.172900     3.061000     7.123900
H       0.045900     3.591800     6.346800
O      -3.413400     0.050300     7.078200
C      -0.759400     2.866400     8.140800
H      -1.628400     3.248400     8.176500
C      -2.293700     0.299300     7.053700
H      -0.934800    -0.384000     8.028200
