36
Refcode: CIHVAT_comp_0 | Dataset: tmCAT | Charge: unknown | Potential Spins: [1, 3, 5]
Mo      7.070100     7.273300     7.999400
Br      5.888100     6.948900    10.323600
Cl      9.896900     6.238400    10.050800
Cl      3.904600     8.894400     7.244100
C       5.564500     6.312800     7.214600
C       7.642600     5.419600     8.077100
O       4.689900     5.688300     6.801700
O       7.923700     4.295300     8.081700
C       6.926800     7.815500     5.742400
C       8.213200     8.056700     6.260600
C       8.943000     6.944200     6.651800
N       8.631600     8.434400     9.250800
C       9.691400     7.969000     9.893600
C      10.677100     8.771500    10.499900
H      11.413500     8.388800    10.919800
C      10.523800    10.116700    10.455300
H      11.170900    10.670000    10.828400
C       9.386900    10.679200     9.843300
C       8.452800     9.802700     9.258800
C       9.141200    12.087100     9.835300
H       9.774800    12.665000    10.194900
C       8.009200    12.587000     9.318200
H       7.871600    13.506600     9.319200
C       7.013000    11.726100     8.764600
C       7.242900    10.333100     8.713100
C       5.780300    12.205500     8.287600
H       5.605400    13.118500     8.283700
C       4.844200    11.330000     7.830000
H       4.014400    11.631400     7.537800
C       5.156800     9.968900     7.810600
N       6.308900     9.453500     8.197200
H       9.645800     7.020800     7.126500
H       8.446500     8.747300     6.394400
H       6.412600     8.561200     5.536500
H       6.838200     7.062100     5.193300
H       8.855000     6.119200     6.108400
