73
Refcode: CIJCAC_comp_0 | Dataset: tmCAT | Charge: 1 | Potential Spins: [1, 3, 5]
Au     13.727200    11.240600    12.123400
C      13.478200     9.559000    11.005200
N      14.428200     8.845000    10.348100
C      13.869500     7.781400     9.701900
H      14.335700     7.155800     9.159700
C      12.581400     7.767500     9.953600
H      11.946200     7.126500     9.655900
N      12.326600     8.935700    10.782500
C      15.862400     9.159800    10.273100
H      16.383000     8.316900    10.286400
H      16.121800     9.690400    11.066900
C      16.207200     9.943400     9.009700
C      17.540000    10.054000     8.601800
H      18.196800     9.562400     9.079800
C      17.957700    10.842900     7.536900
H      18.879300    10.940100     7.326300
C      17.030900    11.446600     6.832600
H      17.292500    11.960100     6.077400
C      15.692300    11.364700     7.148400
H      15.055600    11.819800     6.608700
C      15.256600    10.621900     8.250900
H      14.334300    10.581900     8.477200
C      11.023700     9.351900    11.220600
H      11.111400    10.184000    11.750700
H      10.642100     8.655500    11.811200
C      10.063400     9.600200    10.048000
H       9.929200     8.758900     9.543300
H       9.184100     9.895300    10.394100
N      10.612000    10.622500     9.159700
C      10.636800    11.907900     9.358200
H      10.267900    12.325700    10.127800
C      11.225200    12.568500     8.390000
H      11.378000    13.504300     8.336800
C      11.599800    11.523600     7.390500
H      11.915700    11.640700     6.502200
C      11.380100    10.383000     8.050000
H      11.709600     9.530800     7.789800
C      13.914100    12.939300    13.225900
N      15.053500    13.473800    13.748600
C      14.775800    14.681600    14.318600
H      15.409900    15.246900    14.743400
C      13.453600    14.946700    14.184300
H      12.967500    15.701800    14.496500
N      12.978500    13.844000    13.475100
C      16.330600    12.838300    13.805500
H      17.027900    13.505500    13.587700
H      16.365000    12.130500    13.114500
C      16.657200    12.204400    15.192400
C      15.680200    11.886100    16.106000
H      14.772500    12.115600    15.940200
C      16.025600    11.247800    17.236300
H      15.349600    11.064400    17.877700
C      17.318700    10.845800    17.511000
H      17.512800    10.362900    18.306100
C      18.338300    11.157200    16.607000
H      19.236800    10.895100    16.770400
C      17.982700    11.887400    15.422300
H      18.652600    12.149900    14.802700
C      11.542200    13.639500    13.218600
H      11.422800    12.796800    12.712700
H      11.206800    14.380700    12.654700
C      10.720700    13.573900    14.488100
H      10.801000    14.431200    14.977000
H       9.766700    13.441200    14.255700
N      11.169900    12.475900    15.349700
C      10.838700    11.140000    15.211700
H      10.357400    10.752400    14.490500
C      11.343900    10.463800    16.331100
H      11.209100     9.555400    16.574400
C      12.105200    11.449700    17.018500
H      12.652700    11.283000    17.776100
C      11.935800    12.648000    16.438800
H      12.294100    13.473000    16.746200
