57
Refcode: CILYII_comp_0 | Dataset: tmCAT | Charge: unknown | Potential Spins: [1, 3, 5]
W       2.973200     0.469900     7.833500
P       0.844600     0.658400     6.562000
P       1.027100     1.464100     9.140100
Si      0.519500    -0.541800     3.674900
O       5.260700     0.352400     9.960800
O       4.846300    -0.747500     5.628900
O       2.270600    -2.396900     8.988400
O       4.255400     3.286800     7.161500
C      -0.144000     1.436400     7.736900
C      -1.427200     1.915600     7.503400
C      -2.029700     1.620000     6.269500
H      -2.914500     1.937800     6.131800
C      -1.441000     0.900600     5.226500
H      -1.991900     0.724600     4.473100
C      -0.135100     0.410200     5.166800
C      -2.192100     2.741100     8.502000
H      -2.947000     2.220700     8.846800
H      -2.527300     3.553700     8.066000
H      -1.601000     2.989400     9.243200
C       0.981400     3.168600     9.786800
C       0.652000     3.452700    11.108200
H       0.442700     2.747000    11.707900
C       0.627700     4.768200    11.549800
H       0.415400     4.961800    12.455200
C       0.913000     5.796500    10.675600
H       0.893800     6.696400    10.979800
C       1.226000     5.520100     9.354600
H       1.408700     6.229800     8.749800
C       1.273900     4.209700     8.917400
H       1.508900     4.019900     8.016900
C       0.349300     0.436400    10.488200
C       1.250900    -0.134400    11.374600
H       2.181100     0.029200    11.269600
C       0.812600    -0.941300    12.409700
H       1.437700    -1.320800    13.018100
C      -0.536600    -1.192000    12.555700
H      -0.842200    -1.750000    13.261200
C      -1.438100    -0.634300    11.678000
H      -2.366500    -0.804700    11.783400
C      -1.000900     0.172100    10.644100
H      -1.628800     0.547200    10.038400
C       0.646100    -2.322600     4.152100
H       1.202100    -2.406900     4.954600
H       1.052800    -2.829400     3.418000
H      -0.248800    -2.675700     4.335400
C      -0.648600    -0.317300     2.243100
H      -1.497800    -0.763900     2.441900
H      -0.255200    -0.708700     1.435900
H      -0.808100     0.638600     2.098200
C       2.186300     0.141500     3.231200
H       2.130700     1.116200     3.160500
H       2.474900    -0.234100     2.373700
H       2.833200    -0.099200     3.927000
C       4.405600     0.419700     9.190800
C       4.159700    -0.323400     6.452500
C       2.481000    -1.379500     8.522300
C       3.722700     2.292600     7.358900
