100
Refcode: CIPGAL_comp_0 | Dataset: tmCAT | Charge: 0 | Potential Spins: [1, 3, 5]
C       0.168900     2.733600     1.984400
C      -0.860400     1.881000     1.547500
H      -1.384200     1.414800     2.188400
C      -1.124100     1.710800     0.198700
H      -1.816200     1.122500    -0.079300
C      -0.376800     2.398500    -0.744800
H      -0.557800     2.286300    -1.669700
C       0.637900     3.253100    -0.332900
H       1.141600     3.727900    -0.984400
C       0.929600     3.424700     1.022200
C       2.064500     4.349600     1.388100
H       2.355200     4.839700     0.579600
H       2.831300     3.810400     1.706400
C       0.022300     6.300200     2.139200
H      -0.650000     5.560500     2.166000
C       0.001300     6.831000     0.699000
H       0.667900     7.556300     0.604000
H       0.249300     6.103800     0.075300
C      -1.388000     7.364100     0.336000
H      -1.359600     7.760700    -0.569500
H      -2.032500     6.613100     0.319300
C      -1.863500     8.414000     1.331100
H      -2.779000     8.705700     1.092200
H      -1.269500     9.204200     1.287400
C      -1.861500     7.854000     2.749700
H      -2.508300     7.106200     2.808700
H      -2.151100     8.558700     3.382200
C      -0.474600     7.354900     3.149700
H      -0.513600     6.955600     4.055400
H       0.158200     8.115800     3.174800
C       3.012200     6.730400     2.787700
H       2.852800     7.310600     3.587600
C       3.188900     7.661500     1.574400
H       3.296700     7.120600     0.752500
H       2.382400     8.225100     1.468400
C       4.417400     8.554500     1.764700
H       4.544300     9.109200     0.955900
H       4.261700     9.162900     2.530000
C       5.677800     7.743100     2.018500
H       6.440700     8.354200     2.168000
H       5.878900     7.186900     1.224300
C       5.497100     6.846000     3.235400
H       5.363800     7.405700     4.041200
H       6.315700     6.304700     3.370000
C       4.299800     5.918300     3.057400
H       4.181200     5.372200     3.874400
H       4.467200     5.304100     2.300200
C       1.566100     1.356200     4.131500
H       1.734600     1.343100     5.117000
C       2.928800     1.502800     3.433500
H       2.798000     1.526000     2.452800
H       3.351500     2.354400     3.707600
C       3.845400     0.335300     3.798700
H       4.027200     0.349700     4.771300
H       4.708600     0.432100     3.323200
C       3.198300    -0.999500     3.418400
H       3.079400    -1.041800     2.436500
H       3.791400    -1.744700     3.689300
C       1.849500    -1.149900     4.101600
H       1.981100    -1.185300     5.082500
H       1.433500    -2.002900     3.819500
C       0.906500     0.012400     3.759500
H       0.057000    -0.089700     4.256700
H       0.700100     0.000000     2.790400
C      -1.127500     2.640800     4.589300
H      -1.565900     1.823600     4.216100
C      -1.019100     2.459700     6.109100
H      -0.472400     1.658700     6.310900
H      -0.570300     3.247400     6.506100
C      -2.410200     2.298400     6.718700
H      -2.837900     1.482900     6.355600
H      -2.331000     2.193000     7.700000
C      -3.278100     3.508800     6.406100
H      -4.178600     3.381900     6.797000
H      -2.877300     4.317900     6.811200
C      -3.396800     3.697600     4.903300
H      -3.937700     4.506200     4.716400
H      -3.864500     2.919200     4.511000
C      -2.020000     3.845400     4.250800
H      -1.589000     4.676500     4.572000
H      -2.124800     3.914400     3.268300
C       2.125900     7.415900     8.052600
C       4.207400     3.469500     7.206600
O       2.198900     6.417600     5.675700
O       0.014500     6.657700     6.722700
O       1.249100     8.636100     5.960500
O       1.697900     3.834500     6.690800
O       2.329800     3.407300     8.975400
O       2.433200     1.604900     7.326000
F       1.480000     8.289300     8.834400
F       3.379500     7.828700     7.912300
F       2.149200     6.251100     8.697100
F       4.522900     3.102500     5.961700
F       4.403200     4.784600     7.291200
F       5.048000     2.880100     8.046900
P       1.606500     5.551400     2.679100
P       0.514300     2.818600     3.773900
S       1.275100     7.281000     6.437800
S       2.483100     3.010500     7.606600
Pd      1.475800     4.630100     4.693000
