75
Refcode: COBWEW_comp_0 | Dataset: tmCAT | Charge: 0 | Potential Spins: [1, 3, 5]
Pd     13.611700     2.490600     3.274700
Cl     15.523500     1.289700     3.978800
Cl     14.535900     4.593600     3.793700
P      12.852900     0.471100     2.672700
P      11.807400     3.693200     2.769900
O      10.536600     2.887200     2.140500
O      11.581600     0.388600     1.661600
O       8.209800     2.340500     4.320000
O       7.744100     2.135200     2.146500
O       8.706900    -0.569800     3.385600
O       9.902100    -1.798200     1.985100
C      13.966800    -0.425900     1.571700
C      14.659200    -1.558900     1.937800
H      14.656500    -1.836600     2.826000
C      15.353300    -2.281200     0.992600
H      15.794400    -3.064000     1.233400
C      15.390700    -1.837700    -0.316000
H      15.838800    -2.338300    -0.957800
C      14.779600    -0.673000    -0.678000
H      14.849700    -0.355700    -1.549400
C      14.051900     0.031800     0.264500
H      13.617600     0.816800     0.019500
C      12.441500    -0.532400     4.119200
C      12.270200     0.084500     5.351200
H      12.402500     1.002300     5.429200
C      11.906600    -0.648800     6.452400
H      11.763400    -0.219600     7.265400
C      11.751200    -2.003500     6.366100
H      11.526500    -2.498600     7.120600
C      11.930400    -2.630300     5.146600
H      11.826700    -3.551400     5.079800
C      12.261500    -1.893700     4.034300
H      12.363300    -2.319700     3.214400
C      11.044000     4.527300     4.188800
C      11.598400     4.474600     5.444500
H      12.409400     4.042100     5.578100
C      10.939700     5.071800     6.523400
H      11.318000     5.043300     7.372600
C       9.745300     5.696500     6.331300
H       9.311900     6.100500     7.048200
C       9.174100     5.731600     5.077000
H       8.351700     6.151000     4.957300
C       9.803400     5.156400     4.003700
H       9.412700     5.182700     3.160100
C      12.098000     4.869800     1.439400
C      12.729000     4.386800     0.314600
H      12.923400     3.480000     0.246400
C      13.075400     5.248600    -0.718300
H      13.507100     4.924700    -1.477000
C      12.776800     6.581300    -0.605600
H      13.009300     7.160900    -1.294700
C      12.145400     7.074200     0.502500
H      11.942900     7.979900     0.563800
C      11.810300     6.212500     1.527100
H      11.384900     6.544000     2.285800
C       9.980200     1.775100     2.869100
H      10.429800     1.658800     3.732200
C      10.188700     0.572000     1.985100
H       9.737300     0.775000     1.138700
C       9.610300    -0.753100     2.462600
C       7.977400    -1.749900     3.871400
H       7.142300    -1.836600     3.387000
H       8.504200    -2.548000     3.707200
C       7.713400    -1.639000     5.244000
H       8.540000    -1.554500     5.722900
H       7.246200    -2.421700     5.544700
H       7.169700    -0.862900     5.402700
C       8.499600     2.084700     3.057000
C       6.814900     2.681900     4.575800
H       6.755000     3.641400     4.706700
H       6.299200     2.466800     3.782300
C       6.271900     2.112200     5.567000
H       5.867900     1.289900     5.281600
H       5.597100     2.687400     5.937300
H       6.936100     1.927700     6.233800
