87
Refcode: COBXEX_comp_0 | Dataset: tmCAT | Charge: 0 | Potential Spins: [1, 3, 5]
Pd     10.545900    31.059700     2.980100
Cl      8.562800    31.122100     4.230000
Cl     11.814300    31.252600     4.935500
P       9.216500    30.801200     1.200800
P      12.384500    31.025800     1.716300
O       9.963200    30.406600    -0.172800
O      12.214500    31.875000     0.352900
O      12.727400    31.728300    -3.217300
O      14.827900    31.489200    -2.406900
O       8.660400    30.749700    -2.638100
O       9.083100    28.532400    -2.674600
C      12.892100    29.357600     1.252100
C      14.086300    29.152100     0.537800
H      14.651100    29.869800     0.366300
C      14.421500    27.903600     0.093700
H      15.209700    27.775500    -0.382100
C      13.607000    26.865800     0.345600
H      13.832800    26.020000     0.031600
C      12.443000    27.033800     1.064700
H      11.894900    26.302800     1.242400
C      12.093000    28.282400     1.516200
H      11.310100    28.397100     2.002900
C      13.888100    31.790700     2.388600
C      14.263700    33.055300     2.027200
H      13.751000    33.546200     1.424900
C      15.428100    33.604900     2.574800
H      15.689100    34.463900     2.329000
C      16.172800    32.916600     3.447300
H      16.948100    33.295400     3.792800
C      15.799800    31.657300     3.835400
H      16.305400    31.179700     4.452300
C      14.663500    31.113000     3.291500
H      14.411200    30.256700     3.545800
C       8.107400    29.389600     1.317800
C       6.063400    28.402500     2.058900
H       5.238500    28.487800     2.479900
C       6.865900    29.496300     1.916500
H       6.574900    30.323400     2.225600
C       6.459000    27.180600     1.589200
H       5.902700    26.441600     1.692600
C       7.670700    27.039200     0.968600
H       7.935200    26.209400     0.638800
C       8.504400    28.141000     0.836000
H       9.332400    28.047600     0.422200
C       8.210900    32.262900     0.873700
C       7.272700    32.238900    -0.158200
H       7.154400    31.470500    -0.669300
C       6.511900    33.380800    -0.416200
H       5.921400    33.394100    -1.135300
C       6.636500    34.482600     0.391800
H       6.102000    35.229600     0.243400
C       7.522700    34.485300     1.394500
H       7.604400    35.243000     1.927400
C       8.319400    33.383400     1.654900
H       8.928400    33.404800     2.358200
C      10.486900    31.257100    -1.201000
H      10.088700    32.148200    -1.119500
C      12.004700    31.353200    -0.986800
H      12.397900    30.456700    -1.051300
C      12.730600    32.284300    -1.926200
H      12.282200    33.156700    -1.939600
C      14.225200    32.473700    -1.607400
H      14.527900    33.362100    -1.854400
H      14.406900    32.324300    -0.666800
C      14.066300    31.377200    -3.596900
C      14.082700    29.941800    -4.024000
H      13.917400    29.378900    -3.263500
H      14.941200    29.728400    -4.398800
H      13.400600    29.795100    -4.683500
C      14.518100    32.332300    -4.668900
H      15.372100    32.052200    -5.007200
H      14.593200    33.215400    -4.299000
H      13.876900    32.337600    -5.383200
C      10.083500    30.640800    -2.535900
H      10.506700    31.134400    -3.268400
C      10.352300    29.162800    -2.696500
H      10.804300    28.986700    -3.536100
H      10.906600    28.834700    -1.971200
C       8.143400    29.493600    -3.130900
C       8.095700    29.528300    -4.634900
H       7.811400    28.674600    -4.965800
H       8.969000    29.731100    -4.978000
H       7.476100    30.203300    -4.919600
C       6.812300    29.229500    -2.504200
H       6.918300    29.138800    -1.553900
H       6.444500    28.418500    -2.863200
H       6.219200    29.960500    -2.691600
