69
Refcode: COJJIX_comp_0 | Dataset: tmCAT | Charge: 0 | Potential Spins: [1, 3, 5]
Ni      5.169700     4.671200     9.056300
S       7.415400     1.008300     9.316800
C       4.105900     3.626700     6.672900
N       4.901200     3.476600     7.712200
N       5.651100     2.296900     7.793300
C       6.368200     2.326200     8.891000
N       6.282400     3.430600     9.717500
N       7.047700     3.434800    10.825000
C       7.011800     4.493600    11.612400
C       6.939800    -0.180300     8.037700
H       5.969400    -0.318600     8.063800
H       7.395700    -1.033300     8.197800
H       7.196400     0.166300     7.158100
C       3.986500     2.529900     5.669300
C       4.430600     2.696200     4.364100
H       4.821300     3.519200     4.093500
C       4.298200     1.648000     3.455400
H       4.618500     1.747000     2.566600
C       3.700600     0.465200     3.847900
H       3.606500    -0.245700     3.224100
C       3.239100     0.310200     5.142600
H       2.819600    -0.500700     5.403000
C       3.389400     1.339700     6.060100
H       3.084600     1.230400     6.953500
C       7.935800     4.391800    12.785600
C       7.822000     3.306200    13.657700
H       7.119600     2.676600    13.542900
C       8.735100     3.147400    14.690800
H       8.649100     2.409400    15.283500
C       9.762200     4.045200    14.866500
H      10.391500     3.921900    15.567800
C       9.874200     5.131700    14.013100
H      10.575600     5.759500    14.136900
C       8.964900     5.308300    12.979200
H       9.045900     6.058500    12.401800
S       2.924100     8.334000     8.795900
C       6.233500     5.715600    11.439800
N       5.438200     5.865700    10.400500
N       4.688300     7.045400    10.319300
C       3.971200     7.016100     9.221700
N       4.057000     5.911700     8.395200
N       3.291800     5.907500     7.287600
C       3.327600     4.848700     6.500300
C       3.399700     9.522600    10.075000
H       4.370000     9.660900    10.048900
H       2.943800    10.375600     9.914900
H       3.143100     9.176000    10.954500
C       6.352900     6.812400    12.443400
C       5.908800     6.646100    13.748600
H       5.518100     5.823100    14.019200
C       6.041200     7.694300    14.657300
H       5.720900     7.595300    15.546100
C       6.638900     8.877100    14.264800
H       6.733000     9.588000    14.888600
C       7.100400     9.032100    12.970100
H       7.519800     9.843000    12.709700
C       6.950000     8.002600    12.052500
H       7.254800     8.111900    11.159200
C       2.403600     4.950500     5.327100
C       2.517400     6.036100     4.455000
H       3.219800     6.665700     4.569800
C       1.604300     6.194900     3.421800
H       1.690300     6.932900     2.829200
C       0.577300     5.297100     3.246200
H      -0.052000     5.420400     2.544800
C       0.465200     4.210600     4.099600
H      -0.236200     3.582800     3.975700
C       1.374500     4.034000     5.133500
H       1.293600     3.283800     5.710900
