90
Refcode: CUHSUU_comp_0 | Dataset: tmCAT | Charge: 1 | Potential Spins: [1, 3, 5]
Ir      0.067000    14.101000    19.750400
P       0.198200    15.374200    17.819300
N      -1.415100    15.383200    20.428800
N       1.430900    15.386000    20.675200
N      -1.216200    19.125000    27.195300
O      -2.120800    18.598500    27.834100
O      -0.650600    20.163700    27.491300
C      -1.153300    12.264200    19.740700
C      -0.651900    12.503000    21.087200
C       0.747500    12.451300    21.085100
C       1.176900    12.200900    19.730100
C       0.001300    12.054200    18.923100
C      -2.585500    12.025400    19.392400
H      -2.753100    12.330400    18.498300
H      -3.147100    12.504500    20.006200
H      -2.776600    11.086000    19.451900
C      -1.513300    12.726000    22.308400
H      -1.793500    11.877200    22.663100
H      -2.285700    13.241100    22.066300
H      -1.009300    13.197900    22.975300
C       1.637700    12.616700    22.261700
H       1.320900    13.344600    22.801100
H       2.530500    12.805200    21.962200
H       1.636400    11.808200    22.779900
C       2.546200    11.795200    19.309600
H       2.717700    10.896100    19.600600
H       3.191600    12.386500    19.704600
H       2.614300    11.839800    18.353900
C      -0.031400    11.567900    17.508600
H       0.540700    12.117500    16.969200
H      -0.930800    11.616900    17.175200
H       0.273600    10.658700    17.474600
C      -2.686300    15.371700    20.061400
H      -3.012300    14.930000    19.311700
C      -3.470500    16.108200    20.944900
H      -4.388100    16.249200    20.883300
C      -2.641800    16.585800    21.911200
H      -2.889200    17.102300    22.644000
C      -1.339200    16.152800    21.596900
C      -0.157100    16.450600    22.263800
C       1.123200    16.137000    21.819900
C       2.368200    16.597400    22.361500
H       2.479500    17.126800    23.117600
C       3.356600    16.112500    21.560800
H       4.270300    16.255000    21.664900
C       2.743900    15.361600    20.549900
H       3.200800    14.907000    19.878800
C      -0.295900    17.178600    23.567800
C      -0.343000    18.548100    23.629400
H      -0.212100    19.044500    22.852100
C      -0.581200    19.207000    24.829300
H      -0.581200    20.136400    24.880300
C      -0.818200    18.435900    25.935800
C      -0.737000    17.076400    25.935800
H      -0.866600    16.593000    26.719500
C      -0.455600    16.427600    24.735900
H      -0.374400    15.502600    24.710400
C       0.886300    17.062000    18.045900
C       1.876000    17.561200    17.219800
H       2.288300    17.004500    16.601700
C       2.254300    18.890500    17.313200
H       2.932400    19.212800    16.765300
C       1.641600    19.740700    18.203100
H       1.889000    20.637000    18.241300
C       0.640200    19.244400    19.056900
H       0.229100    19.806900    19.672800
C       0.273600    17.918000    18.974000
H      -0.386200    17.587100    19.541100
C      -1.409900    15.709700    17.022300
C      -2.195400    14.645200    16.652700
H      -1.893000    13.777700    16.799300
C      -3.435100    14.846600    16.060200
H      -3.958700    14.114300    15.826600
C      -3.897200    16.122600    15.815900
H      -4.723300    16.253500    15.410300
C      -3.119600    17.207300    16.181200
H      -3.420700    18.071900    16.019800
C      -1.881200    17.001600    16.792900
H      -1.366700    17.731000    17.052000
C       1.248900    14.717100    16.476400
C       2.513500    14.259600    16.829000
H       2.742600    14.181900    17.727400
C       3.436400    13.915800    15.854200
H       4.284700    13.619400    16.094200
C       3.086900    14.017900    14.528900
H       3.704800    13.793500    13.872700
C       1.822300    14.450900    14.161500
H       1.591900    14.501300    13.261000
C       0.900700    14.810600    15.136300
H       0.055000    15.112700    14.894200
