101
Refcode: CUJJOH_comp_0 | Dataset: tmCAT | Charge: unknown | Potential Spins: [1, 3, 5]
Y      16.144300     8.760400    15.243500
N      15.464900    11.103500    15.475700
N      17.009300    10.362400    13.739700
N      18.283600     8.539400    13.682400
O      14.306300     8.439900    16.729700
P      16.481200    11.721100    14.396700
Si     14.445000     7.116300    12.380200
Si     17.987800     6.518700    17.574700
C      19.346200     7.843200    13.287600
H      19.403800     6.946800    13.529900
C      20.354500     8.377000    12.545700
H      21.073800     7.853700    12.280100
C      20.291500     9.711300    12.196400
H      20.979900    10.099100    11.706800
C      19.198600    10.462000    12.582000
H      19.134800    11.362500    12.356500
C      18.197500     9.839700    13.315100
C      17.866000    12.656100    15.107200
C      18.778800    11.956300    15.891100
H      18.690800    11.035200    15.991200
C      19.809300    12.611900    16.519100
H      20.421200    12.131800    17.030800
C      19.942300    13.964400    16.398700
H      20.629700    14.406400    16.839700
C      19.045200    14.673200    15.614800
H      19.136900    15.594800    15.525000
C      18.025300    14.024400    14.968500
H      17.435700    14.506500    14.431900
C      15.720300    12.818300    13.180200
C      15.942900    12.596300    11.828300
H      16.474600    11.883700    11.557700
C      15.377900    13.426500    10.885800
H      15.530100    13.274300     9.979200
C      14.587800    14.483500    11.281400
H      14.208300    15.044300    10.644300
C      14.356300    14.710800    12.606500
H      13.814300    15.419600    12.868700
C      14.922600    13.895600    13.560500
H      14.771200    14.064500    14.462400
C      14.401600    11.804500    16.117000
C      14.605700    12.487700    17.328600
C      13.516400    13.120900    17.919400
H      13.649600    13.578700    18.720200
C      12.252300    13.103600    17.378300
C      12.064300    12.404500    16.213300
H      11.212400    12.371600    15.842200
C      13.110200    11.739800    15.563200
C      15.957500    12.499800    17.991300
H      16.526700    13.130400    17.543000
H      16.347400    11.623100    17.940500
H      15.859500    12.753100    18.911300
C      12.836100    10.964300    14.297000
H      13.228400    11.420900    13.549000
H      11.887900    10.889200    14.164300
H      13.218000    10.086600    14.370700
C      11.101900    13.851800    18.007000
H      10.803700    14.539800    17.409200
H      11.391700    14.247900    18.831000
H      10.380500    13.243000    18.181300
C      14.195800     8.969100    18.058900
H      13.833000     9.867600    18.032200
H      15.071500     9.002400    18.479400
C      13.316000     8.095500    18.812600
H      12.588400     8.604200    19.205600
H      13.803900     7.655600    19.526600
C      12.782300     7.090600    17.855600
H      11.823200     6.992600    17.955800
H      13.205500     6.227500    17.990200
C      13.122100     7.651400    16.513000
H      13.295200     6.938400    15.876600
H      12.398700     8.201800    16.174700
C      15.317300     6.902600    13.979000
H      16.074300     6.321300    13.808900
H      14.717000     6.413000    14.561800
C      14.875500     8.766800    11.585600
H      14.462700     9.477800    12.081300
H      14.552300     8.779300    10.682500
H      15.826200     8.885700    11.588300
C      12.582100     7.071800    12.604600
H      12.325700     6.227500    12.987200
H      12.154700     7.180300    11.752600
H      12.313200     7.782800    13.189700
C      14.940100     5.854300    11.093000
H      15.892900     5.858500    10.988300
H      14.525200     6.073200    10.254400
H      14.652400     4.980700    11.374300
C      17.666900     8.231200    17.040000
H      18.526100     8.614600    16.801500
H      17.356500     8.714700    17.822000
C      19.057700     6.385900    19.110400
H      19.935400     6.723700    18.918900
H      19.120300     5.466500    19.377500
H      18.665800     6.900900    19.820900
C      16.397400     5.602000    17.952700
H      15.942900     6.035700    18.678100
H      16.601700     4.697200    18.200400
H      15.834500     5.602000    17.176100
C      18.840900     5.549900    16.229000
H      18.296700     5.554100    15.437100
H      18.974300     4.645100    16.522500
H      19.689400     5.952300    16.033300
