54
Refcode: CUQSEN_comp_0 | Dataset: tmCAT | Charge: 0 | Potential Spins: [1, 3, 5]
Br      1.528800     3.007400     4.531200
Br      4.853800     2.197000     3.159900
Fe      2.716900     3.391400     2.378700
N       2.990600     2.893900     0.211900
N       3.738800     5.249600     1.799500
N       0.912100     4.527500     1.422100
C       3.878600     3.947900    -0.351400
C       4.621500     4.746100     0.704200
C       2.750800     6.238700     1.300400
C       1.319600     5.928800     1.724300
C       0.902600     4.289600    -0.041000
C       1.629600     2.996200    -0.397900
C       3.575500     1.528500    -0.020500
C       2.832000     0.449600     0.746600
C       3.684100     1.153700    -1.505500
C       4.595500     5.822300     2.903000
C       5.409400     7.053400     2.466800
C       3.741700     6.177800     4.111800
C      -0.437600     4.266100     2.033300
C      -1.519800     5.248200     1.609400
C      -0.905200     2.841300     1.776300
H       4.515300     3.527400    -0.917500
H       3.352900     4.553800    -0.861500
H       5.046000     5.486200     0.288500
H       5.278300     4.183100     1.096700
H       2.988700     7.101900     1.617600
H       2.774200     6.233100     0.350100
H       0.723900     6.526400     1.286700
H       1.267100     6.060200     2.663700
H       0.000500     4.232900    -0.335000
H       1.331100     5.017200    -0.477200
H       1.727400     2.963000    -1.342800
H       1.104800     2.258900    -0.109400
H       4.458800     1.545100     0.326800
H       3.214800     0.343100     1.609400
H       2.883700    -0.372100     0.272100
H       1.921600     0.708200     0.834100
H       2.887600     0.713800    -1.776300
H       4.425500     0.572700    -1.629900
H       3.806000     1.938000    -2.026500
H       5.207700     5.144500     3.166900
H       6.252000     6.771300     2.131800
H       5.540900     7.619200     3.218900
H       4.942700     7.530700     1.791300
H       3.438500     7.074200     4.037900
H       4.263400     6.082400     4.899400
H       2.994500     5.592700     4.154200
H      -0.348600     4.362900     2.974100
H      -1.542100     5.991100     2.201500
H      -2.367000     4.816700     1.610800
H      -1.318800     5.548400     0.731600
H      -1.396300     2.815000     0.962600
H      -1.459600     2.549400     2.490000
H      -0.149400     2.271400     1.709200
