103
Refcode: DADKEA_comp_0 | Dataset: tmCAT | Charge: 0 | Potential Spins: [1, 3, 5]
Br     -5.384800     5.242500    -2.371200
Ni     -3.836800     3.608100    -1.756300
N      -3.349300     3.871900     0.206800
C      -1.360100     4.518000    -0.948000
Br     -4.035900     1.378000    -2.445000
N      -1.955700     4.299500    -2.061200
C      -0.018200     4.951800    -0.571000
C       1.137300     5.245400    -1.262800
H       1.153100     5.226700    -2.212700
C       2.292600     5.576700    -0.527100
H       3.098500     5.756000    -0.995600
C       2.291200     5.646700     0.849200
H       3.086400     5.894300     1.306800
C       1.115700     5.354700     1.588600
C      -0.016600     4.991000     0.845600
C       0.948600     5.376900     2.997900
H       1.673700     5.641600     3.552400
C      -0.240900     5.023500     3.568900
H      -0.321500     5.064400     4.515100
C      -1.361700     4.598300     2.809400
H      -2.163400     4.318300     3.232100
C      -1.245200     4.606800     1.436700
C      -2.138900     4.284100     0.323900
C      -4.128900     3.604500     1.400100
C      -4.128200     2.305100     1.912600
C      -4.816500     2.057500     3.089400
H      -4.806900     1.181600     3.457200
C      -5.520100     3.059800     3.740900
C      -5.564300     4.321700     3.168100
H      -6.083800     4.997900     3.587200
C      -4.877200     4.632400     2.000400
C      -4.880500     6.049700     1.436700
H      -4.725000     5.959200     0.452100
C      -6.230700     6.754900     1.594100
C      -7.187100     6.584100     0.607600
H      -7.002400     6.010400    -0.126300
C      -8.406700     7.227800     0.671700
H      -9.040800     7.110000    -0.025600
C      -8.707700     8.044000     1.747800
H      -9.546800     8.484600     1.797300
C      -7.784800     8.204500     2.728800
H      -7.990200     8.752600     3.477400
C      -6.545000     7.583000     2.657400
H      -5.906900     7.726400     3.345600
C      -3.712500     6.867600     1.978400
C      -2.861500     7.516400     1.090800
H      -3.030700     7.482300     0.157400
C      -1.757700     8.216500     1.575800
H      -1.175200     8.650200     0.962700
C      -1.494000     8.293300     2.919200
H      -0.738000     8.773100     3.234000
C      -2.340700     7.663300     3.806800
H      -2.172500     7.721300     4.738400
C      -3.432500     6.944400     3.349300
H      -3.996600     6.500500     3.971500
C      -3.336600     1.183300     1.220700
H      -3.437600     1.337000     0.237900
C      -1.855000     1.313100     1.517200
C      -0.940700     1.393300     0.470400
H      -1.248700     1.319900    -0.426400
C       0.412300     1.577700     0.715600
H       1.024400     1.651200    -0.005500
C       0.862200     1.654600     2.027900
H       1.788400     1.770700     2.201700
C      -0.022100     1.564100     3.072900
H       0.293300     1.611900     3.967900
C      -1.383900     1.400200     2.824000
H      -1.993400     1.348900     3.550600
C      -3.946100    -0.191200     1.498900
C      -3.256700    -1.185000     2.163300
H      -2.363100    -1.036500     2.450600
C      -3.887200    -2.422900     2.415900
H      -3.412200    -3.099100     2.882600
C      -5.151100    -2.665400     2.009600
H      -5.564300    -3.500400     2.194400
C      -5.833600    -1.692100     1.325100
H      -6.720900    -1.854300     1.024900
C      -5.222600    -0.461000     1.067000
H      -5.700100     0.203200     0.583800
C      -6.248800     2.762700     5.029400
H      -6.687900     3.577200     5.349700
H      -5.608100     2.450300     5.702900
H      -6.921500     2.069500     4.870200
C      -1.272200     4.612000    -3.312700
C      -0.579900     3.599400    -3.978800
C       0.025600     3.942600    -5.195900
H       0.501900     3.271600    -5.671800
C      -0.044100     5.216400    -5.732200
C      -0.714700     6.189700    -5.001900
H      -0.749000     7.074200    -5.346000
C      -1.336500     5.918200    -3.786700
C      -0.447100     2.216300    -3.428000
H       0.074400     1.664800    -4.048400
H      -1.337900     1.823600    -3.312700
H       0.007400     2.250500    -2.560400
C      -2.031400     7.007600    -3.008800
H      -2.415500     6.631900    -2.190700
H      -2.744100     7.396900    -3.557900
H      -1.382100     7.705900    -2.774600
C       0.586300     5.551100    -7.070000
H       0.434000     6.497000    -7.275000
H       0.182600     4.997900    -7.771000
H       1.549600     5.376900    -7.031600
