40
Refcode: DAMJIM_comp_0 | Dataset: tmCAT | Charge: 0 | Potential Spins: [1, 3, 5]
Zn     10.692600     2.129100     2.951800
Cl     11.801100     0.448300     2.006700
Cl     10.457500     2.030700     5.190500
N       9.106700     2.903100     1.954800
N       6.914600     3.180500     2.767900
N       7.452600     1.315200     1.535300
N      11.521300     3.956700     2.572200
C       7.819200     2.492700     2.062100
C       7.332000     4.157500     3.767300
H       8.204700     3.900300     4.131400
H       6.671800     4.186700     4.490600
H       7.399300     5.042100     3.350900
C       5.457100     3.066700     2.567100
H       5.106100     3.926000     2.221600
H       5.019100     2.885300     3.436700
C       5.116100     1.954600     1.589900
H       4.188600     1.640400     1.738300
H       5.193200     2.280700     0.657800
C       6.098600     0.826900     1.834800
H       6.046800     0.531300     2.777400
H       5.880100     0.055500     1.253500
C       8.184100     0.677900     0.446500
H       7.741600     0.877200    -0.405000
H       8.200600    -0.291400     0.588300
H       9.102100     1.019900     0.425700
C       9.354000     4.234600     1.587400
C       8.485200     5.053400     0.894900
H       7.621300     4.729900     0.668100
C       8.854900     6.360300     0.516200
H       8.227400     6.897600     0.047300
C      10.085100     6.879600     0.801700
H      10.312200     7.762800     0.533600
C      11.012500     6.080400     1.501800
C      10.650000     4.765000     1.891300
C      12.310000     6.516900     1.856700
H      12.593400     7.391200     1.617100
C      13.156600     5.697200     2.537400
H      14.029900     5.989600     2.770000
C      12.718000     4.413700     2.888000
H      13.306900     3.848700     3.373100
