27
Refcode: DAQSAP_comp_0 | Dataset: tmCAT | Charge: -1 | Potential Spins: [1, 3, 5]
V      12.064400    15.092500    14.607400
O      11.887400    13.860700    13.548600
O      12.338200    16.422900    13.724100
O      13.943200    14.775700    15.180000
O      15.455700    13.677800    16.412400
O      10.129100    15.331600    15.034500
O       8.508000    16.428100    16.113200
N      11.949300    13.585400    16.398300
N      12.331500    11.603000    18.309800
N      12.000700    16.433300    16.494400
N      11.465300    18.385500    18.402300
C      13.175700    13.191600    16.750900
C      13.351600    12.194300    17.686200
H      14.226300    11.919500    17.893800
C      11.122800    12.053000    17.994200
H      10.376700    11.694800    18.439400
C      10.922000    13.030900    17.033600
H      10.047400    13.305200    16.828600
C      14.307300    13.917300    16.074500
C      10.750400    16.847800    16.734600
C      10.495200    17.823000    17.673000
H       9.607600    18.103900    17.806400
C      12.692400    17.924400    18.190000
H      13.398400    18.267500    18.708700
C      12.974900    16.961000    17.238900
H      13.861500    16.675100    17.114400
C       9.683900    16.176300    15.911500
