61
Refcode: DASDOS_comp_0 | Dataset: tmCAT | Charge: unknown | Potential Spins: [1, 3, 5]
Zr      4.629200     3.994200    12.794400
Cl      5.306900     5.168000    14.801700
Cl      4.371700     1.689000    13.483700
N       2.758700     4.542600    12.314300
N      -0.264800     5.387300     9.393200
C       5.777500     5.388700    11.060500
C       6.792400     4.918100    11.938900
C       6.860600     3.510300    11.814600
C       5.917800     3.110100    10.829400
C       5.255700     4.272500    10.349600
C       5.414800     6.829800    10.814400
H       5.858300     7.139700    10.021300
H       5.691200     7.361500    11.564900
H       4.465500     6.906300    10.699900
C       7.738500     5.779900    12.729300
H       8.025100     5.305600    13.513000
H       7.292000     6.589100    12.990600
H       8.501300     5.997300    12.189300
C       7.807500     2.586000    12.517500
H       8.601100     2.478800    11.988600
H       7.387400     1.731300    12.641700
H       8.039800     2.956100    13.372900
C       5.744600     1.710800    10.308000
H       4.913700     1.646200     9.831700
H       5.740500     1.094000    11.044000
H       6.469700     1.497800     9.717000
C       4.414500     4.335000     9.110000
H       3.928100     5.161700     9.094200
H       3.796700     3.599200     9.105300
H       4.980600     4.280600     8.335900
C       1.883800     4.939400    11.217400
H       2.391800     5.498000    10.607500
H       1.166300     5.481800    11.579200
C       1.267500     3.792500    10.419000
C       0.188600     4.038900     9.554100
C      -0.417200     2.969300     8.886800
H      -1.142200     3.129300     8.326400
C       0.044600     1.677000     9.046400
H      -0.370500     0.973600     8.602000
C       1.122100     1.439100     9.864200
H       1.449900     0.574200     9.960800
C       1.718200     2.484800    10.544900
H       2.441600     2.308500    11.102900
C       0.587500     6.167200     8.503400
H       1.507600     6.034000     8.742100
H       0.367300     7.098600     8.584400
H       0.447700     5.884200     7.596800
C      -1.659500     5.536200     8.997000
H      -1.754000     5.313000     8.068300
H      -1.937100     6.443700     9.138800
H      -2.205500     4.948800     9.524300
C       2.100000     4.438200    13.643400
C       0.978800     3.412700    13.697800
H       0.280900     3.669700    13.090900
H       0.628800     3.370200    14.589900
H       1.320900     2.552200    13.446100
C       1.660200     5.784300    14.194800
H       2.400500     6.395200    14.180500
H       1.354300     5.675700    15.098000
H       0.946500     6.133800    13.656400
H       2.810400     4.130800    14.210800
