63
Refcode: DASNIX_comp_0 | Dataset: tmCAT | Charge: 0 | Potential Spins: [1, 3, 5]
Br      3.793600    11.347200     7.543500
Cu      4.292100    12.908700     9.363400
P       4.899600    11.744400    11.214100
P       3.978200    15.020400     8.611400
N       6.269100    13.592600     9.563700
N       6.617200    11.831300    11.018600
N       5.628400    15.483300     8.402100
C       7.158900    12.870300    10.259900
C       8.516700    13.175800    10.251000
C       8.906100    14.300200     9.540000
C       7.996100    15.113700     8.898400
C       6.644700    14.727500     8.944000
C       4.560700    12.454400    12.893400
C       5.600300    13.509100    13.295100
C       3.173700    13.084700    12.903800
C       4.639200     9.927700    11.486800
C       5.299500     9.074500    10.416900
C       3.130500     9.641400    11.524900
C       3.302600    16.420700     9.622200
C       4.171900    16.644900    10.849000
C       1.850600    16.119900    10.029300
C       3.293500    15.323100     6.908300
C       4.225500    14.744200     5.832200
C       1.893500    14.715800     6.777800
C       7.548000    11.106100    11.893600
C       5.971100    16.817700     7.884500
H       9.155800    12.631800    10.716500
H       9.839500    14.519400     9.492000
H       8.273400    15.910400     8.439400
H       4.610900    11.737300    13.529200
H       6.446000    13.081800    13.449500
H       5.691700    14.153400    12.589100
H       5.313700    13.951400    14.097000
H       2.517000    12.416100    12.695000
H       2.994300    13.449100    13.773200
H       3.135700    13.785600    12.248600
H       5.051000     9.693800    12.321500
H       6.242800     9.252700    10.402000
H       5.152300     8.146100    10.611400
H       4.920800     9.285500     9.560000
H       2.697500    10.282400    12.092900
H       2.770100     9.705800    10.636900
H       2.981100     8.757200    11.867100
H       3.310700    17.223500     9.095500
H       5.065700    16.860400    10.572300
H       3.813700    17.369300    11.366600
H       4.185400    15.846500    11.381400
H       1.293500    16.115100     9.247000
H       1.809300    15.261400    10.456400
H       1.542300    16.795600    10.637200
H       3.232000    16.272000     6.776100
H       5.076100    15.187700     5.872900
H       4.347100    13.804300     5.985600
H       3.836100    14.878800     4.964800
H       1.295700    15.156000     7.386200
H       1.577000    14.831800     5.878400
H       1.930000    13.779500     6.985500
H       7.051300    10.617100    12.553300
H       8.070400    10.495200    11.368300
H       8.130400    11.732100    12.329600
H       5.179800    17.241900     7.544200
H       6.340700    17.350300     8.592200
H       6.616100    16.731300     7.178500
