67
Refcode: DAVLIY_comp_0 | Dataset: tmCAT | Charge: unknown | Potential Spins: [1, 3, 5]
Mn      6.006300     5.216300     3.710800
P       7.289100     6.934200     4.210500
P       4.201600     4.091000     3.191100
O       6.950800     3.369500     5.789800
O       7.873200     3.903800     1.835900
N       5.211500     6.581100     2.384600
N       6.945100     8.016200     2.911000
N       3.435500     5.118700     2.045200
C       5.833500     7.765200     2.150800
C       5.351300     8.667800     1.181000
C       4.226200     8.337700     0.481300
C       3.543000     7.167100     0.739100
C       4.061100     6.302400     1.712600
C       6.938500     7.998700     5.691600
C       5.587800     8.678200     5.580800
C       7.012600     7.186200     6.979700
C       9.140700     6.815300     4.195700
C       9.705000     6.655900     2.789700
C       9.603800     5.632100     5.055900
C       2.875800     3.767900     4.454300
C       2.051600     5.020000     4.726700
C       3.463500     3.250500     5.763600
C       4.231600     2.478900     2.275300
C       4.827600     2.620300     0.888100
C       4.955100     1.411600     3.079200
C       7.600800     9.328100     2.773200
C       2.173200     4.780300     1.382900
C       6.568800     4.114200     4.975900
C       7.117800     4.453600     2.542500
H       5.804800     9.497600     1.016100
H       3.905000     8.930600    -0.202100
H       2.736300     6.951300     0.265400
H       7.614900     8.679500     5.717800
H       5.572400     9.232900     4.797600
H       4.899500     8.012700     5.515900
H       5.437800     9.219400     6.359500
H       7.930200     6.989500     7.181700
H       6.627600     7.691500     7.699400
H       6.526300     6.365900     6.868900
H       9.471900     7.641000     4.556400
H       9.500700     7.438200     2.272200
H      10.657200     6.543600     2.837800
H       9.312600     5.885200     2.372900
H       9.216900     5.702200     5.931600
H       9.323300     4.810200     4.646900
H      10.561200     5.643700     5.127000
H       2.302100     3.092100     4.086000
H       1.648500     5.321800     3.909300
H       1.365000     4.818200     5.366600
H       2.621900     5.708800     5.075600
H       3.959200     2.445600     5.595900
H       4.048200     3.914300     6.136400
H       2.753200     3.065800     6.382300
H       3.320000     2.200800     2.159800
H       4.294400     3.228700     0.371200
H       5.723100     2.959200     0.957600
H       4.842600     1.762500     0.457300
H       4.513600     1.292400     3.923300
H       4.945700     0.583600     2.593400
H       5.863400     1.684400     3.228900
H       8.299200     9.407200     3.427000
H       7.976100     9.407200     1.893000
H       6.954500    10.024800     2.909100
H       1.830100     3.961100     1.747400
H       1.537500     5.485200     1.526100
H       2.324700     4.672600     0.441000
H       4.929300     5.994800     4.918800
