48
Refcode: DAVXOQ_comp_0 | Dataset: tmCAT | Charge: unknown | Potential Spins: [1, 3, 5]
Rh      0.008000     8.597500     4.531400
Cl     -2.134800     9.260000     5.341400
N      -0.866000     6.772100     4.045700
C       2.072300     8.036900     4.749700
C      -1.263800     7.858300     2.007400
C       1.564400     8.076600     6.104000
C      -1.347500     6.626600     2.787400
C       1.108900     9.382700     6.332800
C      -0.666400     8.949200     2.666200
C       2.009500     9.344700     4.205000
C      -1.006300     5.788300     4.948000
H      -0.702600     5.933800     5.814900
C      -1.813000     8.036900     0.724500
H      -2.211300     7.321000     0.283200
C      -0.650300    10.181300     2.019700
H      -0.268600    10.912000     2.448700
C       1.336100    10.181300     5.140200
C       2.742100     6.846500     4.131800
H       2.287300     6.046300     4.405400
H       3.656700     6.808500     4.421300
H       2.710500     6.922500     3.176400
C      -1.887000     5.373400     2.428100
C       2.606100     9.749700     2.888500
H       2.352800     9.116500     2.213000
H       3.563200     9.771200     2.964400
H       2.284400    10.621100     2.646400
C       1.597300     6.944000     7.080400
H       0.811400     6.973800     7.630800
H       2.378500     7.021700     7.634000
H       1.624200     6.112400     6.604200
C      -1.580000     4.574800     4.649100
H      -1.683000     3.920100     5.299200
C       0.460100     9.901900     7.582000
H      -0.386700    10.298700     7.361900
H       1.026600    10.563200     7.986700
H       0.324400     9.177700     8.197100
C      -1.184500    10.343300     0.762500
H      -1.157300    11.174900     0.346400
C      -1.995100     4.364800     3.363000
H      -2.349500     3.541500     3.117800
C       1.129200    11.662700     5.052400
H       1.109500    11.928800     4.130200
H       1.849200    12.114000     5.500100
H       0.297300    11.895800     5.470000
C      -1.760200     9.267000     0.123400
H      -2.118300     9.377700    -0.727600
N      -2.736400     4.723600     0.082300
C      -2.348000     5.064200     1.085100
