51
Refcode: DAWHOZ_comp_0 | Dataset: tmCAT | Charge: 0 | Potential Spins: [1, 3, 5]
Br      0.878600    13.486400     0.441000
Br     -0.716100    12.481700     4.131900
Ni      0.949200    13.415800     2.807600
P       2.953200    12.474500     3.279200
O       3.126200    16.931000     3.196000
N       1.707300    15.188500     3.236300
C       4.161200    13.497800     2.389300
C       5.259800    12.908000     1.795700
H       5.367900    11.986300     1.848700
C       6.203900    13.669200     1.122800
H       6.928200    13.255600     0.712600
C       6.066900    15.053300     1.064200
H       6.694700    15.564400     0.606800
C       4.995700    15.666700     1.688000
H       4.921000    16.593000     1.672900
C       4.020400    14.897600     2.342000
C       2.892900    15.625800     2.935500
C       1.858100    17.508400     3.619800
H       1.484300    18.069900     2.924200
H       1.971500    18.038400     4.425100
C       0.945500    16.284800     3.890100
C       0.806500    15.984400     5.368300
H       1.678700    15.888400     5.757700
H       0.312700    15.169700     5.483600
H       0.341200    16.704700     5.799300
C      -0.415400    16.445200     3.219100
H      -0.295700    16.533300     2.272100
H      -0.849600    17.230000     3.561200
H      -0.956100    15.674500     3.404300
C       3.489100    12.484900     5.007300
C       4.830500    12.722400     5.362600
H       5.452100    12.970900     4.716200
C       5.210800    12.579300     6.683900
H       6.091900    12.746000     6.929600
C       4.293200    12.192300     7.646000
H       4.569300    12.080700     8.526900
C       2.984700    11.970600     7.311500
H       2.374700    11.720500     7.967400
C       2.563000    12.120000     5.984500
H       1.673300    11.978400     5.757700
C       3.246200    10.772100     2.722000
C       2.941100    10.460700     1.395000
H       2.625100    11.116600     0.816600
C       3.118300     9.150600     0.948900
H       2.932700     8.939800     0.062400
C       3.564200     8.164400     1.801400
H       3.672000     7.293100     1.497100
C       3.849700     8.491500     3.117000
H       4.146600     7.829400     3.699200
C       3.698400     9.784400     3.576300
H       3.902100     9.992000     4.459100
