96
Refcode: DECXER_comp_0 | Dataset: tmCAT | Charge: unknown | Potential Spins: [1, 3, 5]
Ni      8.672500     8.166500    10.689900
H       7.587500     7.306700    10.135700
P       8.538700     7.020700    12.517400
P       7.519900    10.007000    10.506200
P       9.820300     7.650000     8.918900
Si     10.225300     9.394000    11.662900
N       9.945000     9.169000    13.434600
N       9.916400    11.105000    11.167200
C      12.088300     9.175600    11.567700
H      12.512800     9.672500    12.297000
H      12.412800     9.515800    10.708100
H      12.310600     8.224300    11.647400
C      10.605200     9.031200     8.012400
H      11.091700     8.678500     7.237100
H      11.230000     9.497400     8.604800
H       9.915200     9.656700     7.707600
C       8.910300     6.768900     7.604400
H       9.496400     6.643200     6.829700
H       8.127400     7.294800     7.340600
H       8.619900     5.895400     7.937600
C      11.282300     6.547100     9.031900
H      11.664600     6.418000     8.137700
H      11.010500     5.679500     9.398300
H      11.953300     6.953900     9.617800
C       9.363800     7.956300    13.854500
C       9.563100     7.767500    15.202000
C      10.269400     8.917800    15.674700
C      10.483700     9.769200    14.562400
C      11.100000    11.008300    14.703800
H      11.231700    11.580100    13.956200
C      11.515800    11.379100    15.971900
H      11.934000    12.222600    16.096400
C      11.331600    10.537400    17.073100
H      11.633100    10.819200    17.929400
C      10.723500     9.312400    16.944800
H      10.611800     8.744300    17.697600
C       9.159100     6.603300    16.068300
H       8.641400     6.930200    16.833800
H       9.961900     6.141600    16.389600
H       8.610700     5.981000    15.545100
C       8.687900    11.410400    10.528900
C       8.700800    12.710500    10.069700
C       9.976700    13.254600    10.416300
C      10.702800    12.251500    11.085900
C      12.010900    12.498100    11.525600
H      12.514100    11.823700    11.967000
C      12.544800    13.754200    11.297000
H      13.428700    13.938000    11.593000
C      11.826900    14.762100    10.644400
H      12.221900    15.615200    10.511500
C      10.550400    14.521200    10.196100
H      10.061900    15.199200     9.744200
C       7.675800    13.496600     9.310900
H       7.435000    14.297400     9.821500
H       6.878400    12.945300     9.171900
H       8.044600    13.761600     8.443200
C       6.857400     6.501800    13.187700
H       6.998700     5.632100    13.661200
C       5.853100     6.225800    12.075500
H       6.252200     5.618900    11.417400
H       5.049900     5.811100    12.455000
H       5.609700     7.067100    11.636900
C       6.236000     7.434400    14.194400
H       6.879200     7.614800    14.911300
H       5.992100     8.275600    13.754300
H       5.432300     7.018400    14.572400
C       9.384400     5.362700    12.598800
H       9.155800     4.951400    13.482100
C       8.864200     4.426900    11.506300
H       7.888300     4.359000    11.571900
H       9.108600     4.784200    10.627300
H       9.262200     3.538800    11.621100
C      10.894200     5.497300    12.533700
H      11.198400     6.100800    13.243400
H      11.305900     4.615700    12.655200
H      11.152300     5.861100    11.661500
C       6.310500    10.484000    11.857100
H       5.729500     9.687000    12.017900
C       5.378400    11.649800    11.537700
H       4.910100    11.472200    10.695800
H       4.724400    11.752600    12.260200
H       5.902900    12.472700    11.452500
C       7.032200    10.775300    13.171200
H       7.633100    10.031900    13.385600
H       7.552700    11.601200    13.081800
H       6.374200    10.879700    13.889500
C       6.445500    10.251500     9.006500
H       5.989400    11.136400     9.098100
C       5.360800     9.168100     8.973300
H       4.868000     9.173500     9.819700
H       4.742000     9.347300     8.234300
H       5.778000     8.291400     8.845300
C       7.230500    10.266200     7.700000
H       7.918200    10.964000     7.739200
H       7.657500     9.394700     7.565400
H       6.621500    10.450500     6.954400
