82
Refcode: DEDJEC_comp_0 | Dataset: tmCAT | Charge: 1 | Potential Spins: [1, 3, 5]
Zn      2.252100     5.226400     2.590500
I       2.281100     7.811300     2.589000
N       4.483900     5.135800     1.345200
N       4.168500     3.111700     3.499900
N       3.436300     4.058400     5.263300
N       0.177600     5.030600     3.798600
N       0.423100     3.118500     1.522300
N       1.192200     4.146600    -0.179200
C       5.071200     6.164000     0.768400
H       4.576600     6.968200     0.665400
C       6.379000     6.126600     0.304900
H       6.774600     6.896900    -0.084500
C       7.094200     4.952600     0.420200
H       7.983300     4.891500     0.092700
C       6.487400     3.875200     1.019700
H       6.957600     3.057400     1.126800
C       5.184000     3.999000     1.464700
C       4.465700     2.830000     2.084700
H       3.622200     2.660400     1.594400
H       5.029200     2.019000     2.018800
C       3.323800     4.075400     3.903700
C       4.825300     2.499200     4.558800
H       5.470600     1.803500     4.511400
C       4.349700     3.106600     5.675300
H       4.597000     2.913200     6.573500
C       2.795400     5.006800     6.126400
C       3.319500     6.298000     6.175900
C       2.664800     7.224400     6.983400
H       3.001700     8.111700     7.028700
C       1.553500     6.900300     7.708500
C       1.077100     5.548100     7.675600
H       0.332300     5.298700     8.209100
C       1.691300     4.608100     6.876300
C       4.568400     6.683100     5.413700
H       4.761200     7.633300     5.564100
H       4.428300     6.527100     4.455800
H       5.323000     6.143600     5.726800
C       0.808000     7.891200     8.553100
H       1.226800     8.773400     8.466600
H       0.832400     7.606100     9.490400
H      -0.123300     7.942100     8.250300
C       1.167600     3.194800     6.806200
H       0.508500     3.054000     7.516900
H       1.911100     2.565300     6.919500
H       0.746000     3.047200     5.932800
C      -0.381100     6.026500     4.503200
H       0.106500     6.835800     4.604100
C      -1.614200     5.938300     5.082000
H      -1.972700     6.664500     5.580500
C      -2.324700     4.769300     4.921300
H      -3.186600     4.679400     5.312700
C      -1.792500     3.742800     4.204500
H      -2.276400     2.935200     4.082900
C      -0.535000     3.897200     3.654400
C       0.125900     2.760500     2.912800
H       0.968100     2.514500     3.372200
H      -0.470300     1.969800     2.925200
C       1.258500     4.136500     1.159800
C      -0.167500     2.528000     0.416100
H      -0.785600     1.805200     0.412000
C       0.314600     3.184600    -0.636500
H       0.092400     3.018400    -1.545000
C       1.813700     5.154500    -1.011500
C       1.216900     6.410000    -1.085600
C       1.846100     7.390700    -1.872500
H       1.459500     8.255900    -1.942600
C       3.029900     7.107300    -2.546200
C       3.574000     5.848400    -2.465800
H       4.381600     5.665100    -2.929300
C       2.975900     4.825300    -1.720100
C      -0.085500     6.679800    -0.401700
H      -0.731900     5.982400    -0.642700
H      -0.427800     7.553500    -0.683900
H       0.049000     6.679800     0.568600
C       3.704000     8.189800    -3.376300
H       4.672400     8.160900    -3.228000
H       3.358500     9.067000    -3.112700
H       3.516100     8.037100    -4.326000
C       3.569400     3.451000    -1.668600
H       4.429600     3.447600    -2.138300
H       2.959200     2.816500    -2.099100
H       3.706100     3.188000    -0.733400
