73
Refcode: DERKUJ_comp_0 | Dataset: tmCAT | Charge: unknown | Potential Spins: [1, 3, 5]
Ru      5.543100     3.350600    15.694100
Cl      3.468700     3.127500    16.658500
Cl      4.708900     4.953100    14.054500
P       6.368000     1.826000    17.252500
O       5.255100     1.784600    14.277400
O       7.061300     3.006300    14.290900
N       6.292700     4.718700    16.560800
C       6.960300     5.718400    16.908700
C       7.991200     1.159300    16.764400
C       8.420400     5.751000    16.489400
C       8.082000     3.450600    20.604400
H       8.951200     3.541300    20.976900
C       6.640900     2.636000    18.845300
C       9.439100     5.585900    17.417700
H       9.234500     5.500700    18.342200
C       8.721400     5.890700    15.137900
H       8.026700     6.003200    14.498200
C       5.060100    -0.041700    18.921400
H       5.419700     0.442700    19.652700
C       7.921100     2.772100    19.416700
H       8.675900     2.392900    18.981800
C       5.551800     3.203900    19.522100
H       4.679400     3.136800    19.151500
C      10.037600     5.863500    14.738100
H      10.246700     5.977800    13.817600
C       6.387800     2.079100    13.739500
C       8.974800     2.055500    16.341200
H       8.762200     2.978900    16.261200
C      10.764800     5.542400    16.984800
H      11.464300     5.422600    17.616700
C       6.992500     4.000300    21.265600
H       7.112900     4.470200    22.082700
C      10.249200     1.625500    16.035000
H      10.910500     2.251400    15.767800
C       5.325200     0.379200    17.608900
C       8.311200    -0.195900    16.840500
H       7.656000    -0.825500    17.115400
C       5.731400     3.857000    20.719500
H       4.979100     4.214400    21.177800
C       3.761400    -1.888600    18.098400
H       3.236000    -2.663200    18.262200
C      11.061400     5.673000    15.646900
H      11.963900     5.631300    15.350500
C      10.560200     0.279400    16.120800
H      11.436200    -0.021800    15.914100
C       4.276600    -1.157500    19.153500
H       4.092300    -1.426000    20.046700
C       4.019700    -1.478600    16.793600
H       3.666800    -1.975700    16.064300
C       4.783600    -0.355600    16.549900
H       4.943400    -0.079800    15.654700
C       9.591300    -0.622300    16.508900
H       9.802100    -1.547500    16.549900
C       7.049500     7.325700    18.835600
H       7.967900     7.550700    18.576200
H       6.623900     8.107700    19.243200
H       7.064200     6.587400    19.483000
C       6.276400     6.910300    17.624500
C       6.877800     1.391500    12.530400
H       7.848600     1.226400    12.631800
H       6.756000     1.993800    11.754200
C       6.202700     0.088900    12.234000
H       6.585800    -0.299300    11.418700
H       6.338100    -0.527900    12.984800
H       5.243800     0.239500    12.105200
C       6.287900     8.031500    16.586900
H       5.779800     7.752100    15.797100
H       5.879700     8.835200    16.971100
H       7.213200     8.227400    16.327500
C       4.842100     6.551100    17.979400
H       4.362400     6.284400    17.166100
H       4.839700     5.809100    18.619100
H       4.400500     7.329400    18.379200
