76
Refcode: DERKOD_comp_0 | Dataset: tmCAT | Charge: unknown | Potential Spins: [1, 3, 5]
Ru      1.890300     3.205600     5.761500
Cl      0.891800     4.702300     4.129900
Cl     -0.129300     2.938500     6.841200
P       2.870700     1.781600     7.324700
O       3.363500     2.900100     4.294300
O       1.657800     1.569000     4.432300
N       2.599500     4.631500     6.540600
C       3.216000     7.369300     8.713000
H       3.243800     6.663100     9.389800
H       4.129900     7.612800     8.456300
H       2.758900     8.156600     9.080600
C       2.725200     1.907000     3.811900
C       3.216000     5.685100     6.847900
C       4.500800     1.155500     6.805100
C       5.417000     2.052400     6.250800
H       5.146500     2.941700     6.052400
C       4.499300     2.701900     9.440400
H       5.225000     2.258200     9.016400
C       4.914900    -0.151000     7.065700
H       4.301700    -0.779800     7.425500
C       3.213300     2.647100     8.884100
C       2.453100     6.865100     7.474100
C       2.167800     3.300400     9.539500
H       1.291800     3.274000     9.173900
C       1.913900     0.296400     7.806700
C       6.715600     1.654000     5.990200
H       7.329200     2.275200     5.614800
C       4.654800     5.766300     6.418000
C       7.129300     0.375700     6.266300
H       8.027000     0.117100     6.095200
C       4.956700     5.973900     5.081900
H       4.262000     6.130700     4.453700
C       6.236500    -0.532400     6.797300
H       6.518300    -1.421700     6.978200
C       2.395500     7.948900     6.406400
H       3.307300     8.207600     6.155500
H       1.924800     7.605300     5.616800
H       1.919100     8.728700     6.756400
C       2.403100     3.989600    10.724000
H       1.681900     4.421900    11.165400
C       3.195100     1.185700     2.584700
H       2.696300     1.570900     1.808700
C       1.845800    -0.111400     9.131100
H       2.260100     0.405900     9.813800
C       5.668000     5.535900     7.332100
H       5.461700     5.401900     8.250100
C       1.167300    -1.278200     9.455900
H       1.111700    -1.550100    10.362200
C       7.000200     5.503800     6.896500
H       7.698000     5.341400     7.520800
C       0.633300    -1.638900     7.161000
H       0.215800    -2.161900     6.486100
C       0.578100    -2.041000     8.481500
H       0.131600    -2.845400     8.714900
C       1.029000     6.453500     7.872800
H       1.070400     5.756800     8.559300
H       0.550600     7.231400     8.224800
H       0.556300     6.108000     7.085100
C       7.296500     5.705800     5.583700
H       8.202300     5.677500     5.297800
C       4.681400     1.444400     2.333800
H       4.966600     0.962900     1.528700
H       4.829200     2.405400     2.209400
H       5.202100     1.131000     3.104000
C       1.298200    -0.472000     6.824500
H       1.333100    -0.194500     5.916300
C       4.703900     3.419300    10.628700
H       5.576800     3.464700    10.998200
C       3.668800     4.055600    11.264600
H       3.823600     4.535200    12.069800
C       6.295400     5.949400     4.661800
H       6.512400     6.102300     3.749700
C       2.848100    -0.283200     2.650800
H       3.166200    -0.730700     1.837900
H       3.276500    -0.687300     3.434600
H       1.876100    -0.387100     2.720900
