50
Refcode: DEXSIK_comp_0 | Dataset: tmCAT | Charge: 0 | Potential Spins: [1, 3, 5]
C       2.537700     7.571100     0.661000
C       2.087800     8.107000     3.250400
C       2.715800    10.049700     1.538800
C       4.699100     9.403200     4.840200
C       5.600100    10.027100     5.682100
C       6.741400    10.594300     5.140600
C       6.937400    10.524600     3.772200
C       5.983300     9.910100     2.979000
C       6.083900     9.884800     1.483100
C       6.320300     7.447600     1.192100
C       5.782900     6.463300     2.224100
C       5.265600     8.817500    -0.564700
C       6.544200     8.933300    -1.325400
C       7.213700     7.991700    -2.054800
C       9.449000     8.045300    -3.238800
C       9.149200     8.029900    -4.727700
C       8.591400     9.128100    -5.356200
C       8.378400     9.133400    -6.724600
C       8.734300     8.029500    -7.471400
C       9.299500     6.930900    -6.854500
C       9.501000     6.929700    -5.479200
H       3.927800     8.996200     5.214800
H       5.438500    10.066400     6.617900
H       7.378800    11.023000     5.698300
H       7.719200    10.896800     3.381400
H       7.036800     9.923000     1.215300
H       5.627900    10.679900     1.108600
H       7.207000     7.765700     1.495900
H       6.454200     6.964300     0.338600
H       4.754200     8.045000    -0.914900
H       4.725500     9.632200    -0.722400
H       6.937400     7.100800    -2.240400
H       9.635100     7.121000    -2.936100
H      10.261400     8.587300    -3.077600
H       8.350800     9.890600    -4.841400
H       7.990700     9.891200    -7.145500
H       8.590700     8.025600    -8.410700
H       9.551800     6.174300    -7.371700
H       9.880600     6.167800    -5.057100
N       4.878600     9.354200     3.498500
N       5.456500     8.639700     0.928800
N       7.290600    10.074600    -1.323100
N       8.393700     9.863300    -2.011900
N       8.345700     8.592700    -2.453700
O       1.935600     7.121100    -0.214500
O       1.201900     7.891500     3.989100
O       2.197600    11.041200     1.225700
O       4.592500     6.672600     2.672400
O       6.487800     5.519000     2.539600
Re      3.538500     8.409500     2.065900
