74
Refcode: DICXAQ_comp_0 | Dataset: tmCAT | Charge: unknown | Potential Spins: [1, 3, 5]
Sc     10.962000     3.428900     4.205800
Cl      8.946900     3.558800     2.793300
O       9.101300     0.713700     7.282800
C       9.707000     1.277300     6.207000
C       7.471800     3.524500     6.660400
H       7.650500     4.208600     5.982400
O      10.121000     5.338400     5.341900
N       9.688200     2.552200     6.100200
C      10.318400    -0.972500     5.227000
H       9.882900    -1.431600     5.908400
C      10.337700     0.421900     5.209400
C      10.962000     1.168600     4.205800
C      10.651000     5.929000     6.551900
H      11.455700     6.435200     6.359200
H      10.864400     5.240700     7.201200
C       8.832100     3.048500     7.202100
H       9.280900     3.787500     7.664700
C       8.734500     1.836300     8.134900
H       9.347600     1.921800     8.881100
H       7.832300     1.732000     8.477300
C       9.557900     6.846800     7.088500
H       9.932600     7.694300     7.376200
H       9.101700     6.435200     7.838800
C       9.259100     6.358000     4.762700
H       8.594500     5.952200     4.184000
H       9.781100     6.988500     4.242000
C       8.595900     7.051800     5.915900
H       7.730500     6.656500     6.106000
H       8.476500     7.996100     5.728400
C      10.962000    -1.661600     4.205800
H      10.962000    -2.591600     4.205800
C       6.684300     2.420500     5.992500
H       5.867300     2.779900     5.637500
H       6.481400     1.737800     6.635100
H       7.204400     2.042500     5.278300
C       6.680200     4.191400     7.784200
H       6.477000     3.543100     8.462200
H       5.863100     4.550700     7.430000
H       7.202400     4.901500     8.166100
O      12.822700     0.713700     1.128800
C      12.217000     1.277300     2.204700
C      14.452200     3.524500     1.751300
H      14.273500     4.208600     2.429300
N      12.235800     2.552200     2.311500
C      11.605600    -0.972500     3.184700
H      12.041100    -1.431600     2.503300
C      11.586300     0.421900     3.202300
C      13.091900     3.048500     1.209600
H      12.643100     3.787500     0.747000
C      13.189500     1.836300     0.276700
H      12.576400     1.921800    -0.469400
H      14.091700     1.732000    -0.065600
C      15.239700     2.420500     2.419200
H      16.056700     2.779900     2.774200
H      15.442600     1.737800     1.776500
H      14.719600     2.042500     3.133400
C      15.243800     4.191400     0.627500
H      15.447000     3.543100    -0.050500
H      16.060900     4.550700     0.981600
H      14.721600     4.901500     0.245600
Cl     12.977100     3.558800     5.618400
O      11.803000     5.338400     3.069800
C      11.273000     5.929000     1.859800
H      10.468300     6.435200     2.052500
H      11.059600     5.240700     1.210400
C      12.366100     6.846800     1.323200
H      11.991400     7.694300     1.035500
H      12.822300     6.435200     0.572800
C      12.664900     6.358000     3.649000
H      13.329500     5.952200     4.227700
H      12.142900     6.988500     4.169700
C      13.328100     7.051800     2.495700
H      14.193500     6.656500     2.305600
H      13.447500     7.996100     2.683300
