38
Refcode: DIDMAG_comp_0 | Dataset: tmCAT | Charge: -1 | Potential Spins: [1, 3, 5]
Ni      4.737600     3.472500     6.899300
Cl      6.233700     4.527400     8.166200
Cl      4.915500     1.288600     7.177000
Cl      4.523300     4.350700     4.849700
P       2.723200     4.027600     7.892800
C       2.262100     5.746600     7.602300
C       3.265000     6.660700     7.356200
H       4.144800     6.366000     7.302700
C       2.993700     7.992300     7.190100
H       3.682900     8.596200     7.037500
C       1.689300     8.429000     7.253100
H       1.497300     9.331600     7.140500
C       0.680200     7.543900     7.480200
H      -0.199500     7.842500     7.520300
C       0.964200     6.205600     7.653800
H       0.270200     5.604500     7.804600
C       1.283100     3.051600     7.350400
C       1.069400     2.898900     5.999400
H       1.641700     3.303800     5.388800
C      -0.000400     2.137500     5.554800
H      -0.144800     2.045700     4.640800
C      -0.840100     1.523900     6.421100
H      -1.550400     1.012700     6.104400
C      -0.635800     1.662000     7.762600
H      -1.206500     1.250400     8.369400
C       0.430700     2.421500     8.209100
H       0.570400     2.505600     9.125100
C       2.738400     3.832300     9.691800
C       3.135400     2.622500    10.228000
H       3.381800     1.925800     9.663200
C       3.170200     2.440900    11.600000
H       3.444600     1.623400    11.947300
C       2.806200     3.453600    12.451100
H       2.829400     3.321200    13.370800
C       2.410600     4.656600    11.939700
H       2.160900     5.344600    12.512200
C       2.382300     4.855700    10.558100
H       2.120600     5.680900    10.216600
