105
Refcode: DIHVOI_comp_0 | Dataset: tmCAT;tmPHOTO | Charge: 0 | Potential Spins: [1, 3, 5]
Zn      9.022200    -6.954500     6.097700
O       1.694300    -4.298400     1.383000
O      11.362400   -12.481300    -0.781700
N       8.302300    -7.333800     4.241500
N       7.466000    -5.680900     6.456200
C       8.828200    -8.209900     3.318300
C       7.980700    -8.219900     2.134200
H       8.122100    -8.710200     1.356100
C       6.953400    -7.382800     2.383000
H       6.247900    -7.199700     1.806100
C       7.136900    -6.824100     3.691500
C       6.249800    -5.928500     4.307400
C       6.422200    -5.414700     5.612300
C       5.539500    -4.462800     6.231800
H       4.761300    -4.111900     5.861100
C       6.040200    -4.172400     7.440400
H       5.673800    -3.585400     8.063600
C       7.246000    -4.936000     7.596500
C       9.979900    -8.962200     3.458600
C       5.041700    -5.513400     3.556200
C       5.040000    -4.394900     2.730500
H       5.816900    -3.888400     2.653700
C       3.925100    -4.016200     2.023200
H       3.952800    -3.262600     1.480500
C       2.762400    -4.752700     2.119500
C       2.733100    -5.872200     2.922000
H       1.958900    -6.382500     2.989100
C       3.873300    -6.231500     3.629300
H       3.844700    -6.985200     4.172000
C       0.477500    -5.063400     1.423200
H       0.151500    -5.126500     2.334200
H       0.633300    -5.959300     1.087800
C      -0.527300    -4.355100     0.561000
H      -1.354100    -4.842600     0.567100
H      -0.675700    -3.469600     0.902500
H      -0.195500    -4.300200    -0.337800
C      10.370100    -9.870700     2.319600
C      10.977800    -9.375000     1.185400
H      11.161200    -8.464800     1.132900
C      11.324400   -10.195400     0.118300
H      11.735500    -9.838900    -0.636600
C      11.052100   -11.545600     0.190200
C      10.440300   -12.063400     1.298800
H      10.249400   -12.972100     1.343900
C      10.105900   -11.228600     2.351300
H       9.691600   -11.590900     3.101300
C      12.002600   -12.057700    -1.970800
H      12.465300   -12.813500    -2.365900
H      12.666100   -11.386300    -1.748800
C      11.084200   -11.506800    -2.945200
H      11.570600   -11.237300    -3.726900
H      10.434700   -12.172200    -3.185400
H      10.636500   -10.745000    -2.568300
O      16.350000    -9.610500    10.812400
O       6.682000    -1.427600    12.977100
N       9.742100    -6.575100     7.953800
N      10.578400    -8.228000     5.739100
C       9.216200    -5.699000     8.877000
C      10.063700    -5.689000    10.061100
H       9.922200    -5.198700    10.839200
C      11.091000    -6.526100     9.812400
H      11.796500    -6.709200    10.389200
C      10.907500    -7.084800     8.503800
C      11.794500    -7.980400     7.887900
C      11.622200    -8.494200     6.583000
C      12.504900    -9.446100     5.963500
H      13.283000    -9.797100     6.334300
C      12.004200    -9.736500     4.755000
H      12.370600   -10.323600     4.131800
C      10.798300    -8.972900     4.598900
C       8.064500    -4.946700     8.736700
C      13.002600    -8.395500     8.639200
C      13.004400    -9.514000     9.464800
H      12.227400   -10.020600     9.541600
C      14.119200    -9.892700    10.172100
H      14.091600   -10.646400    10.714800
C      15.282000    -9.156200    10.075800
C      15.311200    -8.036700     9.273300
H      16.085500    -7.526500     9.206300
C      14.171100    -7.677400     8.566000
H      14.199600    -6.923800     8.023300
C      17.566900    -8.845500    10.772100
H      17.892800    -8.782400     9.861100
H      17.411100    -7.949600    11.107500
C      18.571700    -9.553800    11.634300
H      19.398500    -9.066300    11.628200
H      18.720000   -10.439300    11.292900
H      18.239800    -9.608700    12.533100
C       7.674200    -4.038300     9.875800
C       7.066500    -4.534000    11.009900
H       6.883200    -5.444100    11.062400
C       6.719900    -3.713600    12.077000
H       6.308800    -4.070000    12.831900
C       6.992300    -2.363400    12.005100
C       7.604100    -1.845500    10.896500
H       7.794900    -0.936900    10.851400
C       7.938400    -2.680400     9.844100
H       8.352700    -2.318000     9.094100
C       6.041800    -1.851200    14.166100
H       5.579100    -1.095400    14.561200
H       5.378200    -2.522600    13.944100
C       6.960200    -2.402100    15.140500
H       6.473700    -2.671600    15.922200
H       7.609700    -1.736700    15.380800
H       7.407900    -3.164000    14.763700
