76
Refcode: DISDIT_comp_0 | Dataset: tmCAT | Charge: 1 | Potential Spins: [1, 3, 5]
Ni      5.904800     9.509600     4.361400
S       4.127600    10.529200     3.107800
S       5.251900    11.506600     5.609500
N       7.320800     8.777900     5.722100
N       4.703600     8.265200     5.549700
N       7.388000    10.474200     3.283400
N       6.301400     8.078000     2.879100
N       3.414600    12.856400     4.207800
N       1.270300    14.720200     4.420600
C       8.611900     9.071300     5.830300
H       8.996000     9.656300     5.188600
C       9.432300     8.563500     6.839000
H      10.351400     8.797900     6.871500
C       8.906600     7.732100     7.771500
H       9.456400     7.379700     8.460800
C       7.543300     7.394900     7.711100
C       6.785800     7.948800     6.662000
C       5.379700     7.701800     6.582500
C       3.394700     8.084600     5.503200
H       2.906400     8.460700     4.780200
C       2.702100     7.362800     6.484400
H       1.756900     7.278500     6.433100
C       3.380000     6.782700     7.502600
H       2.913400     6.281800     8.160300
C       4.764200     6.922000     7.587700
C       5.568200     6.357700     8.623400
H       5.157700     5.814700     9.286400
C       6.899600     6.577000     8.683700
H       7.410600     6.182300     9.380100
C       7.935500    11.656100     3.526100
H       7.625700    12.160600     4.269300
C       8.948700    12.185900     2.733400
H       9.328400    13.030800     2.947000
C       9.396900    11.489400     1.649600
H      10.063600    11.860500     1.083700
C       8.864600    10.224600     1.379300
C       7.854300     9.758900     2.230800
C       7.271200     8.469300     2.013900
C       5.698400     6.911500     2.649800
H       5.014000     6.627600     3.243900
C       6.033900     6.091400     1.569300
H       5.570800     5.273400     1.428400
C       7.032700     6.470700     0.714700
H       7.278000     5.912500    -0.012400
C       7.687800     7.685900     0.921600
C       8.734800     8.184100     0.081700
H       9.042700     7.652900    -0.643500
C       9.290900     9.391600     0.298600
H       9.981100     9.696800    -0.279300
C       4.172400    11.762300     4.304500
C       3.504500    13.993700     5.107200
H       3.961000    14.742500     4.647600
H       4.045200    13.745800     5.899200
C       2.129400    14.442300     5.557800
H       1.719100    13.734000     6.114900
H       2.215700    15.256900     6.113100
C       2.511500    13.093200     3.085600
H       2.421800    12.266900     2.549200
H       2.881800    13.801500     2.501500
C       1.168600    13.513100     3.595700
H       0.564100    13.685100     2.832000
H       0.776900    12.779500     4.134900
C      -0.068300    15.091600     4.886300
H      -0.390500    14.400200     5.517400
H      -0.685100    15.101700     4.111900
C      -0.121100    16.439000     5.568600
C      -0.747600    16.573900     6.795500
H      -1.119600    15.811700     7.219800
C      -0.836100    17.800000     7.405400
H      -1.283800    17.880900     8.238000
C      -0.286600    18.906200     6.822000
H      -0.336300    19.751100     7.255100
C       0.346500    18.788200     5.591600
H       0.720800    19.553800     5.172600
C       0.427300    17.552100     4.979900
H       0.868800    17.471100     4.142000
