64
Refcode: DIVWUC_comp_0 | Dataset: tmCAT | Charge: 0 | Potential Spins: [1, 3, 5]
Pd      2.574800    11.029000    11.989100
Cl      4.228900    12.404900    11.173600
Cl      3.951400    10.303800    13.666500
N       0.940800     9.995600    12.642300
N       1.274500    11.645200    10.502000
C      -0.153900    10.244600    12.008700
C      -0.393700    14.005900    11.355200
C       1.231700     7.774200    13.727000
C       0.717400    14.787400    11.687600
H       1.390000    14.428300    12.254200
C       0.744900     9.759100    15.057100
C       0.955300     9.138200    13.822000
C       1.159600     7.647500    16.141900
H       1.254700     7.139000    16.938300
C       1.334400     7.047000    14.914000
H       1.528200     6.117300    14.873600
C       1.569800    11.293100     9.092400
C      -1.148100    11.269000     9.861700
H      -0.979900    10.429600     9.383400
H      -1.043800    12.024200     9.244300
H      -2.059700    11.263600    10.219600
C      -0.147600    11.408600    11.011800
C      -1.451300     9.563200    12.295200
H      -1.350100     8.983400    13.078700
H      -1.714800     9.022900    11.521800
H      -2.141400    10.236200    12.473700
C      -0.524000    12.620400    11.939900
H      -1.461400    12.499400    12.235700
H       0.046300    12.574500    12.748600
C       1.867300    13.794800     8.639300
H       2.179200    14.349400     7.895200
H       2.479600    13.893000     9.398400
H       0.969300    14.080900     8.905700
C       1.421400     7.065600    12.418100
H       0.621800     7.182200    11.863700
H       1.568400     6.109800    12.582600
H       2.199200     7.439600    11.952500
C       1.828500    12.351800     8.207700
C      -1.370400    14.562200    10.532200
H      -2.144800    14.058300    10.306800
C       0.847200     8.985900    16.212100
H       0.699200     9.389100    17.059000
C      -0.110300    16.601200    10.375800
H      -0.014000    17.482300    10.035300
C       0.851900    16.074800    11.201900
H       1.610400    16.595800    11.439700
C       0.450400    11.227300    15.167900
H       1.162000    11.736900    14.726100
H       0.405300    11.481400    16.113800
H      -0.406800    11.421300    14.736200
C      -1.214700    15.850500    10.040500
H      -1.875800    16.218300     9.467200
C       1.588500     9.967400     8.649300
C       1.832200     9.725900     7.300700
H       1.860400     8.827500     6.991900
C       2.033300    10.747200     6.400800
H       2.160800    10.559200     5.478500
C       1.374700     8.796400     9.565000
H       1.909800     8.915800    10.377200
H       1.649100     7.973000     9.111900
H       0.425900     8.737400     9.804000
C       2.045800    12.056200     6.863800
H       2.206500    12.764200     6.251100
H       1.374600    12.473100    10.548100
