83
Refcode: DIVZUE_comp_0 | Dataset: tmCAT | Charge: unknown | Potential Spins: [1, 3, 5]
Br     13.917300     6.316500    26.396100
C      10.777500     7.108200    26.458300
C       9.211000     6.198300    27.757000
H       8.723300     5.546100    28.247400
C       8.915500     7.498800    27.676200
C      10.131100     9.437400    26.385600
H      11.093400     9.640700    26.566100
C       9.314400    10.492200    27.126500
H       9.480400    10.415700    28.099200
H       8.349200    10.337200    26.967500
C       9.698700    11.905400    26.644200
H       9.157200    12.583800    27.121100
H      10.653800    12.078500    26.835500
C       9.448300    12.006100    25.154300
H       9.675400    12.916000    24.836300
H       8.490400    11.841000    24.963000
C      10.324700    10.949200    24.407900
H      10.187900    11.033700    23.432600
H      11.282700    11.116300    24.601900
C       9.947700     9.523900    24.863300
H       8.992700     9.338700    24.631600
C      10.818300     8.495200    22.872200
H      10.056900     8.867700    22.441100
C      11.857700     7.907400    21.983000
C      11.444300     7.828900    20.630500
H      10.546000     8.030200    20.398800
C      12.341100     7.458500    19.647100
C      13.663000     7.110200    20.045800
H      14.262800     6.788100    19.383000
C      14.118600     7.218900    21.344500
C      13.114100     7.567200    22.384500
C      10.878000     4.616000    26.743900
H      11.793700     4.722700    26.353200
C      10.014700     3.933600    25.717400
H       9.090200     3.899400    26.040700
H      10.342200     3.021600    25.569200
H      10.049600     4.434800    24.876700
C      11.003200     3.802700    28.031800
H      11.464700     4.338200    28.710800
H      11.515600     2.987400    27.854000
H      10.110700     3.563200    28.355100
C       7.775600     8.205400    28.349700
C       7.857100     8.579800    29.678000
H       8.638900     8.374500    30.176500
C       6.817700     9.248100    30.278900
H       6.886100     9.517900    31.186900
C       5.664600     9.523900    29.551400
H       4.942500     9.984900    29.963600
C       5.571500     9.135400    28.255400
H       4.778000     9.322600    27.767800
C       6.605100     8.479100    27.638400
H       6.525000     8.209400    26.730400
C      11.886900     7.311500    18.170600
C      10.716400     6.280800    18.014300
H      10.550400     6.117800    17.060500
H       9.905500     6.643200    18.429200
H      10.960900     5.439400    18.450800
C      11.370000     8.632100    17.556300
H      12.092100     9.294400    17.553600
H      10.618800     8.968300    18.087000
H      11.071600     8.469100    16.634800
C      12.894300     6.619000    17.313800
H      13.696400     7.178700    17.238300
H      12.515800     6.466000    16.424600
H      13.133000     5.759500    17.720600
C      15.516200     6.921000    21.732500
C      16.185900     8.149000    22.403400
H      15.881600     8.968300    21.964200
H      17.159900     8.074500    22.322500
H      15.938400     8.177200    23.351800
C      15.625400     5.697000    22.618900
H      15.041600     5.805800    23.397600
H      16.552800     5.590400    22.915300
H      15.351700     4.903900    22.115100
C      16.410100     6.639200    20.495800
H      16.252900     5.725200    20.180500
H      17.353500     6.741800    20.741000
H      16.190300     7.273300    19.781800
N      10.337800     5.962800    27.016000
N       9.898200     8.064400    26.859800
N      10.832800     8.553600    24.157400
O      13.511600     7.621600    23.613600
Pd     12.168000     7.438800    25.129200
