84
Refcode: DOCNUG_comp_0 | Dataset: tmCAT | Charge: unknown | Potential Spins: [1, 3, 5]
Ir      9.898900     3.853000     3.759300
Cl     11.744400     2.487000     4.643300
Si     10.998600     5.881800     3.281000
N      11.027400     2.778600     1.083400
N       8.903300     2.113000     1.742100
N       9.404400     4.576600     5.666400
C      10.020700     2.889100     2.025200
C      12.323000     3.366400     1.400100
H      12.326200     3.666100     2.333600
H      12.487100     4.131700     0.811500
H      13.026500     2.696700     1.269800
C      10.915100     2.058700    -0.124700
C      11.960200     2.001800    -1.031500
H      12.769100     2.469300    -0.857700
C      11.821400     1.249300    -2.210200
H      12.542900     1.217400    -2.828300
C      10.665500     0.556400    -2.493300
H      10.599600     0.049000    -3.293600
C       9.573200     0.600300    -1.587900
C       8.360900    -0.088200    -1.831800
H       8.220500    -0.539100    -2.655900
C       7.398600    -0.092900    -0.864700
H       6.597700    -0.579900    -1.020300
C       7.545300     0.588600     0.342000
H       6.870200     0.537800     1.007700
C       8.681300     1.337000     0.559200
C       9.716900     1.367000    -0.368600
C       8.017500     2.012100     2.867500
C       8.536300     1.506800     4.075700
H       9.438400     1.214000     4.131700
C       7.688000     1.446800     5.196900
C       6.351500     1.835800     5.086200
H       5.782100     1.756600     5.843000
C       5.828900     2.343000     3.880800
C       6.680600     2.388300     2.749800
H       6.340000     2.676200     1.911700
C       8.296400     4.951300     3.230500
C       7.560400     5.478800     4.407800
C       8.198500     5.273200     5.733700
C      10.253900     7.372000     4.192000
H       9.370600     7.570900     3.791100
H      10.099200     7.112900     5.135200
C      11.093000     8.662300     4.175200
H      11.436600     8.816000     3.271200
H      11.842400     8.572000     4.800300
H      10.532500     9.419600     4.445700
C      10.975000     6.311400     1.394500
H      11.908700     6.463600     1.103000
H      10.640600     5.518600     0.904000
C      10.135300     7.529200     0.955800
H      10.496500     8.341300     1.369300
H       9.205400     7.404900     1.239000
H      10.170200     7.616500    -0.019600
C      12.814500     5.916400     3.793900
H      13.269600     5.163300     3.341300
H      13.211600     6.751800     3.440800
C      13.145300     5.837200     5.265600
H      12.977900     4.926900     5.589300
H      12.583800     6.469500     5.761700
H      14.088800     6.062200     5.400100
C       7.729400     5.247400     2.050400
H       8.171700     4.956600     1.261400
C       6.538800     5.954500     1.906100
H       6.189600     6.106500     1.035700
C       5.853900     6.437900     3.006300
H       5.043200     6.920600     2.898400
C       6.371700     6.205100     4.267700
H       5.924000     6.538000     5.037100
C       7.754400     5.706700     6.943200
H       6.920200     6.158000     6.995100
C       8.483300     5.506400     8.096700
H       8.182500     5.863700     8.925000
C       9.657800     4.778400     8.033600
H      10.158900     4.593400     8.818400
C      10.084000     4.327700     6.800200
H      10.888600     3.824600     6.751200
C       8.247100     0.878100     6.489100
H       8.788400     1.559700     6.939000
H       8.805100     0.097800     6.287300
H       7.507700     0.609100     7.073500
C       4.413800     2.867900     3.802400
H       4.396500     3.807300     4.078500
H       3.836500     2.342700     4.396600
H       4.087900     2.792700     2.881600
