30
Refcode: DODSAS_comp_0 | Dataset: tmCAT | Charge: 0 | Potential Spins: [1, 3, 5]
Pt      2.913700    18.450400     5.244800
F       2.956100    23.138000     4.786700
F       0.880200    23.266700     4.454500
F       1.599700    22.796500     6.345400
O       2.612100    20.438500     5.457900
O       1.061600    20.691100     3.852000
N       4.827000    18.705000     4.456100
N       6.618700    17.432500     3.546900
N       3.435000    16.536500     5.013000
N       5.132200    15.142300     4.098400
C       5.532000    19.837300     4.257600
H       5.147300    20.670100     4.504000
C       6.784600    19.818500     3.709900
H       7.282700    20.616300     3.574700
C       7.297400    18.564700     3.358500
H       8.163000    18.517900     2.969900
C       5.429600    17.544800     4.104600
C       4.620100    16.326000     4.405900
C       4.388300    14.087300     4.436800
H       4.715900    13.219400     4.232100
C       3.179700    14.194900     5.060900
H       2.674000    13.422900     5.291100
C       2.719500    15.460400     5.346700
H       1.883900    15.570400     5.785400
C       1.062400    18.064100     5.951500
H       0.513300    17.678100     5.237000
H       0.651800    18.896900     6.265900
H       1.122000    17.427800     6.696100
C       1.794400    21.081800     4.721800
C       1.816000    22.562500     5.072500
