85
Refcode: DOLWAC_comp_0 | Dataset: tmCAT | Charge: 0 | Potential Spins: [1, 3, 5]
Pt     11.368000     0.347300    -4.918500
S       8.434000    -0.175100    -3.268200
O       9.404500     0.753500    -3.841200
O       7.642500    -0.872700    -4.219400
O       8.937000    -0.988900    -2.217600
F       7.858300     1.725300    -1.600700
F       6.732500     1.789900    -3.352200
F       6.276100     0.363100    -1.910100
N      10.742900     1.919000    -6.345400
N      12.052400     2.226200    -4.024600
C      13.081700    -0.063200    -5.908000
C      10.595400    -1.284600    -5.879300
C      12.045900    -0.871200    -3.442000
C      11.278100     2.041000    -8.710100
C      10.887400     1.817100   -10.030000
C       9.634800     1.376500   -10.335600
C       8.737800     1.171200    -9.380600
C       9.036600     1.360700    -8.016700
C      10.344500     1.789900    -7.734000
C      12.668900     2.589300    -8.421700
C      13.790500     1.870200    -9.206700
C      12.755900     4.110800    -8.679600
C       7.984400     1.247300    -6.943300
C       6.919900     0.234000    -7.239300
C       7.352600     2.631000    -6.704500
C      10.888800     3.090300    -5.869800
C      14.348600     2.579300    -3.287300
C      15.290600     2.540500    -2.242500
C      14.906600     2.331000    -0.957000
C      13.588100     2.234800    -0.645600
C      12.607600     2.249200    -1.616000
C      13.032500     2.382600    -2.935800
C      14.816200     2.903700    -4.695100
C      15.030400     4.435200    -4.832600
C      16.074600     2.122900    -5.132500
C      11.143700     2.221900    -1.256900
C      10.811000     1.461200     0.015300
C      10.622400     3.642900    -1.128900
C      11.597900     3.262500    -4.612900
C       7.264100     0.976000    -2.485100
H      13.088300     0.406200    -6.744600
H      13.139400    -1.007600    -6.070300
H      13.832000     0.215300    -5.378900
H       9.681400    -1.408100    -5.615700
H      11.104200    -2.064000    -5.644400
H      10.640500    -1.146800    -6.828700
H      11.399200    -0.905700    -2.733400
H      12.875800    -0.529600    -3.102000
H      12.183200    -1.754000    -3.793500
H      11.493700     1.972100   -10.717600
H       9.406300     1.217200   -11.223800
H       7.882000     0.894200    -9.617400
H      12.844300     2.447200    -7.468500
H      14.638100     2.260600    -8.981400
H      13.634600     1.966400   -10.148400
H      13.794900     0.938700    -8.973700
H      13.645500     4.417900    -8.488500
H      12.130200     4.567200    -8.112300
H      12.545900     4.293100    -9.598300
H       8.431800     0.976000    -6.114300
H       6.286400     0.215300    -6.517300
H       7.321100    -0.633000    -7.334800
H       6.469500     0.470800    -8.053000
H       8.044100     3.269700    -6.517300
H       6.749300     2.583600    -5.959600
H       6.870300     2.902200    -7.489600
H      10.546200     3.826600    -6.322500
H      16.192200     2.661100    -2.435400
H      15.548000     2.253500    -0.288400
H      13.339100     2.155900     0.248300
H      14.092300     2.653900    -5.306300
H      15.326400     4.637600    -5.722700
H      15.692900     4.723700    -4.202200
H      14.202600     4.890200    -4.658800
H      16.312500     2.375500    -6.028300
H      15.892600     1.181300    -5.103800
H      16.800300     2.326700    -4.538400
H      10.663500     1.792700    -1.996100
H       9.863700     1.494200     0.168100
H      11.268900     1.863100     0.756400
H      11.090600     0.548300    -0.076400
H       9.689800     3.621300    -0.899700
H      10.736700     4.102200    -1.963600
H      11.109400     4.102200    -0.441200
H      11.717900     4.109300    -4.246200
