92
Refcode: DOMZEL_comp_0 | Dataset: tmCAT | Charge: unknown | Potential Spins: [1, 3, 5]
Fe      9.728000     8.868000     3.931000
O       8.161300     7.504300     3.912900
O       9.263800     8.027800     5.701000
N       8.437700    10.335300     3.946200
N      10.205700     9.678700     2.399400
N      10.944600     7.509600     3.239200
C       7.828600    12.500800     2.856800
H       7.134200    12.593900     3.531100
H       7.406600    12.552200     1.978600
H       8.412000    13.201100     2.890200
C       8.627500    11.244400     3.018400
C       9.689900    10.911500     2.104700
C      10.166200    11.622900     1.018800
H       9.799300    12.466100     0.837900
C      11.175500    11.085000     0.240000
H      11.507900    11.549800    -0.480600
C      11.717700     9.848600     0.565200
H      12.386900     9.471300     0.064100
C      11.220400     9.153000     1.652000
C      11.596900     7.852800     2.155800
C      12.596400     7.005800     1.440500
H      13.375500     7.484500     1.275300
H      12.234300     6.727100     0.570400
H      12.840600     6.210500     1.937000
C       7.241800    10.331400     4.755400
C       7.345900    10.625800     6.124600
C       6.216400    10.465900     6.911800
H       6.284500    10.677200     7.848800
C       5.024800    10.035500     6.372800
H       4.254300     9.937600     6.898800
C       4.928900     9.778200     5.019300
H       4.109300     9.531000     4.654200
C       6.028500     9.914700     4.180800
C       8.637000    11.150000     6.715700
H       9.334800    10.858000     6.155400
C       8.891000    10.664700     8.130500
H       8.770900     9.730700     8.140400
H       8.263400    11.002700     8.778100
H       9.805000    10.951800     8.432000
C       8.679700    12.660100     6.643900
H       7.988600    13.002300     7.209600
H       9.514100    13.005900     7.017300
H       8.558200    13.041100     5.718000
C       5.854200     9.599100     2.706800
H       6.709900     9.695100     2.284600
C       5.384900     8.170700     2.474200
H       4.484000     8.028500     2.861400
H       5.299700     7.979900     1.491600
H       6.014100     7.522800     2.853400
C       4.865900    10.573200     2.055700
H       4.778900    10.406500     1.097500
H       4.032900    10.488400     2.424000
H       5.164500    11.512000     2.143700
C      11.028000     6.163500     3.759600
C      11.809300     5.910600     4.897400
C      11.757900     4.643400     5.457800
H      12.287900     4.469400     6.229100
C      10.977100     3.647400     4.921600
H      10.959200     2.783000     5.338300
C      10.235000     3.904000     3.786800
H       9.707100     3.225200     3.435000
C      10.245900     5.150400     3.173800
C       9.452200     5.329400     1.890700
H       9.483600     6.240100     1.635800
C      10.075900     4.496700     0.761500
H       9.929200     3.537700     0.945300
H       9.632700     4.657100    -0.078500
H      11.031900     4.684300     0.620000
C       7.986700     4.944200     2.057500
H       7.879800     3.951600     2.217400
H       7.557400     5.366100     2.818200
H       7.493000     5.114400     1.235200
C      12.732200     6.946100     5.501600
H      12.676300     7.738100     4.976200
C      14.181900     6.469000     5.418100
H      14.811400     7.143200     5.698800
H      14.337300     5.680500     5.987200
H      14.432400     6.219200     4.444300
C      12.354000     7.258500     6.948400
H      11.422800     7.549400     6.999700
H      12.497300     6.496200     7.533200
H      12.908400     7.983700     7.297700
C      11.142700     9.879300     4.800500
H      11.208500     9.599700     5.708400
C      11.980100    10.816200     4.386300
H      12.626800    11.208400     4.952200
H      12.000300    11.142200     3.435000
C       8.339000     7.360100     5.157400
C       7.485100     6.440200     5.962300
H       7.624100     6.499700     6.895600
H       6.640700     6.410900     5.660300
H       7.649600     5.634800     5.766100
