77
Refcode: DOSBUJ_comp_0 | Dataset: tmCAT | Charge: 0 | Potential Spins: [1, 3, 5]
Ni      8.657800     9.825300     5.734300
N      10.254500    10.351200     6.614000
N       9.576900     8.247400     5.257200
C      10.801400    11.378700     7.354800
C      12.177800    10.994000     7.664500
H      12.784100    11.500400     8.153100
C      12.423400     9.771600     7.116300
H      13.218200     9.290400     7.154100
C      11.226000     9.384600     6.479800
C      10.857500     8.279400     5.740100
C      11.583500     7.108900     5.339800
H      12.471100     6.909400     5.532500
C      10.723500     6.356100     4.629900
H      10.910200     5.528600     4.248000
C       9.452600     7.058200     4.561100
C       8.336500     6.519000     3.891300
C       7.048300     7.042500     3.688300
C       8.591000     5.152700     3.303000
C       9.236600     5.013700     2.077000
H       9.448300     5.773000     1.583800
C       9.570200     3.759500     1.579200
H      10.002200     3.684000     0.759200
C       9.260200     2.634400     2.300600
H       9.499900     1.793900     1.980600
C       8.587200     2.752200     3.509400
H       8.342600     1.987200     3.977300
C       8.279100     3.993400     4.022100
H       7.860700     4.061700     4.850100
C       6.079000     6.205500     2.891200
C       5.951100     6.401300     1.526500
H       6.492700     7.025400     1.099800
C       5.031000     5.684500     0.786700
H       4.960500     5.819400    -0.130700
C       4.213600     4.761000     1.421000
H       3.592000     4.276900     0.926700
C       4.318400     4.554800     2.791500
H       3.771000     3.936200     3.218100
C       5.238100     5.275200     3.507100
H       5.304500     5.142200     4.424600
N       7.061100     9.299400     4.854700
N       7.738700    11.403200     6.211400
C       6.514200     8.271800     4.113800
C       5.137800     8.656600     3.804200
H       4.531500     8.150200     3.315600
C       4.892200     9.879000     4.352400
H       4.097400    10.360200     4.314500
C       6.089600    10.265900     4.988900
C       6.458100    11.371200     5.728600
C       5.732100    12.541700     6.128800
H       4.844500    12.741200     5.936200
C       6.592100    13.294500     6.838800
H       6.405500    14.122000     7.220700
C       7.863000    12.592300     6.907600
C       8.979100    13.131600     7.577300
C      10.267300    12.608000     7.780300
C       8.724700    14.497900     8.165700
C       8.079000    14.636900     9.391700
H       7.867400    13.877500     9.884800
C       7.745400    15.891000     9.889400
H       7.313500    15.966600    10.709400
C       8.055400    17.016100     9.168000
H       7.815700    17.856600     9.488000
C       8.728400    16.898300     7.959200
H       8.973000    17.663400     7.491300
C       9.036500    15.657100     7.446600
H       9.455000    15.588900     6.618600
C      11.236600    13.445100     8.577400
C      11.364500    13.249200     9.942200
H      10.822900    12.625100    10.368800
C      12.284600    13.966000    10.681900
H      12.355100    13.831100    11.599400
C      13.102000    14.889600    10.047700
H      13.723600    15.373700    10.542000
C      12.997200    15.095800     8.677200
H      13.544600    15.714400     8.250500
C      12.077500    14.375300     7.961500
H      12.011100    14.508400     7.044000
