49
Refcode: DUGSEF_comp_0 | Dataset: tmCAT | Charge: unknown | Potential Spins: [1, 3, 5]
Au      2.522300    11.259500    14.691200
S       0.711200    11.289900    16.066600
Cl      4.268800    11.201400    13.223000
P       1.399000    12.450700    17.577200
C       2.507200    11.607700    18.730000
C      -0.014200    12.994900    18.582400
C       2.213500    13.907600    16.890200
C      -1.338400    14.818400    19.506100
C      -0.876900    12.018800    19.244300
C      -0.646900    10.631700    19.162200
H       0.084700    10.311200    18.646300
C      -2.799700    11.522600    20.641300
H      -3.553400    11.819600    21.137400
C       2.926900    12.310400    19.871300
H       2.683700    13.221200    19.991500
C      -2.228600    13.916600    20.119400
C       4.113400    15.359900    16.639100
H       5.003200    15.598900    16.870400
C       3.516500    14.255200    17.241700
H       3.994100    13.742800    17.883900
C      -1.985000    12.480600    19.997600
C      -3.332800    14.449000    20.814800
H      -3.956000    13.860500    21.222600
C      -3.519100    15.805400    20.913700
H      -4.277300    16.142200    21.377900
C      -0.229600    14.313200    18.737600
H       0.366700    14.928900    18.328200
C      -1.534300    16.207400    19.629300
H      -0.923900    16.810400    19.221500
C      -1.459500     9.728000    19.816500
H      -1.283500     8.797300    19.751100
C      -2.609100    16.692700    20.341500
H      -2.731600    17.630700    20.442000
C       3.421000    16.111400    15.706200
H       3.833600    16.870200    15.312100
C      -2.535900    10.180800    20.571300
H      -3.085400     9.561400    21.035500
C       1.527100    14.662700    15.934500
H       0.643600    14.420000    15.684900
C       2.814100    10.264100    18.568700
H       2.531800     9.796900    17.792600
C       3.545500     9.606700    19.566900
H       3.747100     8.683200    19.477200
C       2.129600    15.763700    15.347100
H       1.659600    16.278000    14.700300
C       3.972800    10.302100    20.679400
H       4.462200     9.849400    21.356600
C       3.700000    11.660300    20.820900
H       4.039900    12.138300    21.566600
