44
Refcode: DUHJOH_comp_0 | Dataset: tmCAT | Charge: 0 | Potential Spins: [1, 3, 5]
Pd      3.850400     7.905000    15.686300
S       3.342300     8.182100    17.885700
P       6.063000     7.947200    16.028400
Cl      4.134600     7.956300    13.397200
Cl      1.507200     7.719400    15.462900
C       7.079400     7.061900    14.802900
C       6.602500     5.922500    14.183400
H       5.738800     5.623400    14.355400
C       7.415700     5.232900    13.305800
H       7.103300     4.457000    12.900300
C       8.677200     5.682600    13.033700
H       9.205800     5.223900    12.419400
C       9.168400     6.788800    13.644500
H      10.038100     7.067900    13.469000
C       8.382200     7.506600    14.529100
H       8.713200     8.273500    14.938100
C       6.735400     9.625600    16.012200
C       7.493300    10.152600    17.028400
H       7.639200     9.655700    17.800700
C       8.042700    11.419500    16.914400
H       8.545000    11.775800    17.609400
C       7.842800    12.139200    15.777000
H       8.229200    12.980400    15.689300
C       7.072700    11.630300    14.760800
H       6.927500    12.134200    13.992000
C       6.518800    10.389500    14.874900
H       5.992500    10.053300    14.185100
C       6.532200     7.129100    17.597100
C       7.434700     6.085200    17.597100
H       7.868100     5.855300    16.807300
C       7.703600     5.379500    18.745000
H       8.312600     4.677800    18.730900
C       7.065100     5.717800    19.919200
H       7.247900     5.246000    20.700200
C       6.159100     6.747700    19.942000
H       5.728300     6.960500    20.738800
C       5.874400     7.478500    18.795900
C       4.832000     8.532500    18.857300
H       5.216400     9.365600    18.544900
H       4.574400     8.657900    19.784000
C       2.902300     6.547900    18.530900
H       3.660400     5.962700    18.464200
H       2.173600     6.187500    18.020100
H       2.639700     6.627200    19.452300
