108
Refcode: DUMDEW_comp_0 | Dataset: tmCAT | Charge: unknown | Potential Spins: [1, 3, 5]
Ru      7.774200     2.142900     3.684700
P       8.481500     3.733100     2.112700
P       7.178100     0.254700     4.891400
F       5.615800     1.226400     1.249700
F       3.079000     1.782700     0.754600
F       1.637900     3.383000     2.424000
F       2.854200     4.470900     4.613600
F       5.407600     3.988700     5.127600
N      10.774000     1.107600     3.582500
N      10.346100     2.371100     5.261300
C       9.747500     1.802900     4.168000
C      11.697000     2.038400     5.355900
C      11.972600     1.254200     4.293500
C       9.643000     3.167800     6.261500
H      10.272200     3.826100     6.650600
H       9.338900     2.572700     6.991800
C       8.449500     3.903200     5.692000
C      12.580000     2.537800     6.454700
H      13.492100     2.207300     6.315200
H      12.243800     2.213000     7.317100
H      12.581800     3.517900     6.452500
C      13.273800     0.657400     3.865400
H      14.010000     1.122500     4.315700
H      13.373300     0.752100     2.894500
H      13.292800    -0.292100     4.106000
C      10.643200     0.323700     2.344900
H      11.309500     0.648600     1.688700
H       9.742800     0.477100     1.961900
C      10.843000    -1.173000     2.551200
H      11.756500    -1.341100     2.862600
H      10.696900    -1.642900     1.703100
H      10.204700    -1.498600     3.219800
C       5.697700     2.548200     3.248100
C       4.995900     2.042600     2.155800
C       3.671400     2.314400     1.856100
C       2.935100     3.121100     2.682800
C       3.557300     3.654700     3.785200
C       4.881700     3.359800     4.021400
C       7.205300     4.867300     1.430300
C       6.360100     5.511000     2.342600
H       6.459300     5.339800     3.271800
C       5.388900     6.389200     1.911900
H       4.824000     6.818600     2.544600
C       5.231600     6.647100     0.555200
H       4.558900     7.247000     0.255900
C       6.062000     6.025600    -0.354800
H       5.960000     6.203200    -1.282400
C       7.049400     5.139300     0.071100
H       7.616300     4.719100    -0.565300
C       9.750000     4.952800     2.699000
C       9.464600     6.309200     2.834500
H       8.642400     6.649700     2.502600
C      10.364300     7.176600     3.448500
H      10.149400     8.097500     3.536400
C      11.567900     6.701900     3.929200
H      12.169100     7.288300     4.373500
C      11.892700     5.368500     3.760300
H      12.733700     5.044900     4.061200
C      10.997200     4.501200     3.154100
H      11.231700     3.587500     3.044800
C       9.255300     3.021900     0.602700
C      10.531500     3.364200     0.168100
H      11.025400     4.030800     0.631800
C      11.091300     2.736100    -0.940300
H      11.975100     2.952000    -1.213000
C      10.361700     1.797900    -1.645000
H      10.742300     1.373900    -2.405800
C       9.080500     1.476800    -1.244100
H       8.570700     0.849500    -1.743600
C       8.536600     2.064600    -0.116200
H       7.667100     1.814600     0.172000
C       5.432300     0.023500     5.443800
C       4.694700    -1.134800     5.213600
H       5.070200    -1.836000     4.693000
C       3.416300    -1.276900     5.737900
H       2.925400    -2.073500     5.574900
C       2.859100    -0.268700     6.494200
H       1.990500    -0.374300     6.863100
C       3.569200     0.901500     6.714100
H       3.186600     1.600300     7.230300
C       4.834200     1.049300     6.181700
H       5.306100     1.862400     6.319500
C       8.071200    -0.002900     6.502800
C       7.467400     0.113800     7.755200
H       6.534200     0.284500     7.811600
C       8.212200    -0.017300     8.922900
H       7.786000     0.065300     9.767700
C       9.564800    -0.266900     8.859300
H      10.072300    -0.349700     9.657800
C      10.179100    -0.396300     7.628700
H      11.111000    -0.571200     7.583100
C       9.445300    -0.272200     6.464100
H       9.879900    -0.371500     5.625500
C       7.502400    -1.370100     4.067700
C       7.904900    -2.492700     4.790700
H       8.004200    -2.433600     5.734000
C       8.162200    -3.699900     4.144000
H       8.449500    -4.456500     4.642400
C       7.997700    -3.793800     2.774200
H       8.191700    -4.611200     2.329200
C       7.554000    -2.706800     2.050700
H       7.411200    -2.786100     1.114700
C       7.315300    -1.492700     2.687600
H       7.023600    -0.743400     2.181700
H       7.774900     1.173800     2.423100
H       7.742600     3.283100     5.405800
H       8.718800     4.518500     4.977800
H       8.039500     4.440000     6.406300
