87
Refcode: ECIGAZ_comp_0 | Dataset: tmCAT | Charge: 0 | Potential Spins: [1, 3, 5]
Zr      4.004800     4.693500     7.167400
P       5.621300     6.445900     5.504900
P       6.900800     4.577200     6.990100
N       3.966300     6.281200     5.756500
N       5.732000     3.654900     7.799000
N       6.030400     6.116200     7.205300
N       6.182500     4.769200     5.391100
C       6.491900     7.208300     8.125500
C       5.345000     8.191800     8.335500
H       5.086100     8.581400     7.474200
H       5.632400     8.905700     8.943500
H       4.577700     7.722100     8.725100
C       6.906300     6.582200     9.461700
H       7.642400     5.953300     9.312800
H       6.142500     6.106100     9.850300
H       7.197900     7.287800    10.076500
C       7.692800     7.922900     7.507100
H       8.424900     7.282300     7.381400
H       7.987400     8.642900     8.102500
H       7.437400     8.301800     6.640900
C       6.798200     4.193400     4.150100
C       5.896100     4.521800     2.966700
H       5.834300     5.494800     2.863200
H       5.002400     4.152800     3.124200
H       6.271700     4.130400     2.149900
C       8.180400     4.801400     3.909600
H       8.095800     5.770600     3.793200
H       8.574600     4.408100     3.103000
H       8.758100     4.615000     4.678600
C       6.917700     2.688100     4.313800
H       6.027900     2.303800     4.460200
H       7.489900     2.488300     5.082700
H       7.311400     2.301900     3.505100
C       2.957500     7.045000     4.964600
C       1.673000     7.070700     5.779500
H       1.364700     6.152700     5.931400
H       0.985500     7.569300     5.289600
H       1.842200     7.505900     6.640900
C       2.697900     6.359400     3.623400
H       2.399600     5.438900     3.779600
H       3.523500     6.350300     3.095200
H       2.002800     6.849800     3.135800
C       3.403300     8.488000     4.736800
H       3.554000     8.924400     5.600800
H       2.706400     8.971000     4.245600
H       4.234200     8.495700     4.216600
C       6.128600     2.465400     8.624100
C       4.878700     1.926000     9.312400
H       4.218100     1.668200     8.636100
H       4.499400     2.618800     9.890900
H       5.115600     1.142600     9.852200
C       6.724300     1.369000     7.728100
H       6.070400     1.114600     7.045000
H       6.947300     0.587100     8.274600
H       7.535300     1.707300     7.294400
C       7.148300     2.862600     9.691100
H       6.766400     3.558200    10.265900
H       7.958600     3.204000     9.258700
H       7.374300     2.078200    10.235000
C       2.395900     4.795300     8.777100
H       1.526600     4.980300     8.342300
H       2.329200     3.908600     9.210300
C       2.623600     5.819300     9.830000
C       1.902700     7.024100     9.878700
H       1.227700     7.187200     9.231600
C       2.156000     7.982000    10.850400
H       1.648400     8.784600    10.859500
C       3.131200     7.784800    11.802100
H       3.303500     8.445300    12.464100
C       3.850800     6.611800    11.775800
H       4.524900     6.460300    12.427400
C       3.605300     5.649500    10.810900
H       4.118400     4.849900    10.815000
C       2.945000     3.234400     5.766700
H       2.079200     3.634600     5.500300
H       3.491400     3.138800     4.947400
C       2.682300     1.878400     6.310500
C       3.462000     0.773000     5.960800
H       4.126300     0.872300     5.289600
C       3.296900    -0.462400     6.560300
H       3.851100    -1.191000     6.302600
C       2.329100    -0.642900     7.533200
H       2.229000    -1.481800     7.967200
C       1.512000     0.420500     7.861300
H       0.831000     0.303800     8.514300
C       1.669900     1.655900     7.253400
H       1.079700     2.365300     7.480000
