59
Refcode: ECUROJ_comp_0 | Dataset: tmCAT | Charge: 0 | Potential Spins: [1, 3, 5]
Pd     -4.460700     3.451200     9.349400
Cl     -5.705900     3.135900    11.318000
Cl     -2.489100     3.705900    10.482100
N      -6.034900     3.095500     8.086900
C      -6.013400     3.519600     6.871300
C      -4.832000     4.287800     6.390400
H      -5.036200     5.237400     6.385400
H      -4.610600     4.020400     5.485000
P      -3.411300     3.963800     7.503400
C      -7.123100     2.241400     8.504500
C      -6.837800     0.874800     8.538600
C      -5.484400     0.339900     8.200300
H      -5.516300    -0.618700     8.171200
H      -4.853100     0.621000     8.867900
H      -5.212100     0.677600     7.343100
C      -7.866000     0.022700     8.899000
H      -7.718800    -0.895200     8.919100
C      -9.091200     0.516700     9.225300
H      -9.772300    -0.074800     9.449100
C      -9.348700     1.856100     9.232300
H     -10.191900     2.166600     9.471200
C      -8.344800     2.767200     8.879900
C      -8.584500     4.231200     8.945200
H      -9.473700     4.396600     9.268400
H      -8.487800     4.611900     8.068800
H      -7.947900     4.634600     9.540500
C      -7.104500     3.286100     5.883500
C      -7.847600     4.358100     5.443800
H      -7.685300     5.210200     5.779100
C      -8.839400     4.158700     4.495200
H      -9.362900     4.874800     4.218100
C      -9.057500     2.916700     3.964200
H      -9.712200     2.789800     3.315700
C      -8.304200     1.862900     4.392800
H      -8.446800     1.019800     4.030400
C      -7.333800     2.035100     5.354500
H      -6.835400     1.307700     5.647600
C      -2.439700     2.631200     6.778900
C      -2.102400     1.541100     7.538800
H      -2.371900     1.493500     8.427200
C      -1.359800     0.507700     6.983700
H      -1.133400    -0.235700     7.494700
C      -0.963900     0.596000     5.671700
H      -0.473500    -0.097500     5.296200
C      -1.278600     1.688400     4.904700
H      -0.993800     1.738300     4.021400
C      -2.020700     2.708200     5.456900
H      -2.241100     3.451600     4.942900
C      -2.364000     5.423300     7.478600
C      -2.941900     6.676500     7.514700
H      -3.867100     6.762600     7.547900
C      -2.143400     7.798300     7.503700
H      -2.529700     8.643700     7.517700
C      -0.770900     7.671400     7.470600
H      -0.235000     8.430600     7.446500
C      -0.197100     6.434000     7.474600
H       0.728800     6.350200     7.474600
C      -0.986500     5.307700     7.476600
H      -0.592800     4.464600     7.478600
