80
Refcode: EDISOC_comp_0 | Dataset: tmCAT | Charge: 0 | Potential Spins: [1, 3, 5]
C       0.078400    12.340900    11.528600
C       0.304200    12.589300    10.153600
C       0.560100    13.896200     9.702300
H       0.690500    14.064200     8.777000
C       0.621500    14.929200    10.605700
C       0.462900    14.689100    11.960100
H       0.527500    15.412600    12.572000
C       0.209900    13.405800    12.443000
C       0.380700    11.525700     9.188300
H       0.541300    11.766400     8.283500
C       0.532100     9.202700     8.507200
C      -0.535700     8.642900     7.796600
C      -0.209100     7.619400     6.903700
H      -0.896200     7.204700     6.395600
C       1.102400     7.201600     6.749000
H       1.303600     6.512700     6.125000
C       2.117900     7.766600     7.482800
H       3.009000     7.462100     7.361500
C       1.857500     8.783200     8.404300
C       2.960800     9.392100     9.246600
H       2.534000     9.783000    10.062900
C       3.659100    10.534100     8.503400
H       4.090300    10.183700     7.696800
H       4.336100    10.937300     9.085600
H       2.998000    11.213100     8.251200
C       3.971800     8.352200     9.715300
H       4.494900     8.036900     8.948400
H       3.497800     7.596100    10.122000
H       4.572200     8.755000    10.377300
C      -1.959500     9.104700     8.022000
H      -1.945700    10.100400     8.108300
C      -2.504000     8.529900     9.342200
H      -2.561600     7.554500     9.274200
H      -3.395700     8.898400     9.516200
H      -1.901500     8.772000    10.076300
C      -2.896500     8.753400     6.870900
H      -2.521500     9.091000     6.029800
H      -3.772600     9.163400     7.026200
H      -2.996600     7.779500     6.816600
C       0.104800    13.228900    13.888300
H      -0.027600    14.014900    14.404800
C       0.039600    12.257200    15.990600
C       1.206200    12.369700    16.759300
C       1.049400    12.554000    18.136000
H       1.821400    12.627900    18.683700
C      -0.196600    12.632200    18.716500
H      -0.276200    12.766600    19.653400
C      -1.331300    12.515000    17.935900
H      -2.186000    12.569300    18.346500
C      -1.247700    12.319000    16.553000
C      -2.529700    12.213000    15.737400
H      -2.300600    11.780200    14.865800
C      -3.128000    13.586900    15.431400
H      -3.333500    14.048800    16.271800
H      -3.949400    13.477000    14.909600
H      -2.482900    14.116600    14.917200
C      -3.564800    11.320800    16.441700
H      -3.158100    10.454900    16.654700
H      -4.334700    11.183800    15.850800
H      -3.861000    11.754000    17.268200
C       2.591600    12.399900    16.141100
H       2.539500    11.952800    15.248700
C       3.027000    13.853000    15.915500
H       2.375200    14.303000    15.338300
H       3.908000    13.866900    15.485000
H       3.076700    14.316900    16.776700
C       3.650700    11.666200    16.973300
H       3.809900    12.157800    17.805400
H       4.485200    11.609200    16.462300
H       3.333500    10.763100    17.182500
Cl      0.922900    16.551100    10.067700
Cl      2.700400    10.965900    12.666900
Cl      1.725200     9.075300    15.374900
Cl     -1.622600     9.309700    14.220500
Cl      0.665600     8.147400    11.939900
N       0.248600    10.269600     9.456200
H      -0.029000    10.045000    10.261100
N       0.173900    12.114200    14.534500
O      -0.233500    11.133000    11.938200
Zr      0.580200    10.009600    13.476200
