95
Refcode: EDUCOX_comp_0 | Dataset: tmCAT | Charge: 0 | Potential Spins: [1, 3, 5]
Pt      8.852800     5.316900     5.102400
Cl      8.614700     3.021700     5.095700
P       7.795700     5.351800     3.037900
O       5.850100    10.559700     0.841300
O       2.705500     2.246200     3.087400
O      11.499200     3.487200    -1.266000
C       5.903700     3.523800     1.983200
H       6.455900     3.455400     1.213400
C       9.889200     3.844100     1.949100
H       9.996500     3.493600     2.825700
C       4.699900     2.836400     2.027700
H       4.441900     2.286500     1.298100
C       3.869200     2.950400     3.141100
C      10.746200     3.438400     0.945000
H      11.437000     2.814700     1.134800
C       4.261500     3.728100     4.224800
H       3.705800     3.803300     4.991200
C       8.864800     4.764600     1.693800
C       7.180300     6.952700     2.433500
C       9.597600     4.859500    -0.614700
H       9.501700     5.218500    -1.488900
C       6.310000     4.316400     3.058600
C       7.593400     9.132200     1.467700
H       8.202600     9.791800     1.158300
C       6.219300     9.370600     1.403400
C       5.478600     4.391500     4.170400
H       5.752100     4.913600     4.915700
C       5.333000     8.427500     1.881800
H       4.398600     8.596000     1.864400
C      11.343100     3.957800    -2.602200
H      10.466500     3.683800    -2.945100
H      12.047500     3.578400    -3.167600
H      11.405800     4.936300    -2.613500
C      10.600500     3.941500    -0.343300
C       5.821100     7.227800     2.390000
H       5.206400     6.579400     2.715500
C       4.445600    10.781800     0.662300
H       4.065500    10.057100     0.123500
H       4.306100    11.637100     0.205100
H       4.004300    10.804600     1.537900
C       8.736900     5.249000     0.397100
H       8.040700     5.863900     0.200000
C       8.068100     7.943500     1.978100
H       9.004700     7.792300     2.022600
C       1.851600     2.294300     4.240100
H       2.330100     1.936100     5.015700
H       1.048700     1.756600     4.073800
H       1.592400     3.223000     4.415600
Cl      9.090800     7.612000     5.109200
P       9.909800     5.281900     7.167000
O      11.855400     0.074000     9.363600
O      15.000000     8.387500     7.117500
O       6.206300     7.146500    11.470900
C      11.801900     7.109900     8.221700
H      11.249600     7.178300     8.991500
C       7.816300     6.789600     8.255700
H       7.709000     7.140100     7.379100
C      13.005700     7.797300     8.177200
H      13.263600     8.347200     8.906800
C      13.836300     7.683300     7.063800
C       6.959300     7.195300     9.259900
H       6.268500     7.819000     9.070100
C      13.444000     6.905600     5.980100
H      13.999700     6.830400     5.213700
C       8.840700     5.869100     8.511100
C      10.525200     3.681000     7.771400
C       8.107900     5.774200    10.819600
H       8.203900     5.415200    11.693800
C      11.395500     6.317300     7.146300
C      10.112100     1.501600     8.737200
H       9.502900     0.841900     9.046600
C      11.486200     1.263100     8.801500
C      12.226900     6.242200     6.034400
H      11.953400     5.720100     5.289200
C      12.372500     2.206200     8.323100
H      13.306900     2.037700     8.340400
C       6.362400     6.675900    12.807100
H       7.239000     6.949900    13.150000
H       5.658000     7.055300    13.372500
H       6.299700     5.697400    12.818300
C       7.105000     6.692200    10.548200
C      11.884400     3.405900     7.814900
H      12.499100     4.054300     7.489400
C      13.259900    -0.148100     9.542600
H      13.640000     0.576600    10.081400
H      13.399400    -1.003400     9.999700
H      13.701200    -0.170900     8.667000
C       8.968600     5.384700     9.807800
H       9.664900     4.769800    10.004900
C       9.637400     2.690200     8.226800
H       8.700800     2.841400     8.182300
C      15.853900     8.339500     5.964700
H      15.375400     8.697600     5.189200
H      16.656900     8.877100     6.131100
H      16.113100     7.410700     5.789200
