107
Refcode: EDUYIL_comp_0 | Dataset: tmCAT | Charge: 1 | Potential Spins: [1, 3, 5]
Ir      1.657600     4.256300    11.276900
O      -0.949900     5.158400    12.624500
O      -1.205300     3.136900    11.623100
O       0.510800     3.200900     8.674200
O       1.048500     1.495900    10.113100
N       1.091000     5.759400     9.960900
N       3.324600     4.350200     9.835700
C       3.064700     5.725500    12.472300
C       1.904300     5.650100    13.194000
C       1.711600     4.921000    14.457000
C       1.243400     3.440200    14.321700
C       1.541300     2.850500    12.979700
C       2.822800     2.818500    12.382000
C       3.994500     3.411900    13.137600
C       4.314800     4.907800    12.788000
C      -0.035800     6.482800    10.025200
C      -0.416700     7.417300     9.044100
C       0.385300     7.660300     7.984000
C       1.604100     6.965100     7.916400
C       1.908700     6.053300     8.874900
C       3.152100     5.241300     8.807300
C       4.068400     5.320400     7.781100
C       5.208700     4.491500     7.747200
C       5.327400     3.583400     8.762200
C       4.373100     3.511800     9.788300
C       0.053800     8.715400     6.901500
C      -1.404700     9.175100     7.025500
C       1.023800     9.913600     7.104400
C       0.242000     8.125700     5.548200
C       6.172000     4.604500     6.608300
C       6.828400     6.010000     6.585700
C       5.439400     4.389700     5.277600
C       7.289900     3.523100     6.698500
C      -2.368000     4.743900    12.878200
C      -2.594300     3.658700    11.795600
C      -2.464300     4.271000    14.299100
C      -3.244000     5.981700    12.686500
C      -3.429900     2.500100    12.269300
C      -3.044600     4.144800    10.442400
C       0.531000     1.995200     7.860000
C       0.432400     0.885500     8.920000
C      -0.602600     2.053600     6.856400
C       1.852700     2.034700     7.093200
C      -0.979000     0.523800     9.303400
C       1.234400    -0.393800     8.593000
B      -0.340500     4.131600    11.976100
B       0.945400     2.880600     9.912400
H       3.093900     6.320800    11.733600
H       1.151500     6.115500    12.845500
H       2.540500     4.922900    14.921600
H       1.059700     5.386400    14.965600
H       1.684700     2.922100    14.979100
H       0.306900     3.406300    14.461500
H       0.819900     2.471800    12.490300
H       2.948200     2.430400    11.529500
H       3.806300     3.359200    14.069100
H       4.765100     2.891900    12.943600
H       4.888300     4.926700    12.031300
H       4.758400     5.305300    13.530000
H      -0.611600     6.354700    10.764900
H      -1.238900     7.884500     9.138800
H       2.215700     7.136600     7.213800
H       3.929500     5.947800     7.086400
H       6.071200     2.991800     8.776800
H       4.469400     2.850500    10.458200
H      -1.543600     9.570700     7.874700
H      -1.595100     9.811900     6.343300
H      -1.982700     8.427100     6.922900
H       1.919900     9.608400     7.034500
H       0.860300    10.569200     6.433500
H       0.882700    10.294200     7.960400
H      -0.347200     7.387200     5.435500
H       0.049300     8.781300     4.882900
H       1.140300     7.831800     5.446700
H       7.296700     6.147500     7.404400
H       7.435600     6.060800     5.861700
H       6.154100     6.669400     6.492100
H       4.780800     5.069800     5.165900
H       6.064500     4.444400     4.561500
H       5.022800     3.541900     5.273100
H       6.893400     2.660200     6.697400
H       7.867900     3.606000     5.946300
H       7.787300     3.645500     7.494600
H      -3.356000     3.997800    14.475000
H      -1.877400     3.534400    14.423200
H      -2.224600     4.975600    14.882100
H      -2.986300     6.654300    13.302200
H      -3.138700     6.309500    11.797900
H      -4.155800     5.751900    12.827500
H      -4.330500     2.784600    12.388800
H      -3.400800     1.801100    11.631000
H      -3.089400     2.185400    13.101500
H      -2.489000     4.872000    10.170600
H      -2.986300     3.445800     9.815400
H      -3.945200     4.451900    10.505600
H      -1.431600     2.110100     7.321000
H      -0.497300     2.816600     6.302700
H      -0.593700     1.267900     6.323000
H       2.574100     2.034700     7.710000
H       1.915500     1.264200     6.536100
H       1.886300     2.816600     6.559800
H      -1.456200     1.313100     9.532400
H      -1.406900     0.098000     8.567100
H      -0.963300    -0.065900    10.045500
H       1.191800    -0.989100     9.331600
H       0.860300    -0.813900     7.826200
H       2.139500    -0.165800     8.419300
