39
Refcode: EFAPUW_comp_0 | Dataset: tmCAT | Charge: 0 | Potential Spins: [1, 3, 5]
Pd      3.002000     2.689300     2.237700
Br      0.958500     3.589100     3.463300
S       4.454200     2.980300     4.011600
S       1.883100     2.309300     0.273400
C       5.804000     1.805600     1.950400
C       5.819500     1.913400     3.450300
H       6.683400     2.293600     3.748300
H       5.724400     1.012200     3.849900
C       5.214900     4.623400     3.717800
H       5.720100     4.593500     2.856000
C       4.594100     2.020200     1.261900
C       0.693500     3.819400    -1.711900
H       0.313300     4.681100    -1.984400
H      -0.006300     3.133900    -1.727700
H       1.410300     3.568500    -2.330600
C       3.262100     1.959400    -0.873200
H       3.071000     1.129700    -1.378000
H       3.349300     2.701500    -1.522700
C       4.548200     1.801300    -0.117700
C       6.187800     4.955500     4.838800
H       6.617400     5.817200     4.654300
H       6.870900     4.256100     4.897200
H       5.700900     5.008900     5.687900
C       4.121300     5.665600     3.602200
H       3.574400     5.657000     4.414900
H       3.558000     5.462700     2.826700
H       4.524800     6.551800     3.489900
C       1.260400     3.937900    -0.297700
H       0.494600     4.177100     0.299700
C       2.281400     5.051600    -0.164200
H       3.084900     4.822000    -0.677000
H       2.517900     5.165900     0.780300
H       1.901800     5.886600    -0.509900
C       6.950400     1.450000     1.247300
H       7.773800     1.346500     1.708800
C       6.897600     1.246100    -0.121300
H       7.683800     1.001600    -0.596000
C       5.697600     1.398800    -0.800800
H       5.657900     1.229000    -1.734600
