74
Refcode: EFULAU_comp_0 | Dataset: tmCAT | Charge: unknown | Potential Spins: [1, 3, 5]
Rh      4.279300     0.125400     2.215000
Cl      2.013100    -0.518700     2.351800
N       3.362600     2.877500     1.368700
N       4.158100     1.578700    -0.373900
C       3.855500     1.695000     0.946500
C       3.015600     2.970600     2.820300
H       3.313700     2.120600     3.208000
C       1.515200     3.011700     3.066200
H       1.090400     2.301500     2.579400
H       1.165500     3.855800     2.771100
H       1.342000     2.904100     4.003300
C       3.831800     4.042600     3.543200
H       4.761000     3.933100     3.332600
H       3.706700     3.954600     4.490100
H       3.538700     4.912200     3.261700
C       3.119100     3.981000     0.513400
C       2.496900     5.150800     0.913200
H       2.176000     5.233000     1.782200
C       2.347400     6.216000     0.005200
H       1.903700     6.985800     0.277900
C       2.839400     6.146600    -1.270000
H       2.730000     6.865500    -1.849300
C       3.513000     4.985500    -1.707300
C       4.088600     4.864200    -2.997000
H       4.033900     5.573400    -3.595100
C       4.722500     3.716900    -3.365000
H       5.126900     3.669900    -4.200700
C       4.782800     2.597900    -2.509300
H       5.207300     1.817400    -2.784500
C       4.205600     2.673200    -1.258300
C       3.615200     3.876300    -0.814500
C       4.462300     0.232800    -0.903600
H       4.303100    -0.414700    -0.199300
H       5.407000     0.197600    -1.123000
C       3.672900    -0.192100    -2.127900
C       2.295400     0.037200    -2.261500
C       1.469600     0.732600    -1.202100
H       0.556700     0.787400    -1.492900
H       1.812900     1.617800    -1.059800
H       1.516200     0.235700    -0.383300
C       1.646300    -0.418600    -3.411300
H       0.735800    -0.257200    -3.507000
C       2.317400    -1.105300    -4.418600
C       1.588100    -1.567900    -5.664600
H       2.205100    -2.013000    -6.251200
H       1.209900    -0.808900    -6.115200
H       0.886300    -2.175400    -5.417600
C       3.661000    -1.371300    -4.242300
H       4.114500    -1.857500    -4.892500
C       4.353600    -0.933900    -3.118300
C       5.800000    -1.327300    -2.973800
H       6.074800    -1.828100    -3.746500
H       5.907100    -1.868200    -2.188500
H       6.339800    -0.538000    -2.895600
C       6.040000     1.069100     2.884100
H       6.077000     2.024700     2.673300
C       6.265100     0.763900     4.344000
H       5.740700     1.381100     4.877200
H       7.200200     0.914600     4.555200
C       5.894600    -0.664200     4.735600
H       6.659300    -1.243200     4.589700
H       5.678800    -0.689600     5.680100
C       4.722300    -1.183500     3.945400
H       3.939300    -1.406600     4.490100
C       4.824800    -1.915200     2.776300
H       4.097600    -2.560700     2.654200
C       6.077400    -2.278100     2.037700
H       5.841100    -2.584200     1.147900
H       6.514000    -3.012600     2.497000
C       7.054000    -1.119000     1.919200
H       7.626600    -1.108200     2.702100
H       7.617200    -1.259800     1.142200
C       6.363500     0.237700     1.792200
H       6.580400     0.722800     0.969700
