48
Refcode: EGICUT_comp_0 | Dataset: tmCAT | Charge: unknown | Potential Spins: [1, 3, 5]
Rh      8.286100    11.871100     7.381900
Cl      9.426400    11.652300     5.188100
Cl      7.796900    13.319900    10.278200
Cl      7.093400    10.537200    10.063000
C      10.236200    13.783400     8.091800
H      10.726500    14.595400     8.154300
C      10.760800    12.549600     8.656500
C      11.930600    12.457900     9.390500
H      12.480200    13.222000     9.525100
C      12.284500    11.224200     9.928900
H      13.070200    11.136500    10.454700
C      11.488800    10.136900     9.691600
H      11.721100     9.289300    10.052400
C      10.331300    10.273900     8.916000
H       9.789300     9.512500     8.748100
C       8.488500    14.967800     7.019300
C       8.564100    16.131700     7.776900
H       9.020200    16.126200     8.610800
C       7.976100    17.301100     7.316200
H       8.037300    18.096700     7.832400
C       7.295100    17.312100     6.103600
C       7.220400    16.142700     5.337700
H       6.773300    16.149500     4.499600
C       7.803200    14.969200     5.808000
H       7.732800    14.168100     5.301600
C       5.993000    18.566300     4.520400
H       6.575800    18.360900     3.761500
H       5.620900    19.466000     4.412200
H       5.264000    17.913200     4.557900
C       6.698400     9.490600     6.769600
C       5.682200    10.261500     6.202100
H       4.915100     9.793200     5.896800
C       5.671500    11.641800     6.037000
C       6.549700     7.989900     6.825100
H       7.268100     7.569500     6.306100
H       5.682300     7.733800     6.447700
H       6.602000     7.690000     7.756100
C       4.530200    12.318200     5.355700
H       4.062500    12.896100     5.995300
H       3.909100    11.643200     5.010200
H       4.868800    12.860500     4.612000
C       7.242900    12.060800     9.135200
H       6.311500    12.315500     8.874400
N       9.084600    13.745000     7.499400
N       9.978700    11.455600     8.408200
O       7.792500     9.927400     7.273200
O       6.591600    12.445600     6.440700
O       6.747700    18.506100     5.730300
