78
Refcode: EGISES_comp_0 | Dataset: tmCAT | Charge: unknown | Potential Spins: [1, 3, 5]
Zr     -1.373600     2.565500     2.102800
N       1.584200    -0.947000     3.852600
N      -3.381800     2.824400     1.847300
N      -0.520000     4.349800     1.738700
B       0.678900     0.104500     3.699500
B       0.547700     2.664000     4.961300
H       1.318000     3.086700     4.299800
B      -0.912300     3.576900     5.436200
H      -1.080300     4.612600     5.108400
B      -2.225800     2.429800     5.562600
H      -3.258500     2.716300     5.312800
B      -1.581400     0.825600     5.185400
H      -2.184100     0.064900     4.668100
B       0.940600     1.579700     6.323800
H       1.981200     1.318600     6.567700
B       0.302700     3.167400     6.666400
H       0.929800     3.941400     7.134400
B      -1.428900     3.012600     7.041600
H      -1.935100     3.673900     7.760400
B      -1.867100     1.288000     6.883600
H      -2.661500     0.824700     7.486900
B      -0.383200     0.403200     6.455100
H      -0.213300    -0.633200     6.782900
B      -0.285800     1.768100     7.584600
H      -0.054600     1.624100     8.650000
C      -1.000900     2.219200     4.392600
C       0.109000     1.003600     4.928700
C       2.224700    -1.305900     5.146900
H       1.839800    -0.702800     5.817300
C       3.731700    -1.013100     5.127200
H       3.877300    -0.104500     4.850700
H       4.164800    -1.608200     4.511100
H       4.094200    -1.141300     6.005900
C       1.873800    -2.727300     5.606000
H       0.919600    -2.836600     5.609000
H       2.215200    -2.871400     6.490700
H       2.265900    -3.363700     5.003800
C       2.047500    -1.849300     2.739800
H       2.734700    -2.423400     3.136700
C       0.968400    -2.774800     2.281700
H       0.565000    -3.197500     3.042900
H       1.344200    -3.444400     1.705100
H       0.302800    -2.276200     1.800900
C       2.727100    -1.136500     1.599500
H       3.403200    -0.549300     1.946000
H       2.078600    -0.623700     1.110700
H       3.132200    -1.780800     1.015000
C       0.136300     0.542900     2.273800
C       0.788100     1.485100     1.427700
H       1.677600     1.863100     1.592600
C       0.027400     1.693500     0.245800
H       0.318600     2.203400    -0.538100
C      -2.157100     0.536600    -0.611200
H      -2.223900     1.009900    -1.408900
C      -3.069800    -0.398900    -0.315000
H      -3.756700    -0.574600    -0.916200
C      -3.004700    -1.123900     0.904400
H      -3.641200    -1.779200     1.077200
C      -2.021300    -0.882500     1.835400
H      -2.006700    -1.350200     2.639100
C      -1.018100     0.101100     1.547100
C      -1.078600     0.811200     0.293200
C      -4.386600     1.899500     2.311300
H      -5.256400     2.227100     2.072400
H      -4.327200     1.814000     3.265100
H      -4.243900     1.041500     1.903600
C      -3.970200     3.775200     0.897500
H      -4.927500     3.724600     0.945900
H      -3.683700     3.556800     0.006900
H      -3.684500     4.664800     1.116700
C       0.738200     4.838900     1.164100
H       0.741400     5.798200     1.172900
H       0.819500     4.527100     0.259700
H       1.476000     4.511300     1.683400
C      -1.324300     5.465800     2.251100
H      -0.879700     6.293600     2.059600
H      -1.432300     5.372400     3.200900
H      -2.186100     5.457800     1.829500
