56
Refcode: EGIXIB_comp_0 | Dataset: tmCAT | Charge: 0 | Potential Spins: [1, 3, 5]
Co      4.254500     9.795900     2.964300
O       2.775700     9.271000     4.060500
C       2.681200     9.588600     5.330400
C       1.730900     8.918800     6.124000
H       1.163900     8.272000     5.719300
C       1.602500     9.172400     7.460900
H       0.946900     8.707500     7.966500
C       2.430900    10.118800     8.096500
H       2.366300    10.268700     9.032300
C       3.324300    10.810400     7.346600
H       3.863900    11.467400     7.769600
C       3.481100    10.587500     5.958700
C       4.402800    11.416200     5.257500
H       4.824600    12.103900     5.759400
N       4.729100    11.331600     4.000900
C       5.642300    12.278100     3.439400
C       5.907900    13.539600     3.977800
H       5.451900    13.825200     4.760400
C       6.830900    14.372000     3.375000
H       7.025300    15.219800     3.757800
C       7.472000    13.980100     2.220400
H       8.101800    14.560300     1.809600
C       7.204800    12.748100     1.656500
H       7.652600    12.485500     0.860500
C       6.272600    11.879800     2.252000
S       5.913700    10.319600     1.555900
O       5.383200     8.850700     4.155900
C       5.351100     7.561300     4.333800
C       5.895200     7.038700     5.533400
H       6.208700     7.631700     6.206700
C       5.972400     5.677300     5.735100
H       6.355100     5.346900     6.539700
C       5.506300     4.778300     4.787200
H       5.581500     3.843400     4.937900
C       4.934100     5.245700     3.635000
H       4.615600     4.629700     2.986100
C       4.813800     6.648100     3.398000
C       4.118200     7.045100     2.221600
H       3.840700     6.354800     1.632200
N       3.827500     8.265600     1.875500
C       3.028100     8.492300     0.696400
C       2.725900     7.519000    -0.254000
H       3.140500     6.667300    -0.201700
C       1.835700     7.777700    -1.267600
H       1.617100     7.091200    -1.886200
C       1.250300     9.026400    -1.401300
H       0.605600     9.185200    -2.079400
C       1.621400    10.047100    -0.526200
H       1.279000    10.925700    -0.641700
C       2.497200     9.766600     0.515300
S       2.955700    11.046300     1.656200
C       1.407200    11.297100     2.498700
H       0.933500    10.550400     2.847500
C       0.919100    12.495800     2.643300
H       1.389500    13.245000     2.297000
H       0.093600    12.620000     3.094200
