87
Refcode: EGUDEP_comp_0 | Dataset: tmCAT | Charge: -1 | Potential Spins: [1, 3, 5]
Ta      3.535400     7.771900    14.276200
N       2.662900     9.447400    13.237400
N       2.371000     8.553900    15.818400
N       4.721600     7.243300    15.924000
N       4.387600     5.940900    13.598500
C       2.677600     9.497100    11.848600
H       3.109600     8.873500    11.294100
C       1.978200    10.575800    11.407600
H       1.841400    10.825000    10.511700
C       1.498200    11.249100    12.545500
H       0.988100    12.038200    12.556000
C       1.916900    10.533700    13.631900
C       1.991300     7.714400    16.877500
H       2.342300     6.856200    17.034000
C       1.051100     8.313200    17.640600
H       0.636800     7.955700    18.404200
C       0.811700     9.572700    17.072200
H       0.208000    10.216400    17.394000
C       1.605600     9.703200    15.971600
C       1.826700    10.916200    15.099900
C       3.448100    11.775900    16.888500
H       2.835100    11.479500    17.535400
C       4.624600    12.388000    17.294800
H       4.796000    12.519100    18.209500
C       5.545100    12.805500    16.348900
H       6.351400    13.207600    16.618900
C       5.269900    12.628700    15.011700
H       5.890200    12.918200    14.367000
C       4.087500    12.029100    14.606300
H       3.914700    11.920500    13.689200
C       3.158700    11.589900    15.530200
C       0.756800    13.180800    15.717000
H       1.606600    13.526800    15.920900
C      -0.366500    13.987800    15.860300
H      -0.267500    14.871700    16.161500
C      -1.615300    13.510900    15.571900
H      -2.372300    14.055600    15.687600
C      -1.744600    12.229800    15.109100
H      -2.595500    11.898600    14.892300
C      -0.635800    11.418700    14.961400
H      -0.744600    10.541700    14.642500
C       0.635900    11.874400    15.273400
C       5.200800     8.251800    16.742800
H       4.935100     9.152900    16.694200
C       6.101400     7.765300    17.621300
H       6.578300     8.255000    18.266400
C       6.192100     6.367700    17.381500
H       6.727700     5.756700    17.855000
C       5.363100     6.072400    16.342600
C       4.445900     5.653600    12.242600
H       4.151900     6.231600    11.562300
C       4.983400     4.428000    12.028300
H       5.122200     4.012700    11.196800
C       5.296300     3.896200    13.303000
H       5.680400     3.057000    13.479900
C       4.931200     4.840400    14.234200
C       4.961100     4.736500    15.745800
C       3.330600     4.414800    17.675200
H       4.002500     4.727100    18.253600
C       2.108100     4.037100    18.194800
H       1.961600     4.080600    19.122300
C       1.101600     3.597700    17.366400
H       0.265700     3.354300    17.719100
C       1.333700     3.519900    16.014600
H       0.648500     3.220600    15.443300
C       2.568200     3.876700    15.476400
H       2.717600     3.803200    14.550700
C       3.583400     4.342000    16.308800
C       5.647000     2.402900    16.578400
H       4.739100     2.214900    16.736400
C       6.603800     1.414700    16.820900
H       6.335300     0.570700    17.136800
C       7.931200     1.668200    16.596800
H       8.576200     1.003700    16.765800
C       8.312100     2.897300    16.122900
H       9.220100     3.074900    15.961300
C       7.365400     3.881100    15.884300
H       7.642700     4.719100    15.562700
C       6.007300     3.649000    16.111500
C       5.272900     8.659200    13.305400
H       5.874500     9.013200    13.977600
H       4.984300     9.376400    12.719400
H       5.733400     7.981600    12.783700
C       1.792800     6.791300    13.421600
H       1.201700     6.503000    14.135600
H       2.075400     6.020100    12.905000
H       1.323400     7.412900    12.842500
