81
Refcode: EGUDAL_comp_0 | Dataset: tmCAT | Charge: -1 | Potential Spins: [1, 3, 5]
Ta      4.666500     4.477900    10.904500
Cl      3.037600     4.920000    12.574100
Cl      6.212800     4.048500    12.654800
N       5.081200     6.527000    10.784400
N       6.181500     4.312500     9.486700
N       4.269800     2.433600    10.779100
N       3.252100     4.639000     9.390200
C       7.725500     7.849800     7.614200
H       6.876500     7.547400     7.349900
C       8.447500     8.676800     6.763200
H       8.082100     8.935900     5.937300
C       9.697500     9.118000     7.129200
H      10.195700     9.664300     6.546500
C      10.210100     8.762600     8.335700
H      11.056700     9.079000     8.592100
C       9.494000     7.932400     9.199900
H       9.867300     7.690500    10.027200
C       8.234100     7.460300     8.847100
C       9.148900     5.201900    11.089600
H       9.224800     4.627300    10.350900
C       9.954100     5.006500    12.195700
H      10.573800     4.298900    12.203600
C       9.854600     5.830800    13.271300
H      10.420200     5.703700    14.010000
C       8.925400     6.854100    13.285900
H       8.843100     7.404300    14.043100
C       8.111000     7.065800    12.174500
H       7.482400     7.765300    12.181100
C       8.222100     6.247400    11.057900
C       7.412000     6.529000     9.777400
C       4.160500     7.528900    11.161000
H       3.356000     7.365300    11.619500
C       4.579100     8.738200    10.784400
H       4.129800     9.553800    10.919200
C       5.841600     8.557800    10.132900
H       6.381800     9.235100     9.768200
C       6.112200     7.235900    10.142100
C       6.260300     3.231000     8.609300
H       5.730800     2.455100     8.660800
C       7.204700     3.460900     7.679000
H       7.446300     2.877800     6.982600
C       7.761100     4.716700     7.928700
H       8.445700     5.124800     7.430500
C       7.139300     5.251700     9.025500
C       0.258400     3.759400    10.843800
H       0.271000     4.383400    10.140800
C      -0.597300     3.940200    11.905000
H      -1.160500     4.692300    11.918200
C      -0.645100     3.040400    12.948900
H      -1.238400     3.164000    13.666500
C       0.192600     1.960800    12.911900
H       0.187300     1.343000    13.621500
C       1.052500     1.761200    11.837600
H       1.605400     1.001600    11.821700
C       1.108300     2.658000    10.801500
C      -0.009200     1.113400     8.679300
H      -0.499800     1.398300     9.429900
C      -0.628300     0.328400     7.716000
H      -1.530200     0.084500     7.824300
C       0.065000    -0.098900     6.598000
H      -0.357600    -0.617800     5.938600
C       1.388900     0.254600     6.473800
H       1.876300    -0.042300     5.727200
C       2.016400     1.037300     7.423900
H       2.919900     1.271500     7.311600
C       1.317200     1.485700     8.552400
C       2.022400     2.399200     9.595100
C       5.185700     1.441200    11.219100
H       5.952200     1.606400    11.737100
C       4.796500     0.232800    10.788300
H       5.242400    -0.578800    10.945600
C       3.599900     0.398000    10.054900
H       3.103600    -0.286200     9.645300
C       3.292100     1.725400    10.049600
C       3.175500     5.745600     8.540500
H       3.682900     6.529600     8.639700
C       2.268500     5.531600     7.548100
H       2.044500     6.123100     6.853100
C       1.726000     4.237400     7.772800
H       1.062500     3.820900     7.253500
C       2.332500     3.706100     8.864300
