77
Refcode: EHUROO_comp_0 | Dataset: tmCAT | Charge: 1 | Potential Spins: [1, 3, 5]
Ru     10.643000     9.832200    11.186500
P       8.603600    10.805300    11.655700
P       9.913600     8.448800    12.906100
Cl     11.599100    11.378600    12.755300
C      10.189600     9.539800     9.016100
C      11.098000    10.646300     9.129000
H      10.781400    11.543300     8.895700
C      12.323300    10.513800     9.773700
C      12.673100     9.253900    10.278800
H      13.450500     9.185500    10.871600
C      11.844200     8.154100    10.142200
C      10.601700     8.334200     9.543500
H       9.949800     7.603300     9.596900
C       8.904100     9.623200     8.236100
H       9.082400     9.459100     7.307600
H       8.523300    10.498800     8.338600
H       8.286700     8.965700     8.564500
C      13.257900    11.700600     9.858400
H      13.838600    11.705800     9.093300
H      13.782600    11.637600    10.659100
H      12.744200    12.510800     9.874700
C      12.326100     6.799400    10.598200
H      12.807500     6.374300     9.885100
H      11.573100     6.257800    10.844800
H      12.906400     6.906000    11.357400
C       7.415200     9.564300    12.352700
H       7.150200     8.839300    11.748100
C       8.333200     9.153700    13.548600
H       7.878800     8.529400    14.153300
C       8.707300    10.507300    14.284000
H       8.238800    10.581100    15.129300
H       9.661900    10.557700    14.447400
C       8.260800    11.612400    13.312400
H       8.676200    12.488900    13.450600
C       6.757900    11.600600    13.302000
C       5.976900    12.782200    13.820500
H       5.037100    12.604100    13.741800
H       6.199100    13.563000    13.308000
H       6.197400    12.931600    14.743000
C       6.290500    10.454400    12.851900
C       4.860900     9.942500    12.758300
H       4.261400    10.603800    13.111900
H       4.778000     9.132000    13.266400
H       4.642200     9.769500    11.840200
C       7.811600    11.946200    10.501700
C       6.668000    11.650900     9.790100
H       6.282400    10.806200     9.839100
C       6.095000    12.660900     8.986400
H       5.327400    12.475600     8.494600
C       6.657100    13.918000     8.918000
H       6.265500    14.574000     8.387700
C       7.769800    14.194500     9.614800
H       8.142900    15.045200     9.571700
C       8.363300    13.220800    10.396200
H       9.144500    13.420900    10.858200
C      10.967000     8.294700    14.382000
C      10.408900     7.966700    15.624000
H       9.489200     7.856700    15.711700
C      11.242400     7.806100    16.726300
H      10.871000     7.600500    17.553800
C      12.595500     7.946800    16.616400
H      13.142800     7.847300    17.362100
C      13.128200     8.232000    15.408600
H      14.051400     8.306300    15.323900
C      12.323500     8.419900    14.282500
H      12.711000     8.629600    13.463900
C       9.541000     6.709500    12.496800
C       8.643100     6.400000    11.489600
H       8.230400     7.098600    11.035000
C       8.330100     5.101100    11.124100
H       7.710400     4.933500    10.451200
C       8.946300     4.075000    11.770400
H       8.746000     3.196500    11.537100
C       9.871400     4.328700    12.774600
H      10.285400     3.618500    13.209900
C      10.186400     5.641500    13.137100
H      10.819600     5.806900    13.798200
