74
Refcode: EJEKAH_comp_0 | Dataset: tmCAT | Charge: unknown | Potential Spins: [1, 3, 5]
Ru      3.126800     2.162800    10.299700
Cl      4.188900    -0.010400    10.125500
P       1.221200     1.214800    10.872700
P       2.848800     2.186000     8.045300
N       0.839300     1.394300    12.538700
N       0.916100    -0.471300    10.787700
N      -0.230000     1.812200    10.187700
N       2.142600     0.878900     7.178700
N       1.956500     3.427700     7.263500
N       4.333400     2.335900     7.211100
C       2.969200     3.499900    12.058100
H       2.222100     3.497300    12.643400
C       4.127500     2.706100    12.209800
H       4.259900     2.017500    12.849200
C       5.074800     3.140700    11.204800
C       6.435500     2.798900    10.976100
H       6.857700     2.114300    11.481700
C       7.118100     3.479100    10.011800
H       8.036200     3.280700     9.871600
C       6.503200     4.467300     9.218000
H       7.016300     4.915800     8.555500
C       5.183800     4.796000     9.376300
H       4.773600     5.446800     8.820200
C       4.443600     4.138400    10.395100
C       3.095200     4.303400    10.892300
H       2.418200     4.848700    10.508800
C       1.651900     0.919700    13.561200
H       2.483100     0.473500    13.454600
C       1.044600     1.208600    14.743200
H       1.375500     0.997700    15.608800
C      -0.166000     1.877600    14.457900
H      -0.794300     2.194800    15.096500
C      -0.274200     1.989700    13.102100
H      -0.987100     2.402800    12.628700
C       0.097400    -1.190800    11.673400
H      -0.243800    -0.870300    12.501200
C      -0.125100    -2.425200    11.145500
H      -0.634800    -3.120700    11.543000
C       0.542200    -2.486900     9.893900
H       0.545800    -3.227100     9.298100
C       1.177300    -1.296300     9.697100
H       1.707900    -1.068700     8.942700
C      -1.446500     1.151600    10.040400
H      -1.604000     0.231000    10.217100
C      -2.371900     2.048500     9.601700
H      -3.283300     1.862200     9.410800
C      -1.731900     3.315900     9.479200
H      -2.139300     4.127000     9.200100
C      -0.422800     3.148700     9.837500
H       0.242000     3.827100     9.847100
C       0.778300     0.594200     7.102700
H       0.096500     1.007300     7.619300
C       0.585700    -0.371800     6.167000
H      -0.248500    -0.749500     5.911200
C       1.863500    -0.714500     5.639400
H       2.036100    -1.365800     4.970100
C       2.795500     0.058800     6.267500
H       3.731700     0.039300     6.109700
C       1.349400     3.365600     6.002600
H       1.227800     2.580100     5.482300
C       0.964600     4.620600     5.650200
H       0.524900     4.865000     4.845100
C       1.336400     5.497500     6.696600
H       1.182900     6.435000     6.724800
C       1.953800     4.753600     7.653900
H       2.322800     5.091200     8.462400
C       4.528500     2.945700     5.969800
H       3.884600     3.462800     5.501900
C       5.789400     2.677300     5.543600
H       6.183000     2.972100     4.729900
C       6.414900     1.873400     6.536600
H       7.301000     1.533500     6.504300
C       5.515900     1.677100     7.546800
H       5.669600     1.177900     8.339900
