39
Refcode: EJENEN_comp_0 | Dataset: tmCAT | Charge: unknown | Potential Spins: [1, 3, 5]
Ag      2.325900     7.784900     3.271600
C       5.178500     4.771900     7.144600
H       4.840300     3.884500     7.173000
C       6.133400     5.159100     8.064700
H       6.449400     4.546100     8.717400
C       6.626300     6.461800     8.020600
H       7.293000     6.739500     8.636300
C       6.141900     7.348000     7.074900
H       6.462500     8.242100     7.062100
C       5.197900     6.947300     6.152000
H       4.885500     7.558000     5.493500
C       4.703500     5.640000     6.186100
C       3.662600     5.194100     5.186400
H       3.437300     4.244700     5.354200
H       2.839300     5.729200     5.314300
N       4.121200     5.342000     3.816900
C       3.696900     6.297000     2.948000
C       5.089800     4.531400     3.222500
C       5.265400     5.007800     1.941200
C       6.177300     4.442200     1.065100
H       6.292900     4.770700     0.180600
C       6.909600     3.375400     1.547200
H       7.557400     2.969000     0.982700
C       6.728700     2.876400     2.831400
H       7.250400     2.137000     3.120100
C       5.801900     3.434100     3.703100
H       5.662300     3.088700     4.576300
N       4.398400     6.097200     1.813200
C       4.230400     6.885200     0.601500
H       3.609800     7.623500     0.775000
H       3.870200     6.316200    -0.110900
H       5.097900     7.246400     0.322800
O       0.905500     9.263800     3.708800
O       1.241100     9.836100     1.587100
C       0.694000     9.990800     2.679200
C      -0.339900    11.094800     2.875500
H      -0.013200    11.924600     2.467300
H      -0.487700    11.238200     3.834000
H      -1.182900    10.831800     2.450300
