72
Refcode: EJUWIQ_comp_0 | Dataset: tmCAT | Charge: -4 | Potential Spins: [1, 3, 5]
Pd      8.357300     4.756400    11.868300
O       8.783800     6.723300    11.392600
O       9.818400     6.232300     9.443900
O       7.127800     4.800000    10.182000
O       5.331200     5.607600    11.290400
F       9.402700     9.293600    10.972600
F      10.186900     8.845800     9.043800
F       8.061100     8.762000     9.381800
F       5.663200     6.864200     8.573400
F       5.665300     4.834100     7.931400
F       3.992800     5.612500     9.014900
N      10.850100     5.275900    13.539700
N       9.370600     4.117000    14.567900
N       7.763400     2.589300    13.780800
N       7.372000     1.877600    11.806900
C       9.606700     4.742000    13.389100
C      11.362800     4.981500    14.797000
H      12.206800     5.250100    15.137600
C      10.443500     4.251800    15.437400
H      10.512300     3.895900    16.314900
C      11.579500     6.046100    12.549300
C      12.309100     5.374600    11.580800
C      13.015700     6.160900    10.651600
H      13.534700     5.728900     9.984500
C      12.979400     7.541000    10.676700
C      12.248800     8.150900    11.689100
H      12.233700     9.099000    11.728400
C      11.536500     7.434200    12.649800
C      12.352400     3.874800    11.521200
H      12.671500     3.523800    12.379800
H      12.960600     3.593300    10.807000
H      11.453000     3.528600    11.340700
C      13.707900     8.372600     9.656400
H      14.450900     7.854900     9.282900
H      14.056200     9.183100    10.083400
H      13.090500     8.621700     8.936000
C      10.743600     8.131500    13.712400
H       9.793800     7.918000    13.602500
H      10.873300     9.099000    13.633900
H      11.047200     7.832200    14.594500
C       8.103800     3.480100    14.883400
H       7.397300     4.166100    14.997900
H       8.181000     2.967200    15.726300
C       7.794200     2.973700    12.484900
C       7.335500     1.286200    13.925900
H       7.242500     0.804100    14.738900
C       7.078800     0.836400    12.687400
H       6.758500    -0.027500    12.455100
C       7.195500     1.768400    10.381600
C       5.899600     1.917200     9.874600
C       5.730200     1.789400     8.505900
H       4.864800     1.901000     8.132300
C       6.801300     1.501400     7.667700
C       8.056400     1.333100     8.212400
H       8.787000     1.126100     7.642600
C       8.274700     1.459300     9.582700
C       4.712400     2.169600    10.778700
H       3.963100     2.507700    10.245100
H       4.954900     2.829700    11.460000
H       4.451800     1.331500    11.215100
C       6.580700     1.431800     6.176500
H       6.536500     2.339500     5.809200
H       5.739700     0.962600     5.991300
H       7.323500     0.946500     5.759000
C       9.645200     1.224700    10.166600
H       9.912800     2.006200    10.695500
H      10.288900     1.087200     9.439800
H       9.624800     0.432000    10.741100
C       9.324300     6.981200    10.268600
C       9.256200     8.482600     9.913900
C       5.984400     5.295400    10.300000
C       5.293700     5.623800     8.945400
