54
Refcode: ELELEM_comp_0 | Dataset: tmCAT | Charge: 0 | Potential Spins: [1, 3, 5]
Pd      5.445100     0.427500     0.634300
Cl      4.277300    -1.067000    -0.644700
Cl      6.909200    -1.205500     1.298000
P       6.390400     3.217900     0.876500
N       4.171200     1.988500     0.157900
N       6.501400     1.843600     1.669400
C       6.955500     1.636600     3.003800
C       6.020500     1.590100     4.034100
C       6.473200     1.360700     5.334500
H       5.863800     1.353800     6.037100
C       7.791100     1.146900     5.589900
H       8.068500     0.977800     6.462200
C       8.725600     1.179600     4.568400
H       9.625400     1.036500     4.755900
C       8.316200     1.426200     3.248800
C       7.358400     3.288800    -0.645000
C       7.524300     4.502900    -1.304800
H       7.219300     5.289300    -0.913700
C       8.144400     4.535700    -2.546200
H       8.267300     5.346300    -2.983100
C       8.575300     3.369900    -3.127800
H       8.979300     3.395700    -3.964700
C       8.415500     2.167800    -2.484200
H       8.713900     1.384900    -2.885700
C       7.810800     2.119500    -1.234000
H       7.709000     1.305500    -0.795600
C       6.678600     4.680600     1.871600
C       7.947600     5.248000     1.951400
H       8.648200     4.899600     1.448000
C       8.161200     6.337900     2.782400
H       9.001300     6.732800     2.817800
C       7.142700     6.832900     3.552900
H       7.301300     7.533100     4.143300
C       5.878100     6.287900     3.449600
H       5.177700     6.657000     3.938100
C       5.645100     5.222100     2.642200
H       4.793100     4.849600     2.602300
C       4.653100     3.230200     0.287800
C       3.915600     4.349400    -0.008900
H       4.296600     5.196200     0.047200
C       2.598400     4.194200    -0.394100
H       2.069800     4.934100    -0.587500
C       2.089200     2.930100    -0.484100
H       1.200000     2.804200    -0.726200
C       2.889600     1.847000    -0.217000
H       2.533500     0.991600    -0.296700
C       4.546100     1.757400     3.774300
H       4.066500     1.697000     4.603800
H       4.245800     1.067500     3.179400
H       4.387200     2.616200     3.375800
C       9.335200     1.450400     2.147700
H      10.207500     1.284800     2.513700
H       9.324700     2.309200     1.721100
H       9.125700     0.770900     1.502600
