89
Refcode: ELOWEH_comp_0 | Dataset: tmCAT | Charge: unknown | Potential Spins: [1, 3, 5]
Ta      0.482400     4.178400    14.354900
Cl     -1.833200     4.091400    13.427400
N       0.356200     6.319500    13.717800
N       2.221600     5.361100    14.180300
N       2.198600     2.968500    14.451300
N       0.310700     1.959000    14.272700
N       2.339700     7.591400    13.302600
H       1.947300     8.082800    12.700300
N       2.265700     0.562600    14.085600
H       1.893800    -0.024500    13.562900
N       0.068800     4.351600    16.101200
O       0.946300     3.880200    11.960300
C      -0.550300     7.475700    13.760800
H      -0.025000     8.300700    13.911400
C      -1.620300     7.344600    14.866500
H      -1.184300     7.284500    15.731200
H      -2.146400     6.544100    14.715900
H      -2.200900     8.120600    14.849300
C      -1.299000     7.584700    12.401300
H      -0.648100     7.695900    11.687100
H      -1.891400     8.349600    12.418500
H      -1.809700     6.777500    12.248500
C       1.668700     6.499600    13.717800
C       3.580800     4.856300    13.769400
H       4.274700     5.261000    14.328700
H       3.758900     5.089800    12.833600
C       3.580700     3.348700    13.941500
H       4.266800     3.079700    14.584700
H       3.759500     2.908500    13.085300
C       1.665300     1.741100    14.266300
C      -0.651700     0.882800    14.642700
H      -0.123100     0.120100    14.984800
C      -1.564800     1.294100    15.711900
H      -1.046200     1.594300    16.475500
H      -2.116900     0.542600    15.972100
H      -2.125800     2.019000    15.395600
C      -1.374300     0.402500    13.377900
H      -0.716400     0.126700    12.717500
H      -1.911000     1.122900    13.018600
H      -1.944700    -0.349100    13.597300
C       3.645600     8.040500    13.752200
H       4.300900     7.333400    13.519900
C       3.669700     8.211800    15.240800
H       3.390100     7.386800    15.666700
H       3.072400     8.930000    15.494600
H       4.575200     8.429700    15.524700
C       4.051700     9.259100    13.055200
H       4.013300     9.112300    12.098000
H       4.953600     9.494800    13.313300
H       3.446000     9.981700    13.294000
C       3.549800     0.224600    14.752500
H       4.224800     0.885000    14.453400
C       3.475600     0.295700    16.234600
H       3.192900     1.185200    16.501300
H       4.350100     0.109000    16.608900
H       2.836800    -0.358000    16.557200
C       3.980400    -1.129600    14.251200
H       4.034100    -1.114000    13.283200
H       3.330400    -1.798900    14.526600
H       4.848100    -1.351900    14.621200
C       1.099400     4.276000    18.293200
C       0.862300     4.249300    19.697900
H       1.593600     4.189300    20.287300
C      -0.433600     4.316000    20.209900
H      -0.565200     4.302700    21.139200
C      -1.399700     4.393800    19.463400
H      -2.248800     4.422700    19.861400
C      -1.344100     4.442800    18.073800
C      -0.048700     4.380500    17.480100
C       2.463500     4.202600    17.731800
H       2.415500     4.207100    16.763800
H       2.893100     3.386500    18.030800
H       2.977500     4.969700    18.032900
C      -2.516500     4.587300    17.234900
H      -2.245000     4.573900    16.301300
H      -2.950500     5.430000    17.432800
H      -3.125800     3.855700    17.404800
C       1.017100     4.907500    11.000900
H       1.820100     5.445600    11.147200
H       0.233900     5.494500    11.086900
C       1.048600     4.320500     9.669300
H       0.527000     4.849700     9.028300
H       1.964400     4.220400     9.340200
C       0.446300     3.059700     9.918900
H      -0.524100     3.117500     9.772600
H       0.809200     2.385900     9.307900
C       0.705600     2.706100    11.224600
H       1.485600     2.116900    11.263300
H      -0.063900     2.225800    11.601000
