49
Refcode: EMAZEX_comp_0 | Dataset: tmCAT | Charge: 0 | Potential Spins: [1, 3, 5]
C      -1.579600     1.470700     8.250600
H      -1.347600     0.920200     7.449700
C      -1.828300     3.052400    11.192300
H      -2.395900     2.290900    11.144000
C      -2.026000     4.121700    11.972900
H      -2.756200     4.261300    12.565300
C      -0.836000     6.311100    12.345300
H      -0.139700     6.293600    13.034400
H      -1.687500     6.579200    12.747100
H      -0.586800     6.952000    11.646100
C      -0.177900     4.396200    10.854100
C       3.297100     2.284600     9.674400
H       3.510200     1.407200     9.379500
C       4.177100     3.180900    10.135900
H       5.115000     3.058800    10.224900
C       4.055200     5.497200    11.084200
H       3.435900     6.252400    10.994000
H       4.902900     5.716200    10.644400
H       4.217000     5.319500    12.033900
C       2.169600     4.061400    10.163800
C       1.048100     5.059300    10.289700
H       1.336000     5.781200    10.919000
C       0.685400     5.708200     8.933200
H       0.436700     4.992700     8.296300
H      -0.110000     6.285700     9.060400
C       1.799500     6.542700     8.317900
H       2.533400     5.946200     8.026800
H       2.160500     7.163000     9.000600
C       1.291900     7.351800     7.112800
H       1.003600     6.728300     6.400900
H       0.503400     7.884900     7.387400
C       2.348900     8.279900     6.562300
H       3.075800     7.738900     6.161900
H       2.736900     8.805100     7.307300
C       1.809300     9.228700     5.519900
H       1.341700     8.709900     4.818100
H       1.149300     9.834700     5.941900
C       2.900900    10.052100     4.884200
H       3.396000    10.532800     5.579600
H       2.503400    10.696200     4.261300
H       3.513000     9.461900     4.396100
Cl      1.287600     0.728500     7.470400
Cl     -2.356200     2.995800     7.576400
Cl     -2.666500     0.548500     9.111200
N      -0.665900     3.234900    10.465100
N       2.037400     2.833500     9.692200
N       3.470900     4.310500    10.456200
N      -0.973800     4.978400    11.758000
Pd      0.208500     2.064000     9.021000
