40
Refcode: EMOYUC_comp_0 | Dataset: tmCAT | Charge: 0 | Potential Spins: [1, 3, 5]
Ni      3.788100     5.170600     6.116100
O       2.253100     6.063900     6.690800
O       5.245600     4.188300     5.628600
C       0.447800     2.179200     1.963500
H      -0.482900     2.333200     2.143900
H       0.628600     1.237000     2.000600
H       0.665500     2.513700     1.091400
C       1.576200     4.643700     4.390400
H       1.283200     5.456800     4.733600
N       2.749400     4.155800     4.837000
C       6.491200     4.345100     6.012500
N       4.732800     6.345400     7.206600
C       1.202100     2.820000     2.893900
C       9.206300     4.631600     6.649300
H      10.110100     4.728700     6.843800
C       7.444500     3.414500     5.575500
H       7.171600     2.687500     5.064300
C       8.764900     3.558000     5.888600
H       9.378400     2.927100     5.587900
C       8.306900     5.537400     7.103900
H       8.603100     6.254900     7.615100
C       6.917700     5.414800     6.815500
C       3.149600     2.993300     4.277200
H       3.958500     2.629600     4.554900
C       0.792200     4.020000     3.468800
H      -0.020400     4.398100     3.221200
C       2.434500     2.319900     3.327300
H       2.768300     1.529000     2.968200
C       3.885400     7.289300     7.843300
C       1.949800     8.924800     8.908100
H       1.296300     9.484500     9.263700
C       2.541900     7.065200     7.521300
C       1.576600     7.903100     8.080300
H       0.677400     7.765700     7.889300
C       4.247500     8.327000     8.678200
H       5.145200     8.476100     8.872800
C       6.022400     6.364800     7.367400
H       6.383800     7.050900     7.880400
C       3.277800     9.143400     9.226500
H       3.515200     9.832200     9.805000
