85
Refcode: ENOXAH_comp_0 | Dataset: tmCAT | Charge: unknown | Potential Spins: [1, 3, 5]
Pd      0.000000     4.590200     0.000000
Br     -1.512100     5.204900     1.803900
S       3.463200     4.729500     5.089000
N       1.050100     7.384600    -0.530300
N       1.827400     6.617200     1.333700
C       1.033700     6.302300     0.284100
C       1.845800     8.391700     0.007600
C       2.124900     9.677000    -0.424200
H       1.779000    10.013000    -1.219600
C       2.939100    10.427900     0.388200
H       3.158400    11.293600     0.128800
C       3.445800     9.935800     1.581400
H       3.988700    10.482100     2.102200
C       3.165700     8.661600     2.017000
H       3.509700     8.327500     2.812400
C       2.342400     7.903300     1.198800
C       0.371800     7.475500    -1.820000
H      -0.202500     6.715400    -1.933600
H       1.024300     7.492000    -2.524500
H      -0.150500     8.280600    -1.850300
C       2.140100     5.727600     2.448800
H       1.451300     5.048200     2.511300
H       2.125200     6.239800     3.272600
C       3.488000     5.049200     2.318100
C       4.095300     4.898600     1.092800
H       3.689000     5.252000     0.335200
C       5.299700     4.232100     0.964000
H       5.685300     4.133000     0.125000
C       5.922400     3.718900     2.070000
H       6.731300     3.267300     1.984800
C       5.353900     3.873200     3.297200
H       5.787700     3.531700     4.045300
C       4.136300     4.527700     3.462000
C       2.952400     3.010200     5.471300
H       3.694100     2.403400     5.264900
C       2.664900     2.951500     6.948600
H       1.972100     3.578500     7.164500
H       3.460000     3.171800     7.439100
H       2.379900     2.064600     7.183400
C       1.756000     2.616400     4.653200
H       1.542700     1.695600     4.821800
H       1.952800     2.734800     3.721400
H       1.009200     3.167200     4.895600
Br      1.512100     3.975400    -1.803900
S      -3.463200     4.450800    -5.089000
N      -1.050100     1.795700     0.530300
N      -1.827400     2.563100    -1.333700
C      -1.033700     2.878000    -0.284100
C      -1.845800     0.788600    -0.007600
C      -2.124900    -0.496700     0.424200
H      -1.779000    -0.832700     1.219600
C      -2.939100    -1.247600    -0.388200
H      -3.158400    -2.113300    -0.128800
C      -3.445800    -0.755500    -1.581400
H      -3.988700    -1.301800    -2.102200
C      -3.165700     0.518700    -2.017000
H      -3.509700     0.852800    -2.812400
C      -2.342400     1.277000    -1.198800
C      -0.371800     1.704800     1.820000
H       0.202500     2.464900     1.933600
H      -1.024300     1.688300     2.524500
H       0.150500     0.899700     1.850300
C      -2.140100     3.452700    -2.448800
H      -1.451300     4.132100    -2.511300
H      -2.125200     2.940500    -3.272600
C      -3.488000     4.131100    -2.318100
C      -4.095300     4.281700    -1.092800
H      -3.689000     3.928300    -0.335200
C      -5.299700     4.948200    -0.964000
H      -5.685300     5.047300    -0.125000
C      -5.922400     5.461400    -2.070000
H      -6.731300     5.913000    -1.984800
C      -5.353900     5.307100    -3.297200
H      -5.787700     5.648600    -4.045300
C      -4.136300     4.652600    -3.462000
C      -2.952400     6.170100    -5.471300
H      -3.694100     6.776900    -5.264900
C      -2.664900     6.228800    -6.948600
H      -1.972100     5.601800    -7.164500
H      -3.460000     6.008500    -7.439100
H      -2.379900     7.115700    -7.183400
C      -1.756000     6.563900    -4.653200
H      -1.542700     7.484700    -4.821800
H      -1.952800     6.445500    -3.721400
H      -1.009200     6.013100    -4.895600
