79
Refcode: EPUKUW_comp_0 | Dataset: tmCAT | Charge: 0 | Potential Spins: [1, 3, 5]
Pd      8.178900     3.011300    -4.646500
Br      6.911100     0.865100    -4.827200
Br      8.461300     2.956200    -7.139400
P       9.193800     5.045800    -4.505900
P       7.959600     2.815300    -2.397200
O       9.943000     9.122700    -5.829600
O       9.273700     5.675500    -3.124100
H       8.906400     5.186400    -2.577800
O       8.156300     4.137400    -1.584200
H       8.531000     4.695100    -2.054800
O       5.212200     5.128200    -0.774300
N       5.161800     2.916100    -2.270500
N       7.892300     7.535400    -5.205700
N       7.440800     5.917000    -6.549700
N       6.031800     1.168100    -1.236600
C       7.038300     8.019000    -6.175300
H       6.717000     8.888500    -6.236800
C       4.122200     2.184100    -1.771800
H       3.216700     2.378700    -1.853400
C       8.136100     6.230800    -5.452400
C      11.646900     6.305000    -4.485000
H      12.515400     6.436800    -4.872600
H      11.743000     5.994400    -3.582100
H      11.164500     7.135500    -4.488100
C       8.455200     8.410400    -4.192800
C       9.489100     9.262100    -4.563400
C       4.661000     1.124500    -1.138200
H       4.178100     0.463300    -0.698300
C       6.753100     7.011600    -7.013600
H       6.200000     7.045600    -7.761100
C       9.137200     1.607000    -1.628800
C       4.827100     4.292600    -4.265000
H       4.834900     3.525100    -4.792600
C       8.372400     9.372400    -2.008700
H       8.008200     9.413500    -1.153500
C       6.311800     2.270000    -1.919500
C       5.026200     4.197300    -2.911500
C       9.958800    10.181300    -3.629800
H      10.650800    10.761300    -3.852800
C      10.800800     5.712800    -6.755200
H      11.689800     5.804200    -7.105800
H      10.347300     6.556700    -6.805900
H      10.319300     5.059800    -7.267300
C       9.390700    10.229100    -2.365500
H       9.702300    10.849700    -1.748800
C      11.074500     9.926500    -6.201500
H      11.311800     9.743000    -7.113500
H      11.817500     9.717900    -5.630800
H      10.851800    10.855300    -6.110700
C       4.613700     5.530100    -4.846400
H       4.488200     5.601900    -5.764600
C       9.055400     1.745200    -0.109200
H       9.664600     1.127200     0.301500
H       8.160600     1.552500     0.181500
H       9.289400     2.641100     0.144600
C       7.890000     8.450600    -2.928500
H       7.201000     7.869500    -2.697800
C       4.778300     6.564600    -2.677800
H       4.744100     7.329600    -2.150200
C      10.529200     2.071000    -2.096400
H      11.199900     1.488800    -1.731900
H      10.686600     2.968900    -1.794900
H      10.570200     2.044400    -3.056100
C       4.588900     6.660000    -4.045100
H       4.444000     7.492700    -4.432700
C      10.875200     5.262500    -5.303200
C       8.938800     0.161100    -2.048700
H       9.588400    -0.392400    -1.608800
H       9.047300     0.086600    -2.999200
H       8.056600    -0.125200    -1.804100
C       5.016400     5.337400    -2.096400
C      11.623700     3.928800    -5.221700
H      12.488700     4.021800    -5.627800
H      11.124100     3.252000    -5.683100
H      11.729700     3.677400    -4.300400
C       5.425100     6.291800     0.035400
H       5.553700     6.027400     0.949000
H       4.658800     6.867800    -0.026100
H       6.203400     6.760400    -0.275300
