51
Refcode: EQEQEX_comp_0 | Dataset: tmCAT | Charge: 1 | Potential Spins: [1, 3, 5]
Ag      0.237100     0.547300     5.562200
C      -2.469400    -1.138700     6.070600
C      -3.661600    -1.905600     6.116100
C      -4.163200    -2.476500     4.925200
C      -5.326500    -3.225800     4.947100
H      -5.679500    -3.596200     4.147100
C      -5.972300    -3.426300     6.173700
C      -5.476300    -2.917900     7.376500
H      -5.920600    -3.087600     8.198500
C      -4.309300    -2.153300     7.335600
C      -3.782900    -2.941900     2.620600
H      -3.838800    -3.903800     2.796300
H      -3.109000    -2.774300     1.928800
H      -4.653200    -2.613900     2.312900
C      -7.851000    -4.390000     7.293100
H      -7.295000    -4.869900     7.942000
H      -8.648400    -4.922100     7.088700
H      -8.122400    -3.527200     7.670200
C      -4.214300    -1.988500     9.707200
H      -5.136200    -1.671800     9.804600
H      -3.655600    -1.587700    10.405000
H      -4.193300    -2.963800     9.792800
C       2.601000     2.448000     4.496700
C       3.543100     3.423800     4.072200
C       4.845300     3.039700     3.717000
C       5.776300     3.991500     3.314500
H       6.662100     3.741500     3.078700
C       5.367200     5.327300     3.267500
C       4.070200     5.739500     3.599600
H       3.822000     6.655000     3.545500
C       3.157600     4.780800     4.008600
C       6.394300     1.238300     3.439300
H       6.626000     1.555900     2.542200
H       6.402600     0.259000     3.451000
H       7.047500     1.579000     4.085700
C       7.582200     6.047900     2.672900
H       7.950900     5.627800     3.478200
H       8.068400     6.877400     2.485400
H       7.675600     5.435300     1.913400
C       1.423100     6.384400     4.298900
H       2.007100     6.959500     4.836100
H       0.506000     6.440600     4.639900
H       1.443600     6.680500     3.364700
N      -1.501300    -0.529700     6.005200
N       1.839500     1.668000     4.840000
O      -3.411600    -2.255600     3.827700
O      -7.099800    -4.171700     6.089600
O      -3.714400    -1.611600     8.419500
O       5.084200     1.709300     3.789700
O       6.189700     6.345400     2.881100
O       1.882400     5.025100     4.379900
