43
Refcode: EQOTIN_comp_0 | Dataset: tmCAT | Charge: -2 | Potential Spins: [1, 3, 5]
Au      2.286500     8.123800     4.250700
O       3.117300     9.784400     3.406100
O       2.202600     9.318800     1.402500
N       0.871400     5.528800     4.422500
N       1.372800     6.219200     6.385700
C       1.481000     6.539800     5.080100
C       0.690400     5.033900     6.550500
C       0.362800     4.610900     5.307900
C       1.962400     6.997400     7.476400
C       0.716900     5.530100     2.955300
C       2.880300    10.029200     2.150600
C       3.535400    11.267700     1.657800
C      -0.654400     6.092800     2.598200
C      -0.731300     7.361900     2.023000
C      -1.989600     7.899400     1.733800
C      -3.140600     7.202300     1.992300
C      -3.058900     5.927900     2.574000
C      -1.811800     5.398400     2.843800
C       0.999600     4.153200     2.351000
C       0.441300     3.818000     1.135900
C       0.761700     2.606100     0.517100
C       1.642000     1.718800     1.126200
C       2.198600     2.059300     2.333200
C       1.917500     3.277900     2.947200
H       0.490200     4.601500     7.372900
H      -0.126600     3.826000     5.089800
H       1.318400     7.070600     8.209900
H       2.192200     7.892700     7.151600
H       2.772900     6.547800     7.796300
H       1.400100     6.160700     2.586900
H       4.077700    11.658800     2.375200
H       2.849800    11.911600     1.379900
H       4.109700    11.052200     0.893500
H       0.059300     7.852800     1.830700
H      -2.047300     8.766700     1.350800
H      -3.987200     7.577400     1.777400
H      -3.846200     5.438300     2.779200
H      -1.753300     4.524400     3.212200
H      -0.166600     4.415300     0.715800
H       0.376500     2.387900    -0.323200
H       1.855000     0.890000     0.712600
H       2.789700     1.450000     2.759800
H       2.344400     3.513300     3.761600
