82
Refcode: EREGAK_comp_1 | Dataset: tmCAT | Charge: unknown | Potential Spins: [1, 3, 5]
C       8.677300    17.721400    10.944800
C       7.469200    18.529800    11.233700
C       7.532700    19.904800    11.197200
H       8.349000    20.322400    10.989000
C       6.407200    20.692500    11.460100
H       6.444600    21.629200    11.387200
Zr     12.001900    17.888500    10.929700
Cl     11.412000    18.498000     8.620700
Cl     11.648300    20.313800    11.644400
Cl     12.569000    17.272700    13.228700
O      14.031300    18.879500    10.642300
N       9.807200    18.023300    11.510400
H       9.697300    18.360300    12.306000
N       8.577200    16.633800    10.123300
N       9.441700    14.264400     8.953600
N      11.217500    15.858500    10.466600
N      13.356100    16.272000    10.191500
Si      9.638400    15.188000    10.313600
C       5.255700    20.064000    11.829700
H       4.495400    20.583000    12.022300
C       5.165200    18.713800    11.926000
H       4.357200    18.316900    12.194100
C       6.263100    17.913700    11.631900
H       6.203700    16.977100    11.694400
C       7.551400    16.652500     9.086400
C       7.559600    17.657300     8.149400
H       8.225300    18.318900     8.183200
C       6.599500    17.702800     7.160300
H       6.577000    18.414000     6.546000
C       5.671000    16.681400     7.092600
H       5.034600    16.681400     6.400300
C       5.661400    15.674500     8.016600
H       5.009000    15.000400     7.967200
C       6.609500    15.645500     9.026500
H       6.612700    14.950800     9.659000
C       9.050100    14.297500    11.842700
H       8.108500    14.088600    11.751600
H       9.182900    14.866000    12.618400
H       9.556300    13.476600    11.954700
C       9.806400    14.814400     7.613200
H      10.480400    14.249900     7.204500
H      10.156800    15.713800     7.717300
H       9.018900    14.839200     7.048400
C       8.900800    12.881100     8.938000
H       8.094000    12.856300     8.399200
H       8.694300    12.606200     9.843800
H       9.561300    12.279500     8.558000
C      12.407000    15.354000    10.122300
C      12.627100    13.956300     9.664200
C      12.116700    12.874900    10.359100
H      11.669900    13.021700    11.173800
C      12.245800    11.609600     9.893200
H      11.888600    10.894200    10.387800
C      12.872000    11.361500     8.737600
H      12.938100    10.482700     8.409600
C      13.432600    12.428300     8.021800
H      13.898300    12.265000     7.222800
C      13.300600    13.708200     8.485100
H      13.669500    14.423600     8.001000
C      14.767600    15.978400    10.171700
C      15.536400    16.559400     9.182700
H      15.133800    17.059800     8.495500
C      16.915100    16.394000     9.219100
H      17.450200    16.797200     8.560600
C      17.501800    15.647600    10.205600
H      18.436600    15.548400    10.234200
C      16.711300    15.043900    11.153000
H      17.106800    14.512500    11.819300
C      15.344300    15.209300    11.129600
H      14.809300    14.789500    11.780300
C      15.039400    18.972300    11.689200
H      15.430400    18.091500    11.868800
H      14.648400    19.319700    12.516900
C      16.080600    19.911000    11.158200
H      16.723700    19.447800    10.583000
H      16.560800    20.361700    11.884400
C      15.227500    20.886900    10.366900
H      15.766800    21.401700     9.729300
H      14.744500    21.503000    10.955200
C      14.279700    19.929600     9.656400
H      13.446800    20.382400     9.409100
H      14.695500    19.561600     8.849500
