84
Refcode: ESEWIK_comp_0 | Dataset: tmCAT | Charge: 0 | Potential Spins: [1, 3, 5]
Pd      9.981600     3.663800     3.861200
C       8.536600     4.613500     4.868900
C       8.658100     5.205800     6.153000
H       9.521800     5.335900     6.523900
C       7.550100     5.596200     6.871700
H       7.661900     5.960300     7.742000
C       6.257800     5.464600     6.338500
C       5.108900     5.856500     7.073200
H       5.203000     6.178200     7.961400
C       3.871200     5.774600     6.507900
H       3.105700     6.030500     7.007300
C       3.726600     5.308100     5.181000
H       2.861500     5.271600     4.788600
C       4.814100     4.908900     4.455100
H       4.695400     4.604800     3.561600
C       6.107700     4.942500     5.015100
C       7.274400     4.476100     4.330300
C       7.185700     3.766900     2.998000
H       6.287800     3.332600     2.914200
C       7.371300     4.758300     1.849500
H       8.278700     5.126800     1.879800
H       6.720400     5.485000     1.936800
H       7.233500     4.297700     0.995200
C       7.817500     1.582200     3.929000
H       7.020600     1.152300     3.556200
H       7.607400     1.946300     4.815400
H       8.538000     0.922700     4.009200
C       8.487500     2.123200     1.681800
H       7.631900     1.839600     1.296600
H       9.085200     1.351200     1.756700
H       8.898200     2.800300     1.104000
C      12.804900     5.207200     2.948100
H      13.143300     4.291800     2.728700
C      14.046700     6.087500     3.197800
H      13.799700     7.040900     3.108600
H      14.378300     5.939800     4.118000
C      15.157400     5.752600     2.195500
C      16.190400     6.764600     1.883300
C      17.211100     6.426800     0.995200
H      17.224700     5.556700     0.611700
C      18.192200     7.320200     0.661700
H      18.874500     7.068700     0.049900
C      18.192200     8.580700     1.211000
H      18.879900     9.197800     0.993400
C      17.189200     8.943400     2.079500
H      17.179700     9.820700     2.443400
C      16.199900     8.055800     2.427300
H      15.520400     8.319000     3.037200
C      12.001200     5.669300     1.751400
C      11.735100     7.020500     1.515900
H      12.084500     7.658000     2.127700
N      11.017400     7.475200     0.476200
C      10.572500     6.573000    -0.385200
H      10.074500     6.875700    -1.136100
C      10.793600     5.214500    -0.253300
H      10.453800     4.604800    -0.897100
C      11.515400     4.762700     0.825700
H      11.679200     3.834100     0.936300
C      11.359900     6.755800     4.902800
C      12.289100     7.485500     5.651800
H      13.075100     7.061400     5.974600
C      12.066700     8.826400     5.922900
H      12.691700     9.319200     6.441900
C      10.913700     9.452200     5.427100
H      10.758100    10.370600     5.616100
C       9.992600     8.738600     4.658400
H       9.223000     9.174400     4.310600
C      10.205500     7.383100     4.399800
H       9.576400     6.887400     3.889700
C      12.751700     4.388300     5.762400
C      13.888400     3.636700     5.464600
H      14.110800     3.464200     4.556800
C      14.703000     3.135100     6.484700
H      15.489000     2.649700     6.267100
C      14.368700     3.342800     7.795500
H      14.925400     3.000600     8.485800
C      13.215700     4.056400     8.123700
H      12.971400     4.171900     9.035100
C      12.429700     4.591600     7.123200
H      11.661400     5.103400     7.351500
Cl     11.550900     2.030500     3.001800
N       8.256900     2.696500     3.021200
O      15.203800     4.634000     1.707900
P      11.684000     5.019000     4.439100
