36
Refcode: ESISEG_comp_0 | Dataset: tmCAT | Charge: 0 | Potential Spins: [1, 3, 5]
Pd      7.186600    11.715100     7.866600
F       3.728900     6.806200    10.409400
F       5.677400     7.343900    11.127800
F       4.045700     8.706800    11.346600
O       7.592100    12.238800    11.872500
N       7.029300    11.444600     9.790500
N       8.296700    13.382100     8.551100
N       7.477100    11.884600     5.879100
C       6.053000    10.094400     7.797600
C       5.576300     9.438000     6.660300
H       5.787900     9.782000     5.799800
C       4.798200     8.290400     6.765200
H       4.483300     7.857400     5.980100
C       4.482700     7.778300     8.011900
H       3.958100     6.988800     8.082300
C       4.932000     8.417800     9.160800
C       5.717000     9.585000     9.076000
C       6.221000    10.340000    10.283700
H       5.459900    10.682100    10.817300
H       6.765800     9.745300    10.858100
C       7.613100    12.289100    10.625400
C       8.360800    13.391000     9.902000
C       9.053700    14.371200    10.587100
H       9.100900    14.354200    11.536700
C       9.680500    15.381700     9.870900
H      10.161000    16.064900    10.324000
C       9.597800    15.381900     8.490900
H      10.005900    16.072300     7.980300
C       8.907900    14.353600     7.865800
H       8.868500    14.339800     6.917300
C       4.598200     7.833900    10.488700
C       7.810800    11.931500     4.794300
C       8.251000    11.970900     3.403400
H       9.075100    12.497100     3.337000
H       7.554000    12.383600     2.852300
H       8.420000    11.058900     3.088700
