64
Refcode: ETACEH_comp_0 | Dataset: tmCAT | Charge: 0 | Potential Spins: [1, 3, 5]
Br     -0.295100     2.686500    25.463500
Ni     -1.729600     4.164200    26.657400
P      -3.029100     5.616000    27.488000
P      -3.510300     3.083500    25.872900
C      -0.149400     5.156100    27.486200
H       0.603100     5.150800    26.842700
H      -0.409900     6.098800    27.638300
C       0.305900     4.589400    28.742000
C       0.617300     3.258400    28.980300
H       0.443300     2.637500    28.283700
C       1.130200     2.780900    30.118800
H       1.348400     1.857400    30.177400
C       1.354600     3.595900    31.207700
H       1.694900     3.261900    32.030900
C       1.066200     4.914700    31.020700
H       1.192200     5.504100    31.754000
C       0.609000     5.428900    29.889600
H       0.479300     6.368100    29.825400
C      -3.946400     1.469200    26.712500
H      -4.886600     1.248800    26.461400
C      -3.108400     0.351500    26.281700
H      -3.327000    -0.444200    26.809700
H      -2.163100     0.580700    26.413700
H      -3.268800     0.169700    25.332100
C      -3.914500     1.663300    28.226800
H      -4.455600     0.970700    28.655800
H      -4.269700     2.546500    28.450500
H      -2.986200     1.595100    28.544000
C      -3.595600     2.649700    24.087300
H      -2.923100     1.930900    23.927800
C      -4.967200     2.079600    23.676700
H      -4.975900     1.913400    22.710500
H      -5.670900     2.721400    23.904000
H      -5.126100     1.238300    24.153300
C      -3.208100     3.812800    23.223800
H      -3.145100     3.520700    22.290700
H      -2.339100     4.159100    23.517200
H      -3.883000     4.517700    23.300800
C      -5.005700     4.173100    26.133200
H      -5.160300     4.722300    25.324800
H      -5.805300     3.608200    26.278100
C      -4.797400     5.094800    27.352400
H      -5.065500     4.619100    28.177300
H      -5.371900     5.897600    27.262500
C      -2.835400     6.037500    29.295600
H      -1.929000     6.445100    29.418400
C      -3.876700     7.066000    29.753900
H      -3.721200     7.291600    30.694400
H      -4.774700     6.688200    29.653100
H      -3.799100     7.874000    29.205800
C      -2.885500     4.717100    30.166400
H      -2.782600     4.944400    31.114200
H      -2.161900     4.115400    29.893300
H      -3.749500     4.271100    30.032600
C      -3.039200     7.244400    26.630000
H      -3.873800     7.707800    26.932500
C      -1.923300     8.190600    26.901400
H      -2.188700     9.093100    26.628200
H      -1.132000     7.914200    26.395400
H      -1.718300     8.185300    27.860200
C      -3.183700     7.066000    25.145100
H      -3.234700     7.945700    24.714300
H      -3.996300     6.558800    24.950800
H      -2.403100     6.581500    24.798600
