75
Refcode: ETAPUK_comp_0 | Dataset: tmCAT | Charge: 0 | Potential Spins: [1, 3, 5]
Ru      0.516100     3.459200     8.569100
Si      1.507400     2.397200    10.493000
Si     -1.090900     3.322900    10.372100
Si     -1.198200     4.491900     7.076100
Si      2.666700     3.224300     7.322300
O      -0.293700     0.673700     7.599500
O       1.403100     6.221400     9.544000
O      -0.028600     2.331500    11.433500
O       0.614300     3.074700     5.010400
C      -0.008800     1.716100     7.969600
C       1.066300     5.187600     9.192000
C      -0.259600     1.837800    12.776000
C       2.078100     0.613700    10.520800
C       2.639500     3.322400    11.654700
C      -2.655800     2.302400    10.320400
C      -1.447800     4.810500    11.443500
C      -0.561600     6.063700     6.247100
C      -2.817100     5.064200     7.848700
C       4.175000     2.688100     8.325300
C       3.246500     4.831000     6.516200
C      -1.670800     3.286400     5.671200
C      -2.990100     2.873300     5.458100
C      -3.322700     1.930400     4.479500
C      -2.334800     1.388600     3.667000
C      -0.998900     1.774400     3.816900
C      -0.720200     2.703500     4.826200
C       2.520100     1.956100     5.913100
C       3.385800     0.860600     5.817400
C       3.246600    -0.106300     4.829800
C       2.220600    -0.008600     3.892700
C       1.331300     1.059500     3.934300
C       1.514800     2.007500     4.939900
C       0.162300     1.284000     2.964700
C       0.560900     2.388100     1.955400
C      -0.183600     0.024000     2.161200
H       0.736300     3.874400     7.041600
H      -1.176200     1.920100    13.005300
H       0.270600     2.316100    13.398900
H      -0.019400     0.903500    12.826500
H       2.200600     0.322300    11.412800
H       2.895600     0.522900    10.040600
H       1.417100     0.056600    10.100200
H       3.501600     3.421800    11.248500
H       2.736200     2.837200    12.465400
H       2.283600     4.181300    11.837100
H      -2.998800     2.187500    11.203300
H      -3.309800     2.732700     9.784200
H      -2.469600     1.440100     9.952100
H      -0.644700     5.247600    11.676400
H      -1.885300     4.517300    12.254200
H      -2.027400     5.407100    10.990300
H       0.281700     5.887100     5.817400
H      -0.423400     6.747700     6.898900
H      -1.176100     6.368800     5.595300
H      -3.232900     4.339000     8.307300
H      -3.408300     5.377900     7.169800
H      -2.653200     5.768800     8.468000
H       4.925900     2.556100     7.736700
H       4.401500     3.346400     8.964500
H       3.997900     1.861800     8.767700
H       4.006300     4.669900     5.974500
H       3.488000     5.463600     7.202300
H       2.549900     5.206500     5.994400
H      -3.686200     3.231500     6.003400
H      -4.226200     1.664600     4.374800
H      -2.572200     0.762900     2.995400
H       4.083400     0.756000     6.469200
H       3.866500    -0.831500     4.779200
H       2.132800    -0.672000     3.203000
H      -0.152200     2.544100     1.348700
H       0.754400     3.193800     2.426600
H       1.334800     2.117200     1.473300
H       0.572900    -0.264000     1.652100
H      -0.909000     0.188600     1.572600
H      -0.427500    -0.685700     2.760700
