59
Refcode: EVIQUX_comp_1 | Dataset: tmCAT | Charge: unknown | Potential Spins: [1, 3, 5]
Co      4.285300    18.040700    10.675100
O       5.270300    18.249500    12.259100
O       5.962800    18.063300     9.797900
O       2.574700    17.990000    11.520200
O       4.317600    16.155500    10.959900
O       3.573300    21.920100    11.509800
N       4.018900    19.965000    10.351000
N       3.369800    17.852700     8.980500
C       5.768600    21.038000    11.673200
C       4.796100    18.188400    13.432300
C       3.195600    16.752200     8.278400
H       3.583400    15.961600     8.580800
C       3.065600    20.180200     9.334800
C       4.333900    20.972300    11.198600
C       2.425300    17.947300    12.788100
C       5.842500    18.241900    14.523300
H       6.524500    17.590100    14.345800
H       5.431400    18.049600    15.368400
H       6.234800    19.116400    14.547400
C       2.036700    19.076700     7.352200
C       6.861600    17.193300    10.015400
C       2.442700    16.723200     7.084000
H       2.329000    15.926500     6.618400
C       1.887500    17.872500     6.626600
H       1.406200    17.869500     5.829800
C       6.788200    20.726600    10.784600
H       6.586900    20.456500     9.916700
C       2.814700    19.023300     8.535500
C       6.081200    21.471400    12.959500
H       5.402400    21.703400    13.550000
C       2.452200    21.360000     8.948500
H       2.552500    22.120100     9.473800
C       5.399400    15.468600    10.976800
C       0.993400    17.748900    13.236700
H       0.444200    18.444900    12.869400
H       0.951000    17.780900    14.194600
H       0.677800    16.897200    12.930700
C       1.463600    20.322200     6.972300
H       0.953200    20.392400     6.197100
C       1.678800    21.424100     7.773200
H       1.299600    22.237600     7.529400
C       8.248900    17.526000     9.531500
H       8.240800    18.382300     9.099400
H       8.539900    16.854500     8.912100
H       8.850500    17.550500    10.280400
C       8.124400    20.825800    11.202200
H       8.810700    20.607600    10.615300
C       6.654500    15.937200    10.600900
H       7.392300    15.389300    10.744900
C       7.405300    21.555400    13.352000
H       7.613600    21.825500    14.216200
C       3.437500    18.043400    13.734400
H       3.195400    18.006800    14.630300
C       5.243200    14.021800    11.364300
H       4.819600    13.963800    12.221300
H       6.107800    13.606600    11.403900
H       4.702400    13.573000    10.708900
C       8.419300    21.241000    12.473400
H       9.306600    21.311200    12.743400
