39
Refcode: EVUCIH_comp_1 | Dataset: tmCAT | Charge: 0 | Potential Spins: [1, 3, 5]
Au     14.557200     2.341600     8.314200
P      15.239900     0.468400     7.326500
O      11.735700     0.228700     1.540600
O      13.781500    -0.166600     0.742600
H      13.378000    -0.183300     0.006300
Cl     13.882200     4.239300     9.358000
C      14.601100     0.312000     5.623600
C      13.230600     0.437800     5.426000
H      12.655800     0.593300     6.166100
C      12.701400     0.335500     4.144700
H      11.764200     0.422000     4.008800
C      13.542300     0.108800     3.061000
C      14.912700    -0.016900     3.258600
H      15.487100    -0.171300     2.518500
C      15.441900     0.085300     4.539900
H      16.377600     0.000500     4.674600
C      12.926600     0.051400     1.702900
C      14.658800    -1.028400     8.152200
C      14.502700    -1.011800     9.532900
H      14.688400    -0.219600    10.022500
C      14.072800    -2.154900    10.197500
H      13.966500    -2.144400    11.141500
C      13.801500    -3.314600     9.481300
H      13.508300    -4.096200     9.935700
C      13.957600    -3.331200     8.100600
H      13.772300    -4.124500     7.611000
C      14.386200    -2.188100     7.436000
H      14.494200    -2.199800     6.492100
C      19.074500    -0.920200     6.912400
H      19.514800    -1.756100     6.815500
C      17.692600    -0.875400     7.061000
H      17.188900    -1.680600     7.064700
C      17.048300     0.348700     7.203200
C      17.785000     1.526200     7.198100
H      17.345500     2.363400     7.295100
C      19.167000     1.481400     7.049600
H      19.670300     2.287900     7.045900
C      19.810900     0.258500     6.907400
H      20.755000     0.228400     6.805500
