61
Refcode: EVURAO_comp_0 | Dataset: tmCAT | Charge: unknown | Potential Spins: [1, 3, 5]
Rh      1.809000    12.945100     2.966200
Cl      3.639500    14.270400     3.708300
N       2.752900     8.777000     5.076500
C      -0.461100    14.529800     1.629800
H      -0.471400    15.324200     1.073000
H      -1.335900    14.437400     2.038400
N       3.168800    11.365200     2.603000
N       4.612500     9.682200     2.796400
C       3.112200    10.186600     4.792700
H       2.338800    10.763000     4.961100
C       3.607800    10.400900     3.376600
C       3.920800    11.280200     1.436400
C       3.417400     8.359500     6.271200
N       4.148900    10.456300     5.783100
C       4.817700    10.221700     1.550300
C       0.452000    14.182500     4.006700
H       0.875800    14.742300     4.691300
C       3.369400     7.164200     6.932500
H       2.854400     6.456700     6.619000
C       5.377300     8.551600     3.356300
H       6.025800     8.254200     2.713700
H       4.777700     7.831100     3.563700
H       5.826900     8.832400     4.156400
C       4.135900     7.051500     8.110000
H       4.137900     6.249800     8.579400
C       0.077500    11.723600     2.782400
H       0.262200    10.774000     2.935200
C       4.212800     9.419900     6.711000
C       4.446700    11.808600     6.151100
H       5.153300    11.814100     6.801500
H       3.663900    12.218700     6.527000
H       4.723800    12.300000     5.374400
C       0.484000    12.157700     1.539300
H       0.870700    11.455700     0.974800
C      -1.099400    12.222400     3.559000
H      -1.466100    11.490800     4.080000
H      -1.785100    12.518000     2.939900
C       4.876700     8.106400     8.571600
H       5.343100     8.017700     9.371700
C       3.885000    12.052400     0.282300
H       3.295900    12.767400     0.196500
C       4.766400    11.712500    -0.740800
H       4.782900    12.222400    -1.517500
C       4.947700     9.305400     7.876100
H       5.474400    10.007400     8.183300
C       5.615700    10.631800    -0.617600
H       6.162200    10.410100    -1.336600
C      -0.171400    13.303100     0.761100
H       0.413800    13.563600     0.032800
H      -1.002800    12.987200     0.374300
C       5.686700     9.865100     0.524000
H       6.279500     9.153900     0.603600
C      -0.736700    13.397300     4.515100
H      -1.500500    13.990400     4.599300
H      -0.535000    13.044500     5.396300
C       0.591700    14.681300     2.713700
H       1.097900    15.518200     2.662300
C       1.256100     8.487000     3.980100
H       0.949300     7.583600     4.089300
H       1.497800     8.634700     3.061500
H       0.555400     9.094800     4.226600
