96
Refcode: EWALOD_comp_0 | Dataset: tmCAT | Charge: 0 | Potential Spins: [1, 3, 5]
Pd      3.097000     6.309500    11.666600
Br      3.434100     6.406100     9.184400
P       4.827800     4.781900    11.893400
P       2.604800     5.870900    13.799500
O       3.180600     9.887300    10.149000
O      -0.535500     7.263400    10.040900
N       1.363400     8.483600    10.449600
C       6.496900     5.576700    11.937700
H       7.137000     4.918700    12.276800
C       6.950800     6.001300    10.562100
H       6.294400     6.603500    10.181600
H       7.003800     5.219800     9.990500
C       8.303800     6.689200    10.591700
H       8.542400     6.966300     9.692900
H       8.977000     6.063100    10.901200
C       8.289300     7.905400    11.506800
H       9.177900     8.292200    11.551200
H       7.686000     8.575300    11.148500
C       7.835800     7.506700    12.903200
H       7.756900     8.302200    13.452500
H       8.509400     6.934400    13.304400
C       6.500900     6.774900    12.891300
H       5.802900     7.395000    12.626300
H       6.300600     6.467900    13.788600
C       4.945300     3.461200    10.630200
H       5.078000     3.917800     9.774400
C       6.125900     2.494200    10.778300
H       6.955200     2.996700    10.827200
H       6.031200     1.985800    11.600100
C       6.171500     1.537200     9.583300
H       6.351700     2.041700     8.774900
H       6.894000     0.903200     9.707700
C       4.867700     0.787600     9.424900
H       4.912400     0.239300     8.626800
H       4.746700     0.197400    10.184500
C       3.681500     1.708700     9.324200
H       2.866700     1.182300     9.315300
H       3.728000     2.203100     8.490600
C       3.637600     2.691600    10.495500
H       2.910000     3.317700    10.360700
H       3.464900     2.205100    11.317300
C       4.656400     3.941700    13.526600
H       4.158100     3.118300    13.414000
H       5.536400     3.716400    13.865600
C       3.928400     4.844900    14.552700
H       4.577600     5.429100    14.974700
H       3.539500     4.286700    15.244200
C       1.075100     4.858900    14.001900
H       1.127200     4.452200    14.893300
C       1.013200     3.708500    13.003900
H       0.984700     4.069300    12.105000
H       1.819100     3.174100    13.085300
C      -0.190100     2.819200    13.217100
H      -0.107800     2.370600    14.072900
H      -0.213200     2.141300    12.524100
C      -1.490900     3.608800    13.190400
H      -1.632300     3.975600    12.304900
H      -2.234600     3.018600    13.396200
C      -1.436300     4.717300    14.192900
H      -1.374200     4.338500    15.082800
H      -2.255700     5.231700    14.142500
C      -0.248300     5.642500    13.957400
H      -0.238800     6.334300    14.637100
H      -0.339700     6.071100    13.092700
C       2.402900     7.301300    14.939200
H       1.631000     7.809700    14.613400
C       2.103100     6.942400    16.387300
H       2.848200     6.446000    16.760500
H       1.315800     6.378200    16.425800
C       1.866600     8.212500    17.216600
H       1.084500     8.677000    16.881900
H       1.700000     7.971200    18.142000
C       3.075300     9.135600    17.142500
H       2.899600     9.943100    17.650400
H       3.844500     8.693000    17.536400
C       3.384400     9.498500    15.713600
H       4.176900    10.056700    15.688400
H       2.645700    10.008900    15.346400
C       3.613500     8.246400    14.859200
H       4.407900     7.783800    15.170200
H       3.760300     8.507500    13.936700
C       1.633800     7.899400    11.694900
H       0.805700     7.546500    12.054700
H       1.943900     8.591300    12.299000
C       0.263600     8.104800     9.709200
C       0.292600     8.916300     8.447600
C       1.439500     9.658000     8.456500
C       2.148500     9.404800     9.741800
C       1.757400    10.475400     7.393300
H       2.540600    10.975900     7.383000
C       0.866900    10.519300     6.355300
H       1.067100    11.037700     5.610500
C      -0.322400     9.811500     6.383500
H      -0.921000     9.891200     5.675700
C      -0.630300     8.988100     7.455500
H      -1.426600     8.509500     7.492500
