59
Refcode: EWEHIZ_comp_0 | Dataset: tmCAT | Charge: -2 | Potential Spins: [1, 3, 5]
Cu      2.241700    11.586000    11.775800
C       2.241700     9.698300    11.775800
C       2.441800     7.530900    12.421100
H       2.602100     6.768800    12.966000
C       3.024100     9.306700    14.083900
C       4.387700     9.471200    14.286400
C       5.381800     9.162900    13.187400
H       5.265400     8.234700    12.893700
H       6.292700     9.287000    13.526500
H       5.230400     9.767200    12.430600
C       4.809900     9.902700    15.542500
H       5.738200    10.026800    15.704200
C       3.900100    10.153200    16.564700
C       4.389400    10.536900    17.935400
H       3.737500    11.132000    18.359300
H       5.250700    10.996400    17.856900
H       4.498700     9.728100    18.480200
C       2.551500     9.992300    16.308700
H       1.926100    10.183100    16.996400
C       2.084300     9.559000    15.077800
C       0.612800     9.332900    14.836000
H       0.102600     9.640800    15.614700
H       0.448100     8.377100    14.696200
H       0.331100     9.833800    14.041500
C       2.241700    13.493900    11.775800
C       1.276400    14.259000    11.143100
C       1.251300    15.642200    11.150900
C       2.241700    16.331500    11.775800
F       0.281000    13.638400    10.477300
F       0.256000    16.320000    10.554300
F       2.241700    17.666400    11.775800
N       2.571800     8.851600    12.790100
C       2.041600     7.530900    11.130500
H       1.881300     6.768800    10.585700
C       1.459400     9.306700     9.467800
C       0.095800     9.471200     9.265200
C      -0.898400     9.162900    10.364300
H      -0.781900     8.234700    10.657900
H      -1.809200     9.287000    10.025100
H      -0.746900     9.767200    11.121100
C      -0.326400     9.902700     8.009100
H      -1.254700    10.026800     7.847400
C       0.583400    10.153200     6.987000
C       0.094100    10.536900     5.616300
H       0.746000    11.132000     5.192400
H      -0.767200    10.996400     5.694800
H      -0.015300     9.728100     5.071500
C       1.932000     9.992300     7.242900
H       2.557400    10.183100     6.555200
C       2.399200     9.559000     8.473900
C       3.870700     9.332900     8.715700
H       4.380900     9.640800     7.936900
H       4.035400     8.377100     8.855400
H       4.152400     9.833800     9.510200
N       1.911700     8.851600    10.761500
C       3.207100    14.259000    12.408600
C       3.232200    15.642200    12.400700
F       4.202500    13.638400    13.074300
F       4.227400    16.320000    12.997400
