85
Refcode: EWORUD_comp_0 | Dataset: tmCAT | Charge: -4 | Potential Spins: [1, 3, 5]
Pd      2.287900     6.206800    21.552800
Cl      3.723100     5.053400    22.939600
Cl      0.894000     7.285100    20.056500
N       4.206900     8.417600    20.645700
C       3.483000     7.854700    21.642800
N       3.678900     8.662200    22.699300
C       4.491300     9.727800    22.370700
H       4.755900    10.427400    22.938900
C       4.829400     9.572100    21.089600
H       5.384200    10.139100    20.584300
C       4.451700     7.771300    19.322300
H       3.709200     7.136000    19.163700
C       5.722300     6.963900    19.391200
H       6.476500     7.556800    19.531600
H       5.842300     6.477500    18.561200
H       5.665200     6.334000    20.129300
C       4.387600     8.822000    18.224800
C       5.503100     9.188200    17.493000
H       6.340100     8.813800    17.702100
C       5.399400    10.102200    16.452200
H       6.164100    10.353600    15.967000
C       4.181300    10.637800    16.138100
H       4.107800    11.238900    15.420000
C       3.056400    10.303000    16.864000
H       2.226400    10.691100    16.656700
C       3.162500     9.390400    17.897900
H       2.394300     9.152600    18.386900
C       3.071500     8.468100    24.042200
H       2.827900     7.511800    24.115000
C       1.789300     9.264700    24.158600
H       1.988600    10.210100    24.086000
H       1.373200     9.084300    25.015200
H       1.183200     9.006500    23.444700
C       4.117100     8.745500    25.109400
C       4.169600     9.932800    25.814500
H       3.523800    10.596800    25.654100
C       5.163900    10.156900    26.756600
H       5.200100    10.976600    27.217400
C       6.087100     9.188200    27.014400
H       6.751600     9.339800    27.662700
C       6.055700     7.992700    26.337000
H       6.699100     7.331400    26.513200
C       5.059000     7.768600    25.385200
H       5.027500     6.947500    24.928100
N       0.981500     3.530400    20.812000
C       1.024600     4.607100    21.593600
N       0.053600     4.419900    22.502100
C      -0.595700     3.221700    22.292800
H      -1.302100     2.869200    22.803400
C      -0.028000     2.658800    21.225100
H      -0.262300     1.839000    20.828700
C       1.760200     3.335100    19.578300
H       2.542300     3.940300    19.618700
C       0.890600     3.783200    18.396400
H       0.062900     3.277700    18.394200
H       1.367300     3.627400    17.566600
H       0.691200     4.728700    18.481300
C       2.283500     1.922300    19.510000
C       3.085500     1.446900    20.542900
H       3.308200     2.016600    21.257000
C       3.555300     0.166700    20.533400
H       4.095000    -0.140700    21.240100
C       3.241700    -0.684500    19.488000
H       3.569300    -1.565700    19.480800
C       2.450200    -0.235000    18.466800
H       2.215900    -0.808800    17.760200
C       1.999100     1.069800    18.483700
H       1.479200     1.379900    17.767400
C      -0.305400     5.387200    23.571000
H       0.259900     6.187800    23.432600
C       0.044300     4.835200    24.938000
H      -0.117700     5.512900    25.613000
H       0.979200     4.579700    24.954700
H      -0.505900     4.057800    25.124100
C      -1.750800     5.829900    23.368700
C      -2.010800     6.819100    22.423200
H      -1.299700     7.215300    21.951500
C      -3.305800     7.218000    22.177300
H      -3.470200     7.897000    21.547400
C      -4.358400     6.640100    22.837300
H      -5.238500     6.924300    22.670300
C      -4.113600     5.646800    23.741400
H      -4.832900     5.227300    24.177900
C      -2.816300     5.249200    24.022300
H      -2.661200     4.581100    24.664300
