119
Refcode: EXIBAQ_comp_0 | Dataset: tmCAT | Charge: unknown | Potential Spins: [1, 3, 5]
Ag     13.277800    -0.436000    16.373600
S      14.526200    -2.603800    14.373400
P      15.060000     1.116800    16.848100
P      11.422400    -1.223600    17.749200
O      11.481400     0.431900    14.399800
O      15.485700    -2.089000    15.318500
C      15.259300    -2.497200    12.775700
H      14.645200    -2.833400    12.119800
H      16.065200    -3.018600    12.757200
H      15.467000    -1.580400    12.578900
O       7.596100    -1.127400    11.822600
O       7.935000    -3.234100    11.445400
N      13.316900    -1.559600    14.376900
N       8.305300    -2.137400    11.891000
C      15.948400     0.501500    18.317000
C      16.602300    -0.730300    18.217600
H      16.673100    -1.150000    17.391100
C      17.144600    -1.325700    19.340400
H      17.596900    -2.134100    19.253300
C      17.029100    -0.741100    20.596100
C      16.383300     0.483000    20.686100
H      16.303100     0.894500    21.515900
C      15.853400     1.105900    19.564400
H      15.433600     1.930800    19.649300
C      17.601200    -1.414300    21.822400
H      18.008600    -2.245400    21.570300
H      16.897500    -1.581200    22.453500
H      18.260900    -0.843200    22.222900
C      16.305800     1.387300    15.560200
C      15.885800     1.350400    14.230700
H      15.008500     1.117700    14.027700
C      16.772400     1.659100    13.210200
H      16.477900     1.632800    12.328700
C      18.091500     2.006600    13.478000
C      18.512900     1.989300    14.790500
H      19.402900     2.179900    14.985000
C      17.631000     1.689900    15.833400
H      17.933700     1.693200    16.712300
C      19.034200     2.387200    12.356500
H      18.568200     2.343700    11.517200
H      19.775900     1.777500    12.341700
H      19.356600     3.280400    12.498400
C      14.504100     2.789000    17.302800
C      15.187300     3.945600    16.967100
H      16.016200     3.886600    16.547000
C      14.649300     5.188900    17.249500
H      15.114500     5.954400    16.999500
C      13.432200     5.318800    17.896700
C      12.765400     4.164100    18.259400
H      11.952800     4.224800    18.707300
C      13.288200     2.920000    17.965200
H      12.818600     2.155900    18.213400
C      12.855500     6.675700    18.192300
H      13.450500     7.355100    17.867500
H      12.742100     6.775900    19.140200
H      12.003200     6.762500    17.758800
C      10.384400     0.162000    18.322200
C      10.293700     1.286300    17.488600
H      10.715300     1.282200    16.660100
C       9.584100     2.397900    17.892800
H       9.533000     3.135000    17.328000
C       8.947200     2.439600    19.120400
C       9.033400     1.322100    19.936200
H       8.603800     1.324800    20.761000
C       9.749200     0.199900    19.547500
H       9.801700    -0.533900    20.117000
C       8.154100     3.646400    19.539000
H       7.785900     3.500200    20.412900
H       7.441100     3.793900    18.914000
H       8.727800     4.415400    19.557900
C      11.944400    -2.029800    19.296400
C      11.344400    -3.164000    19.840300
H      10.600200    -3.535300    19.423000
C      11.842000    -3.743000    20.992200
H      11.434600    -4.507400    21.331000
C      12.938800    -3.204700    21.651600
C      13.537800    -2.064300    21.108800
H      14.270000    -1.682600    21.537600
C      13.061800    -1.499400    19.953000
H      13.488900    -0.753300    19.599300
C      13.498600    -3.838800    22.905600
H      14.253500    -3.330300    23.210600
H      13.773800    -4.737900    22.714600
H      12.822700    -3.849400    23.587000
C      10.297900    -2.392600    16.922900
C       8.989100    -2.058200    16.588600
H       8.619700    -1.262200    16.897300
C       8.234600    -2.912300    15.793000
H       7.364300    -2.673500    15.565800
C       8.748700    -4.108300    15.332200
C       7.944800    -4.987600    14.383700
H       8.452200    -5.774100    14.169200
H       7.753200    -4.500300    13.579600
H       7.121400    -5.244100    14.806600
C      10.040000    -4.450400    15.698800
H      10.391000    -5.267300    15.424400
C      10.817700    -3.599000    16.465900
H      11.692800    -3.835200    16.675400
C      12.132000    -1.799500    13.704000
C      11.752000    -2.972700    13.017700
H      12.351900    -3.681800    12.961700
C      10.508600    -3.091700    12.427000
H      10.276300    -3.875300    11.984900
C       9.607200    -2.036400    12.496800
C       9.947000    -0.858400    13.144300
H       9.341000    -0.154700    13.190200
C      11.175900    -0.747200    13.710800
C      12.124800     1.437600    13.681200
C      12.301400     2.633300    14.346500
H      11.995700     2.731700    15.219900
C      12.933000     3.684000    13.710300
H      13.050600     4.491300    14.156100
C      13.389800     3.538300    12.417200
H      13.817700     4.244800    11.991500
C      13.209000     2.345900    11.761500
H      13.511800     2.253300    10.886300
C      12.578600     1.273300    12.384800
H      12.464300     0.464800    11.939200
O      14.102300    -3.970000    14.590100
