78
Refcode: EXOTEQ_comp_0 | Dataset: tmCAT | Charge: unknown | Potential Spins: [1, 3, 5]
Y       3.551600     0.952900     8.092600
Si      1.225800    -0.925900     5.674800
N       4.078400     0.054400    10.068600
N       4.949600     2.652100     9.324000
N       4.720700     2.496300     6.423100
N       2.027100     2.937200     9.106100
N       5.142700    -0.186600     6.893100
C       2.246600    -1.509400     9.960200
C       4.414700    -2.302900    10.854000
C       3.012100    -0.753700    12.190400
C       3.469700    -1.091400    10.764300
C       5.178300     0.644000    10.809500
C       5.891500     1.708900     9.999500
C       5.702300     3.565400     8.441200
C       5.975300     2.932700     7.091300
C       4.149500     3.406500    10.312700
C       2.896400     3.982500     9.684700
C       1.269000     2.274500    10.181500
C       1.042800     3.583400     8.209000
C       3.987700     3.676100     5.919300
C       5.029000     1.623800     5.257500
C       5.721000     0.324400     5.639600
C       5.626300    -0.709300     4.549000
C       5.933800    -1.965200     4.879600
C       6.121800    -2.302900     6.266600
C       5.589400    -1.439400     7.179000
C       1.468700     0.381100     6.941000
C       1.870400    -0.395300     3.991800
C      -0.581600    -1.349600     5.382700
C       2.066400    -2.540200     6.138500
H       1.872200    -2.345400    10.312900
H       1.531800    -0.803900    10.035800
H       2.494700    -1.692900     9.085400
H       3.981000    -3.026300    11.336500
H       4.658900    -2.648000    10.003100
H       5.199200    -2.127900    11.282600
H       2.520900    -1.475300    12.591000
H       3.736200    -0.595800    12.754500
H       2.412700    -0.009500    12.169600
H       4.878200     0.993000    11.652100
H       5.868500     0.047300    11.026700
H       6.447100     1.257800     9.264300
H       6.492000     2.175200    10.545700
H       5.197000     4.369300     8.344600
H       6.562000     3.807500     8.854500
H       6.542200     2.165700     7.209400
H       6.431700     3.546500     6.539800
H       3.896900     2.789900    11.038300
H       4.677200     4.132800    10.699600
H       3.143700     4.567900     9.025700
H       2.384500     4.520600    10.359100
H       1.851300     1.863100    10.757400
H       0.743300     2.912800    10.701600
H       0.695200     1.617200     9.795300
H       1.497700     3.962600     7.500000
H       0.540500     4.322000     8.677500
H       0.446000     2.931800     7.873200
H       3.192600     3.414100     5.464300
H       3.772000     4.284200     6.641800
H       4.502600     4.170700     5.258400
H       4.140000     1.395000     4.837100
H       5.561100     2.118400     4.627300
H       6.702800     0.510700     5.789500
H       5.370400    -0.472900     3.678800
H       5.919700    -2.657500     4.231000
H       6.355800    -3.187100     6.562900
H       5.455000    -1.730700     8.094500
H       1.210700     1.182200     6.561000
H       0.868700     0.208100     7.592300
H       1.548700    -0.955200     3.326700
H       1.597500     0.482300     3.761500
H       2.788200    -0.378300     3.969300
H      -1.066900    -0.576900     5.110300
H      -0.695000    -2.023900     4.713900
H      -1.004500    -1.607700     6.185800
H       3.052800    -2.421100     6.228200
H       1.889800    -3.206000     5.458500
H       1.673000    -2.912800     6.951600
