91
Refcode: EXUKIT_comp_0 | Dataset: tmCAT | Charge: 0 | Potential Spins: [1, 3, 5]
Zn      9.428600     7.748300     2.303300
N      10.256600     9.572800     1.900800
N       7.611200     8.473700     2.405500
N      10.794600     7.208600     0.898700
N       9.835600     6.206500     3.458800
C      12.569700     8.123500    -0.690700
H      13.297100     7.796000    -0.103400
H      12.395400     7.431800    -1.377200
C       7.924400     5.399800     6.542400
H       7.255800     4.795400     6.843400
C      10.621900     5.156500     3.112900
C      10.950300     4.129800     4.058600
H      10.672300     4.232300     4.961400
C      13.002700     9.404200    -1.363700
H      12.290600     9.713300    -1.977000
H      13.819100     9.237400    -1.898700
C       6.320600     7.984200    -0.661500
H       5.348600     7.890900    -0.747100
H       6.728300     7.996500    -1.552800
H       6.528100     8.822700    -0.196400
C      13.285700    10.481400    -0.328100
H      13.558600    11.315300    -0.784800
H      14.032200    10.190700     0.255000
C       5.915000    10.227400     2.371000
H       5.231600     9.569400     2.308300
C      12.280200     7.563400     5.070100
H      12.230000     6.862600     4.384600
H      12.581800     7.170200     5.915400
H      12.915400     8.253500     4.784800
C      11.307400     8.348400     0.139000
H      10.584200     8.651400    -0.481700
C       6.546100     7.529800     2.532900
C       9.646500    10.695600     2.040800
H      10.157500    11.486700     1.916400
C       9.862000     7.205400     5.690800
C      11.530500     9.462300     1.180800
H      12.223700     9.144100     1.827600
C      12.046700    10.750700     0.527700
H      11.333600    11.139300    -0.038700
H      12.269900    11.408600     1.232000
C       8.254100    10.856300     2.369900
C      10.913700     8.181600     5.259200
H      10.980000     8.899200     5.937400
H      10.631300     8.599300     4.406500
C       6.197300     6.700400     1.467100
C       9.396100     7.213000     6.994900
H       9.733000     7.860300     7.603000
C       5.554400    11.546400     2.445200
H       4.632700    11.777400     2.436800
C      11.963200     3.829900     1.520400
H      12.338000     3.741200     0.652000
C       7.827300    12.196700     2.483800
H       8.485700    12.880600     2.529800
C      11.395900     6.059300     0.876700
H      11.994900     5.901700     0.155700
C       7.721200     4.383800     4.236200
H       8.437200     3.800800     3.880900
H       7.357700     4.905600     3.476500
C       7.277700     9.799000     2.384600
C       5.443100     8.099000     6.179800
H       5.564500     7.196200     6.541400
H       4.498500     8.239800     5.963500
H       5.728200     8.758500     6.846500
C       9.344500     6.238300     4.797300
C       5.882700     7.393600     3.777500
C       8.462000     6.308700     7.432700
H       8.185600     6.308700     8.341800
C       6.505400    12.553200     2.531900
H       6.248100    13.462100     2.622800
C      12.141700     2.820000     2.413800
H      12.583500     2.016700     2.166200
C       5.167300     5.762500     1.631200
H       4.922900     5.205500     0.900700
C       8.335700     5.347800     5.227900
C       4.873500     6.438800     3.878800
H       4.419700     6.339300     4.708500
C       6.265600     8.252000     4.943600
H       7.209400     8.059200     5.172500
H       6.220600     9.199100     4.657300
C       6.868000     6.824400     0.126400
H       6.732400     5.988900    -0.385600
H       7.841200     6.948300     0.257100
C       4.508300     5.633900     2.824500
H       3.809100     4.997400     2.922700
C       6.612800     3.504000     4.786900
H       6.969500     2.942400     5.507900
H       6.263000     2.931700     4.072200
H       5.891900     4.067100     5.138000
C      11.652500     3.005200     3.706400
H      11.809000     2.335000     4.360600
C      11.243900     5.008100     1.830700
