37
Refcode: EYIRUA_comp_0 | Dataset: tmCAT | Charge: 0 | Potential Spins: [1, 3, 5]
C       4.454600    14.197500    13.142300
H       4.959300    14.844900    12.664800
C       3.508100    14.631900    14.043100
H       3.354600    15.560000    14.176800
C       2.790500    13.694100    14.748400
H       2.114500    13.964000    15.358200
C       3.064500    12.355800    14.557300
H       2.602200    11.695100    15.061400
C       4.017800    11.981900    13.627200
C       4.290100    10.531100    13.293700
H       4.201000     9.987800    14.116500
H       3.612400    10.215200    12.645700
C       5.634500     9.104400    11.891900
H       4.849900     9.123800    11.287900
H       5.547100     8.311800    12.479600
C       6.907600     8.970100    11.054300
H       6.809200     8.202900    10.435700
H       7.672600     8.781300    11.653800
C       6.653100    10.206800    13.802100
H       7.363100     9.587200    13.497900
H       6.226500     9.802600    14.600000
C       7.304500    11.533000    14.215000
H       8.050900    11.346600    14.838000
H       6.637900    12.084800    14.695500
C       9.136600    11.295800    12.084300
H      10.046700    11.670900    12.193100
H       9.097600    10.452400    12.601600
C       8.916900    10.976400    10.623800
H       9.543700    10.250300    10.376900
H       9.174800    11.773800    10.097700
N       4.691300    12.896700    12.911300
N       5.631100    10.325400    12.725400
S       7.256900    10.477600    10.092700
S       7.936600    12.470400    12.796900
Fe      5.863500    12.141400    11.287000
Cl      3.833700    11.582700    10.045100
Cl      6.566900    14.003400    10.014500
