96
Refcode: EYITUD_comp_0 | Dataset: tmCAT | Charge: unknown | Potential Spins: [1, 3, 5]
C       9.274200     8.450000     7.073200
H      10.025900     8.093500     6.556100
H       9.552700     9.273200     7.528600
H       8.527700     8.646300     6.471700
C      10.384700     5.918400    13.630700
H      11.235800     5.431700    13.633500
H       9.708400     5.389700    13.158500
H      10.093700     6.070600    14.554100
C      11.668000     8.081500    13.573100
H      11.436600     8.265800    14.506300
H      11.766100     8.926700    13.086800
H      12.513600     7.584800    13.538000
C       8.370600     6.178800     7.390900
H       7.610800     6.397100     6.811800
H       8.095000     5.509800     8.051400
H       9.101100     5.818300     6.847000
C       2.936500     8.678300     9.404800
H       3.044900     8.818500     8.440700
H       2.888900     9.543600     9.860100
H       2.111700     8.175600     9.570600
C       6.156100     9.042900    15.506900
H       5.975600     9.852000    14.982700
H       6.962100     9.177100    16.048000
H       5.393800     8.860600    16.097200
C       6.707000     6.593400    15.357900
H       5.950100     6.359000    15.935500
H       7.499800     6.759600    15.910200
H       6.889000     5.852300    14.741000
C       4.249700     6.563300     9.203800
H       5.009200     6.058600     9.560800
H       4.389300     6.735600     8.249500
H       3.426600     6.046600     9.326100
Fe      7.194500     5.063000    11.393800
N       8.517700     7.868200    10.973400
N       6.482300     8.099100    11.652700
C       9.757100     7.311200    10.498100
C       7.422200     7.191400    11.334300
C       5.205900     7.784100    12.266100
C       5.164300     7.650700    13.660200
C       9.928100     7.129700     9.113900
C       2.868900     7.350300    12.070800
H       2.084100     7.244300    11.546600
C       6.939500     9.505700    11.548000
H       6.909200     9.960200    12.426300
H       6.393400    10.014300    10.897300
C      11.172700     6.677100     8.689400
H      11.325700     6.537300     7.761900
C      12.184700     6.427300     9.584700
H      13.028900     6.130700     9.265600
C       6.367400     7.852200    14.558300
H       7.151000     8.063500    13.973600
C       9.318100     3.005900    11.070100
C      10.763700     7.058400    11.435500
C      11.993200     6.601400    10.936600
H      12.702000     6.409100    11.539500
C       4.079100     7.677100    11.449600
C       3.923500     7.339000    14.228000
H       3.852800     7.236300    15.169600
C       8.380300     9.336100    11.056100
H       8.509800     9.759900    10.170700
H       9.027200     9.721800    11.698300
C       8.327000     3.753300    10.264900
H       7.722600     3.108400     9.817900
H       8.801000     4.262100     9.560800
C      10.566900     7.250700    12.930800
H       9.713300     7.759000    13.048900
C       5.178400     2.900900    11.933000
C       8.924800     2.038700    12.004700
H       7.999700     1.872700    12.135400
C       5.633000     4.214600    12.448800
H       5.912800     4.103800    13.391800
H       4.867000     4.840900    12.437600
C       8.839100     7.429000     8.102000
H       8.057700     7.809100     8.598100
C       5.368800     1.711400    12.623100
H       5.791000     1.734500    13.474700
C       2.805900     7.180200    13.441000
H       1.977900     6.949900    13.845700
C      10.699200     3.230600    10.966100
H      11.014400     3.899500    10.370300
C       4.131200     7.884800     9.941600
H       4.955300     8.414000     9.740600
C       4.563100     2.794000    10.686500
H       4.406600     3.581100    10.177700
C       9.839700     1.323900    12.736900
H       9.534700     0.669000    13.353900
C      11.618600     2.503600    11.704000
H      12.546900     2.673800    11.598600
C       4.963200     0.498900    12.108700
H       5.099700    -0.294400    12.611800
C       4.176000     1.572200    10.169300
H       3.772800     1.526200     9.310600
C       4.374000     0.428600    10.891600
H       4.098800    -0.410600    10.541700
C      11.198100     1.540200    12.587900
H      11.828200     1.033500    13.086800
