43
Refcode: FAHXUI_comp_0 | Dataset: tmCAT | Charge: 0 | Potential Spins: [1, 3, 5]
V       2.390100     8.308400     3.046700
O       1.649100     9.992400     2.330000
O       3.506900     6.840000     2.976400
O      -0.209100    15.475000    -1.946000
O      -0.059600    16.186500     0.058000
O       1.004100     7.585200     3.296200
O       2.701100     9.071900     4.609300
O       4.367800     9.485500     2.471000
H       4.614300     9.364800     1.528200
N       1.956400     9.217600     0.206300
N       2.374200     8.096100     0.925900
N      -0.007800    15.303700    -0.763400
C       1.087000    11.452300     0.554500
C       0.788700    12.451900     1.465000
H       0.844900    12.273100     2.375400
C       0.410500    13.703700     1.043300
H       0.207300    14.371900     1.657100
C       0.340200    13.946500    -0.310800
C       0.586900    12.973300    -1.234100
H       0.503500    13.154000    -2.142000
C       0.961900    11.717800    -0.804700
H       1.131600    11.047600    -1.426300
C       1.572200    10.147900     1.047100
C       2.642000     7.025000     0.259200
H       2.475200     7.058900    -0.751800
C       3.074300     5.805200     0.857600
C       3.473700     5.739300     2.207800
C       3.894300     4.519600     2.731400
H       4.151700     4.472500     3.623800
C       3.937300     3.390100     1.960200
H       4.212000     2.584500     2.335400
C       3.572300     3.437200     0.611300
H       3.609800     2.674800     0.080000
C       3.158200     4.632500     0.090300
H       2.922200     4.670200    -0.808600
C       1.763100     9.411900     5.627800
C       5.433200     9.831600     3.362000
H       5.857000     8.924700     3.790700
H       6.205300    10.368800     2.813100
H       5.047900    10.464700     4.159900
H       1.253700     8.511200     5.967400
H       2.286800     9.870400     6.465200
H       1.032200    10.113600     5.228600
