74
Refcode: FAHYOE_comp_0 | Dataset: tmCAT | Charge: unknown | Potential Spins: [1, 3, 5]
C       1.723900    11.245100     1.261300
C       0.504000    11.537200     1.898200
C      -0.378200    12.415900     1.243200
H      -1.220100    12.610200     1.640700
C      -0.049000    13.003300     0.034200
H      -0.648700    13.615000    -0.374700
C       1.153600    12.697300    -0.576800
H       1.375700    13.110800    -1.402800
C       2.047100    11.788800     0.004700
C       0.165200    10.919500     3.234200
H       0.092600     9.947200     3.136400
H      -0.689000    11.279600     3.553500
H       0.871000    11.131300     3.881000
C       3.303200    11.351600    -0.717900
H       3.161500    10.466000    -1.112800
H       4.049100    11.310800    -0.083100
H       3.513600    11.994900    -1.427300
C       2.422500     9.022700     1.574600
C       1.306600     8.644400     0.606100
H       0.446800     8.956900     0.961300
H       1.281100     7.670300     0.501800
H       1.472800     9.063300    -0.263900
C       3.168600     7.972000     2.103000
H       2.910400     7.099800     1.828100
C       4.248700     8.039700     2.984100
C       4.855700     6.713700     3.413700
H       5.786700     6.668200     3.113600
H       4.347100     5.976700     3.014200
H       4.823500     6.639400     4.391000
C       5.910200     9.039100     4.303200
C       7.186500     8.985400     3.736800
C       8.282600     8.799900     4.593000
H       9.161800     8.791500     4.233000
C       8.100000     8.630000     5.961700
H       8.853100     8.498400     6.527000
C       6.827700     8.650000     6.498700
H       6.713600     8.522100     7.432900
C       5.704200     8.856400     5.691200
C       7.384500     9.059000     2.232300
H       7.250500     8.169600     1.841100
H       8.293500     9.367700     2.036600
H       6.737000     9.685700     1.847600
C       4.317000     8.883400     6.262900
H       4.362200     8.760500     7.234200
H       3.785700     8.162700     5.865500
H       3.898700     9.746800     6.061100
C       3.850000    12.697900     4.573300
C       3.532900    13.256700     3.284500
C       4.689000    13.128900     2.466300
C       5.748700    12.554400     3.266300
C       5.239700    12.332000     4.577700
C       2.951900    12.714700     5.784900
H       3.158200    11.945500     6.356000
H       2.015800    12.666600     5.498900
H       3.097700    13.543600     6.287500
C       2.273500    14.011200     2.941700
H       2.355200    14.938000     3.247200
H       1.508200    13.587700     3.384100
H       2.138000    13.996700     1.971500
C       4.874300    13.706500     1.086600
H       4.005700    13.766100     0.638700
H       5.470400    13.128200     0.567000
H       5.268500    14.601100     1.156800
C       7.188800    12.430300     2.848000
H       7.654500    13.274000     3.027300
H       7.234400    12.229500     1.890000
H       7.615700    11.709500     3.354800
C       6.071300    11.994800     5.795300
H       6.813000    11.411600     5.531500
H       5.512900    11.532900     6.455400
H       6.427200    12.819300     6.186500
N       2.637900    10.316100     1.891000
N       4.749300     9.203000     3.447000
Ru      4.101300    11.129300     3.109200
