91
Refcode: FAKWUK_comp_0 | Dataset: tmCAT | Charge: 0 | Potential Spins: [1, 3, 5]
Pt      0.816600     3.763900    18.056100
Cl     -0.366800     2.403000    16.538300
Cl      1.861400     4.937800    16.281400
P       0.000400     2.539400    19.744200
P       1.728400     5.122100    19.584900
C       0.186500     3.587800    21.232000
H      -0.522600     4.280100    21.248200
H       0.097300     3.034400    22.049500
C       1.545400     4.244700    21.204100
H       2.254200     3.561500    21.301700
H       1.626300     4.889900    21.949600
C       1.051400     1.038600    19.984800
C       1.862100     0.697600    18.902500
H       1.794800     1.194600    18.096600
C       2.757400    -0.344900    18.979200
H       3.279700    -0.579600    18.219700
C       2.895600    -1.041200    20.145100
H       3.539300    -1.737500    20.214700
C       2.096900    -0.729100    21.215700
H       2.197500    -1.227400    22.017000
C       1.142800     0.289800    21.178600
C       0.262200     0.465500    22.407100
H      -0.432700     1.148700    22.181900
C      -0.476800    -0.840600    22.788000
H      -0.962900    -1.178900    22.007700
H      -1.108800    -0.658300    23.512600
H       0.175900    -1.510600    23.083000
C       1.049700     0.992700    23.603200
H       1.693600     0.313400    23.895800
H       0.432000     1.194600    24.337100
H       1.529100     1.808300    23.347700
C      -1.729400     1.964400    19.689900
C      -1.978700     0.588800    19.685200
H      -1.246500    -0.017000    19.671300
C      -3.257900     0.098300    19.701500
H      -3.410800    -0.839200    19.696800
C      -4.312800     0.965100    19.724700
H      -5.201500     0.632100    19.768800
C      -4.084400     2.331500    19.682900
H      -4.828000     2.922900    19.694500
C      -2.807900     2.861300    19.629500
C      -2.654100     4.371900    19.441400
H      -1.674700     4.570000    19.399600
C      -3.265600     4.809900    18.112900
H      -4.221700     4.598800    18.108300
H      -2.822300     4.336500    17.379000
H      -3.143000     5.775100    17.999100
C      -3.233700     5.169200    20.621200
H      -3.147300     6.129100    20.440000
H      -2.742400     4.946300    21.438700
H      -4.180200     4.942400    20.735000
C       3.473000     5.616400    19.457600
C       3.780400     6.981500    19.381000
H       3.070700     7.610900    19.327600
C       5.084700     7.439100    19.381000
H       5.272700     8.368800    19.329900
C       6.101600     6.523800    19.453000
H       7.003700     6.822800    19.480800
C       5.831900     5.186300    19.483200
H       6.556900     4.573900    19.520300
C       4.523700     4.684000    19.464600
C       4.334600     3.182600    19.411200
H       3.352900     3.000300    19.367000
C       4.969800     2.625300    18.122200
H       4.563100     3.059300    17.341800
H       4.819100     1.658800    18.073400
H       5.933300     2.804900    18.129200
C       4.885200     2.461300    20.635100
H       5.859500     2.568900    20.667600
H       4.663900     1.508000    20.579400
H       4.488500     2.842900    21.445600
C       0.743100     6.661500    19.750200
C      -0.168900     6.913300    18.719100
H      -0.203300     6.310100    17.985200
C      -1.019200     7.996400    18.721400
H      -1.628900     8.138100    18.006100
C      -0.964700     8.863200    19.778100
H      -1.551000     9.610700    19.801300
C      -0.071900     8.666500    20.807000
H      -0.058300     9.280200    21.531600
C       0.821700     7.580700    20.811600
C       1.806300     7.500800    21.984500
H       2.445200     6.754600    21.798700
C       2.618600     8.784500    22.133100
H       2.992200     9.037600    21.264500
H       3.346700     8.637700    22.774100
H       2.036700     9.501800    22.460600
C       1.088800     7.187300    23.294300
H       0.406600     7.869200    23.463900
H       1.736000     7.183400    24.030500
H       0.661500     6.307400    23.231600
