78
Refcode: FAPDIL_comp_0 | Dataset: tmCAT | Charge: 0 | Potential Spins: [1, 3, 5]
Zn     11.207800     4.305400     7.229700
O      10.289900     5.599700     8.354100
N      10.449000     8.697300     8.259800
N       9.625500     8.154800     9.148800
N       9.753500     8.521200    10.425700
N       9.371800     3.547300     6.405000
N      11.338200     5.400000     5.378500
C       9.034200     5.943300     8.302100
C       8.615700     7.215600     8.742000
C       7.286700     7.603200     8.835400
H       7.073400     8.465200     9.172100
C       6.260100     6.743300     8.440400
C       6.658800     5.496100     7.948000
H       5.986000     4.893200     7.655200
C       7.986200     5.087100     7.863400
C      11.207600     9.516600     9.027700
C      12.258200    10.384200     8.656600
H      12.537800    10.470500     7.752900
C      12.851600    11.094500     9.664700
H      13.561500    11.690700     9.453200
C      12.436700    10.967100    11.020900
H      12.884000    11.474100    11.687600
C      11.415500    10.138000    11.395500
H      11.144300    10.059000    12.302200
C      10.781100     9.405600    10.365300
C       4.774400     7.105500     8.598700
C       4.004300     6.639000     7.347400
H       4.436500     6.997800     6.545300
H       3.080000     6.963500     7.392800
H       4.005100     5.660300     7.309800
C       4.609700     8.624200     8.710200
H       5.054500     9.057200     7.951100
H       5.014400     8.936300     9.545600
H       3.657200     8.851500     8.702100
C       4.303700     6.343700     9.874900
H       4.308500     5.382400     9.639300
H       5.017200     6.468900    10.549700
C       2.962400     6.602900    10.610900
C       3.018600     7.890300    11.440000
H       2.239500     7.932800    12.031700
H       3.016900     8.665600    10.840200
H       3.837800     7.896700    11.978200
C       1.739600     6.632600     9.701000
H       0.926900     6.663900    10.247100
H       1.728100     5.826400     9.142600
H       1.777800     7.425600     9.127900
C       2.792100     5.429500    11.593900
H       2.033300     5.608000    12.187000
H       3.607900     5.330000    12.128100
H       2.627100     4.604400    11.091900
C       8.288600     3.679900     7.411000
H       8.532600     3.142400     8.205500
H       7.461500     3.290400     7.031300
C       9.482200     2.110900     6.058000
H       8.644700     1.808600     5.648400
H       9.656100     1.590200     6.870700
H      10.219700     1.983600     5.424800
C       9.103500     4.366900     5.193600
H       8.623500     5.192800     5.452900
H       8.525000     3.857200     4.572000
C      10.405900     4.736200     4.489000
H      10.826200     3.914900     4.131500
H      10.205500     5.331800     3.724500
C      12.723900     5.268600     4.767400
H      12.744800     5.728900     3.902600
H      12.935900     4.321100     4.637600
H      13.385600     5.671200     5.368600
C      11.152400     6.828700     5.541300
H      11.191000     7.264900     4.665700
H      11.859800     7.187300     6.116900
H      10.279100     6.999600     5.953600
C      12.776500     3.207900     7.746200
H      13.593200     3.734400     7.554800
H      12.742100     3.070200     8.726200
C      12.929400     1.846800     7.086200
H      13.795100     1.460200     7.333900
H      12.884100     1.949300     6.112900
H      12.209300     1.254400     7.387400
