62
Refcode: FAYBIS_comp_1 | Dataset: tmCAT | Charge: 1 | Potential Spins: [1, 3, 5]
N       6.506500     3.964900     9.057900
N       5.571300     4.796000     7.243300
N       2.661400     5.432300     7.662100
N       1.936100     5.077700     9.673800
C       5.601600     4.821000     8.607200
C       7.101000     3.380000     7.952300
C       6.530900     3.892700     6.828000
C       4.798000     5.605100     6.356400
C       5.444200     6.092500     5.222700
C       4.745500     6.811800     4.269300
C       3.406300     7.081200     4.445700
C       2.763700     6.637200     5.585000
C       3.445200     5.899200     6.545000
C       3.025300     5.441800     8.975400
C       1.334500     5.059900     7.564600
C       0.885800     4.837600     8.814700
C       1.856900     4.843500    11.123600
C       4.873400     7.519200     8.991500
C       6.077600     7.906900     8.414600
C       6.245400     9.207900     7.971000
C       5.220600    10.139700     8.094400
C       4.021200     9.750400     8.673700
C       3.849600     8.457800     9.134800
C       7.945800     3.229200    12.881600
C       8.464400     1.818300    12.842300
C       7.551300     0.870700    12.060600
C       6.784100     1.589500    10.951900
C       5.512900     2.107700    11.144700
C       4.750000     2.112000    12.443700
C       5.579400     2.605400    13.630900
C       6.646400     3.596300    13.216200
Rh      6.910300     3.690500    11.094600
Cl      7.798800     5.908700    11.159200
P       4.631300     5.859900     9.730700
H       7.812000     2.753100     8.006300
H       6.725700     3.697900     5.935300
H       6.367100     5.959100     5.110300
H       5.191100     7.124200     3.527900
H       2.931700     7.579600     3.790200
H       1.849400     6.830400     5.699900
H       0.882200     4.992200     6.760400
H       0.045600     4.574800     9.066700
H       1.026400     5.235900    11.447200
H       1.852500     3.901700    11.280900
H       2.609600     5.244700    11.550800
H       6.756300     7.261500     8.323500
H       7.040300     9.447200     7.582900
H       5.353200    11.004800     7.774800
H       3.320700    10.347400     8.749500
H       3.051400     8.216600     9.542600
H       8.625900     3.924800    13.016800
H       8.591600     1.492800    13.742000
H       9.350200     1.825700    12.381000
H       6.907500     0.436400    12.673900
H       8.098600     0.171800    11.651900
H       7.003300     1.325800    10.068300
H       4.961200     2.138500    10.359900
H       4.409000     1.206500    12.625300
H       3.970400     2.709600    12.369500
H       6.000400     1.815300    14.045200
H       5.000700     3.026900    14.274200
H       6.495100     4.505000    13.495200
