61
Refcode: FECKEF_comp_0 | Dataset: tmCAT | Charge: 0 | Potential Spins: [1, 3, 5]
Pd      4.473200     7.258500     4.310700
P       5.658800     7.649800     6.196900
O       3.133100     6.093800     5.241300
N       3.502700     7.080800     2.595300
N       4.184200     7.668600     1.558300
H       3.901500     7.613500     0.747500
N       5.645800     8.319900     3.145500
H       6.326200     8.742500     3.455000
C       2.351000     6.536400     2.394400
H       1.996000     6.589800     1.536500
C       5.338700     8.350000     1.867700
O       5.989200     8.897800     0.950200
C       2.021500     5.631200     4.692900
C       1.216200     4.829600     5.576100
H       1.545400     4.622600     6.421300
C      -0.013900     4.367000     5.217700
H      -0.487400     3.812600     5.795100
C      -0.566200     4.719400     3.981600
C      -1.916000     4.405500     3.684800
H      -2.425600     3.937900     4.305600
C      -2.474900     4.779500     2.504800
H      -3.363200     4.572500     2.322000
C      -1.718100     5.467600     1.583600
H      -2.096900     5.696400     0.765600
C      -0.409500     5.825000     1.846000
H       0.070300     6.317600     1.219800
C       0.190300     5.455900     3.036900
C       1.571200     5.855000     3.391600
C       6.220800     6.155600     7.067400
C       7.365500     6.179000     7.876400
H       7.850900     6.965600     7.974100
C       7.771700     5.035100     8.529700
H       8.555600     5.041700     9.029200
C       7.032000     3.894400     8.444700
H       7.294900     3.136300     8.917000
C       5.892300     3.857700     7.662800
H       5.400500     3.071100     7.590400
C       5.489700     4.983300     6.995000
H       4.713300     4.959900     6.484600
C       4.704600     8.642300     7.366000
C       4.874800     8.512000     8.745100
H       5.434700     7.849000     9.081700
C       4.201800     9.377000     9.626500
H       4.314400     9.300200    10.545900
C       3.361800    10.355700     9.090800
H       2.917500    10.938500     9.662700
C       3.183100    10.470900     7.767800
H       2.617800    11.128900     7.431200
C       3.836700     9.615900     6.902700
H       3.690400     9.694400     5.988700
C       7.174900     8.638900     5.903700
C       8.214900     8.114500     5.219500
H       8.161600     7.234400     4.924500
C       9.360100     8.847700     4.939000
H      10.067700     8.450200     4.484800
C       9.444100    10.133600     5.329900
H      10.197500    10.637900     5.121800
C       8.419600    10.691300     6.028500
H       8.480300    11.573100     6.318100
C       7.281000     9.946500     6.312700
H       6.581900    10.337300     6.785100
