70
Refcode: FEDYUI_comp_0 | Dataset: tmCAT | Charge: 0 | Potential Spins: [1, 3, 5]
Co      4.942500     7.564200     5.935500
O       8.372500     5.819300     7.057300
O       3.532000    10.823100     7.810300
O       5.852700     8.817800     4.862500
O       7.055300     8.175400     4.274700
N       4.213900     6.846900     4.257300
N       6.342300     6.259000     6.008600
N       5.899300     8.300200     7.347700
N       3.718500     9.019000     6.359900
N       3.747700     6.486700     7.139000
C       3.643700     7.715400     3.405200
C       3.070600     7.336500     2.208700
C       3.103600     6.011100     1.862600
C       3.731100     5.102000     2.695600
C       4.286800     5.548000     3.888600
C       5.058100     4.598400     4.763400
C       6.445200     5.105100     5.119900
C       7.342800     6.500700     6.860700
C       7.083400     7.762200     7.620700
C       7.967400     8.426500     8.485100
C       7.570100     9.647400     9.001600
C       6.354900    10.193100     8.664200
C       5.508800     9.497700     7.806800
C       4.145900     9.864100     7.314700
C       2.277000     9.003400     6.135500
C       1.765000     7.548600     6.088600
C       2.391600     6.639500     7.111200
C       1.596000     5.919100     7.998100
C       2.125400     5.053700     8.911100
C       3.513600     4.922700     8.947700
C       4.265400     5.658700     8.065900
C       7.661400     9.139100     3.387800
C       8.816400     8.314200     2.766900
C       6.661900     9.577200     2.335600
C       8.275400    10.294500     4.158200
C       8.747500    11.428100     3.513000
C       9.399300    12.441700     4.182500
C       9.555700    12.359000     5.542500
C       9.082600    11.261300     6.212100
C       8.456000    10.235200     5.533800
H       3.635000     8.637000     3.638200
H       2.662600     7.977400     1.640000
H       2.698500     5.718000     1.053900
H       3.781700     4.183600     2.455600
H       5.144500     3.729800     4.297300
H       4.548100     4.445600     5.598200
H       6.958100     4.386300     5.565100
H       6.927100     5.364000     4.293800
H       8.810600     8.050700     8.709400
H       8.145200    10.115200     9.596400
H       6.095500    11.038300     9.012000
H       2.068100     9.457200     5.279900
H       1.821400     9.493000     6.864200
H       0.784900     7.553200     6.226000
H       1.939900     7.179000     5.187700
H       0.653800     6.032900     7.965100
H       1.568800     4.559400     9.500700
H       3.929300     4.338000     9.570300
H       5.210600     5.577600     8.112900
H       9.376000     8.898900     2.215600
H       8.444400     7.596900     2.212100
H       9.360400     7.922800     3.483400
H       7.123300    10.093300     1.641700
H       5.972200    10.135500     2.753000
H       6.243200     8.788200     1.932100
H       8.616300    11.509200     2.575600
H       9.737300    13.191700     3.706000
H       9.989900    13.059100     6.017300
H       9.186500    11.205100     7.154700
H       8.144200     9.477400     6.013800
