45
Refcode: FEJLEN_comp_0 | Dataset: tmCAT | Charge: 0 | Potential Spins: [1, 3, 5]
Mo      4.582600     3.289900     2.661100
Cl      8.813100     3.658300     2.969600
Cl      9.094700     0.874600     7.561100
Cl     -0.189600     4.512800     7.978500
Cl      0.822600     5.813000     2.851000
O       6.252300     2.248900     2.627400
O       2.668400     3.579600     2.926700
O       4.820200     4.222800     1.252600
O       5.046300     4.218100     4.022000
N       3.904800     1.421900     4.008500
N       3.904800     1.518700     1.293000
C       6.880500     1.967900     3.788600
C       6.295200     1.075400     4.697400
C       6.960000     0.757100     5.879400
H       6.571600     0.153400     6.501600
C       8.195900     1.330900     6.137800
C       8.782200     2.231000     5.268300
H       9.623100     2.625500     5.470200
C       8.114700     2.545300     4.095200
C       5.000200     0.435700     4.288900
H       5.155000    -0.109400     3.476800
H       4.703500    -0.174800     5.009800
C       3.393900     1.920900     5.313100
H       4.156500     2.293300     5.823000
H       3.044400     1.148600     5.825800
C       2.311300     2.972900     5.244200
C       1.592500     3.197300     6.424800
H       1.734400     2.638800     7.180300
C       0.676800     4.230900     6.494300
C       0.426200     5.051500     5.404600
H      -0.193800     5.768600     5.466000
C       1.107000     4.797000     4.221700
C       2.053100     3.766800     4.111500
C       2.824300     0.689300     3.288800
H       1.980400     1.204700     3.337900
H       2.675000    -0.190800     3.716200
C       3.220600     0.496100     1.847200
C       2.897500    -0.644100     1.127500
H       2.438300    -1.362100     1.545700
C       3.253100    -0.723900    -0.215400
H       3.027900    -1.490200    -0.729600
C       3.940400     0.332300    -0.788700
H       4.186300     0.306800    -1.705800
C       4.262500     1.425100    -0.004100
H       4.754600     2.137200    -0.393900
