106
Refcode: FEYHOI_comp_0 | Dataset: tmCAT | Charge: unknown | Potential Spins: [1, 3, 5]
C       8.538700     9.212100    11.008900
H       7.837600     9.869600    11.199200
C       9.562500     9.177900    11.980200
H       9.435300     9.816000    12.712500
C      11.474800     8.149900    10.133500
H      12.347000     8.240900     9.695000
C      10.445200     7.969800     9.274800
H      10.691300     7.950700     8.326300
C       9.203800     7.168900     9.637100
H       9.431900     6.520400    10.320700
H       8.899700     6.682900     8.854600
C      11.555300     7.622100    11.564600
H      11.697800     6.662700    11.537200
H      12.321500     8.021600    12.004600
C      10.308600     7.910900    12.389700
H      10.562800     7.987000    13.321500
H       9.703200     7.155500    12.312100
C       8.072300     8.056300    10.145600
H       7.586800     8.410800     9.384400
H       7.455800     7.511500    10.660200
C      11.108800    12.729400    13.190600
H      10.822900    11.793200    13.126600
C       9.916300    13.613000    13.606200
H      10.161300    14.558600    13.531600
C       8.551800    13.360300    12.892200
C      11.802200    13.150800    11.891900
C       9.208800    14.160500     8.737400
H      10.161900    14.215400     8.563800
H       8.934000    14.927900     9.262600
C       7.869500    12.100600     8.617100
H       7.049800    11.956500     9.114900
H       8.236700    11.242000     8.355200
C       7.634200    12.970700     7.432600
H       7.810600    12.465800     6.622700
H       6.705000    13.248200     7.415900
C       8.426000    14.065100     7.457000
H       7.876700    14.858200     7.358000
H       9.040400    14.031700     6.707900
C      12.862800    12.153700    11.346900
C      13.296500    10.980400    11.969500
C      14.316500    10.212400    11.433600
C      14.922000    10.581200    10.262900
C      14.505900    11.728500     9.611300
C      13.496200    12.478800    10.154800
C      11.160600    13.030100    15.469700
C      11.651600    14.192200    16.250700
H      11.578000    14.988500    15.719300
H      12.569800    14.050100    16.491200
H      11.122300    14.287600    17.045400
C      11.170600    11.722400    16.250700
H      10.698300    11.840300    17.077400
H      12.077200    11.465300    16.433400
H      10.743300    11.036900    15.731500
C      12.473000    14.530300    12.019800
C      13.690700    14.646800    12.715500
C      14.348800    15.844400    12.895200
C      13.820000    16.998200    12.350200
C      12.651900    16.927400    11.634600
C      11.987600    15.725900    11.485400
C       6.846400    14.321600    11.292000
C       6.196700    15.282400    10.573500
C       6.623300    16.584700    10.632800
C       7.696700    16.898400    11.430600
C       8.341800    15.890800    12.155300
C       7.970800    14.564300    12.083700
C       7.447600    12.998300    13.910700
C       6.695500    11.828000    13.941100
C       5.643200    11.647300    14.802800
C       5.289300    12.650700    15.693500
C       6.012000    13.811500    15.707200
C       7.069300    13.967000    14.834800
C      12.596700     9.999800     6.476500
F      13.128100    13.579300     9.488100
F      15.075800    12.097700     8.463900
F      15.909200     9.844600     9.748300
F      14.712600     9.108700    12.070000
F      12.767100    10.545200    13.118100
F      14.312500    13.560400    13.207600
F      15.498000    15.874900    13.575000
F      14.446000    18.165300    12.502600
F      12.136900    18.032500    11.094400
F      10.863100    15.783100    10.768300
F       9.335700    16.338200    12.948500
F       8.116000    18.150100    11.555400
F       5.981000    17.545700     9.958400
F       5.122500    14.975400     9.825300
F       6.317500    13.074900    11.239100
F       7.730400    15.129200    14.868400
F       5.663300    14.803100    16.520300
F       4.242600    12.496400    16.514400
F       4.938800    10.516100    14.772400
F       6.925600    10.797800    13.103000
F      12.474300     8.754600     6.915000
F      12.434900     9.948600     5.155000
F      13.823300    10.419500     6.741400
N       8.852200    12.881500     9.416400
O       8.727300    12.233100    12.005900
O      10.763600    13.284600    10.897400
O       9.829000    13.241200    14.985500
O      11.967300    12.894800    14.297400
O      11.539300    10.873800     8.572900
O      11.708300    12.395500     6.816000
O      10.098700    10.535400     6.803900
P       9.633900    12.145600    10.643200
Rh     10.287000    10.053300    10.196600
S      11.345100    11.090100     7.239400
