98
Refcode: FIBLOU_comp_0 | Dataset: tmCAT | Charge: -2 | Potential Spins: [1, 3, 5]
Pd      1.435600     4.995000     3.526000
Cl      3.289200     4.372100     2.167900
O       7.065900     8.549600     1.718700
N       2.113500     6.944600     3.715000
N       0.710200     2.281200     4.678600
N       0.285600     2.359900     2.578100
C       0.762300     3.129000     3.607200
C      -0.079300     5.761100     4.559900
C      -1.296700     5.202600     4.938000
H      -1.486200     4.322500     4.704100
C      -2.234600     5.933600     5.655600
H      -3.052900     5.545200     5.866500
C      -1.972900     7.220000     6.058000
H      -2.591800     7.679000     6.579200
C      -0.789700     7.829300     5.688300
H      -0.607800     8.702700     5.946500
C       0.132300     7.111200     4.919900
C       1.382900     7.713300     4.455600
C       1.751100     9.100400     4.836200
H       1.027000     9.694700     4.622900
H       2.536000     9.365900     4.353800
H       1.927200     9.138100     5.779200
C       3.386200     7.395000     3.231400
C       3.502400     8.048100     2.019300
H       2.736900     8.244200     1.528400
C       4.732600     8.412300     1.528400
H       4.797400     8.835400     0.703000
C       5.872800     8.151400     2.264200
C       5.765700     7.515200     3.487200
H       6.527500     7.344500     3.992600
C       4.518900     7.135500     3.957500
H       4.449800     6.698600     4.775600
C       8.221700     8.275100     2.493300
H       8.996800     8.627700     2.048400
H       8.317400     7.324300     2.599900
H       8.133700     8.685400     3.356300
C       0.224300     1.043900     4.311400
H       0.110300     0.308500     4.868900
C      -0.048800     1.094000     3.013200
H      -0.399300     0.406600     2.494500
C       1.225700     2.481000     6.020400
C       0.340700     2.435800     7.100400
C       0.884900     2.512800     8.382800
H       0.316900     2.497200     9.118500
C       2.242400     2.611400     8.584000
H       2.583000     2.667300     9.447000
C       3.095300     2.626100     7.504000
H       4.011800     2.687500     7.650700
C       2.621100     2.552000     6.201000
C       3.605200     2.473600     5.037400
H       3.221600     2.990300     4.298100
C       3.757800     1.039000     4.549000
H       4.365300     1.015000     3.807200
H       2.902000     0.703600     4.272600
H       4.100900     0.493100     5.260400
C       4.950400     3.076800     5.352600
H       4.828200     3.933200     5.767100
H       5.451900     3.183500     4.540500
H       5.429400     2.497200     5.950100
C      -1.160800     2.260200     6.976800
H      -1.404900     2.347300     6.031300
C      -1.926500     3.323100     7.771900
H      -2.863500     3.258500     7.573100
H      -1.606800     4.195600     7.529500
H      -1.787200     3.180600     8.711300
C      -1.591200     0.873700     7.459200
H      -1.324300     0.755500     8.373100
H      -1.173400     0.201900     6.914900
H      -2.544700     0.793000     7.390100
C       0.228300     2.708900     1.169700
C       1.231500     2.165900     0.337000
C       1.104200     2.401800    -1.032700
H       1.736700     2.050200    -1.616900
C       0.068600     3.137100    -1.528400
H       0.012800     3.287300    -2.444800
C      -0.899900     3.663300    -0.692100
H      -1.585500     4.178300    -1.052100
C      -0.859400     3.431800     0.688500
C      -1.980300     3.944500     1.584200
H      -1.567300     4.336900     2.381700
C      -2.878600     2.807500     2.043600
H      -3.538900     3.146000     2.650800
H      -2.348400     2.139600     2.486000
H      -3.314300     2.416500     1.282400
C      -2.846900     5.010500     0.943000
H      -3.328800     4.631100     0.204800
H      -2.290700     5.726800     0.626600
H      -3.468400     5.352000     1.590300
C       2.378500     1.321300     0.840000
H       2.475700     1.479300     1.802400
C       2.088700    -0.161500     0.630300
H       2.002900    -0.340300    -0.309100
H       1.270900    -0.395100     1.076300
H       2.809800    -0.683400     0.991500
C       3.714800     1.644500     0.167300
H       4.419700     1.165000     0.608500
H       3.882900     2.586600     0.226700
H       3.679500     1.384100    -0.756300
