90
Refcode: FIBPIR_comp_0 | Dataset: tmCAT | Charge: unknown | Potential Spins: [1, 3, 5]
Rh      4.790500     4.429200     1.796300
O       6.531800     5.705800     2.539100
O       7.913000     7.940200     8.462600
N       4.915800     4.904700     3.804400
C       5.033600     7.139600    -0.011200
H       4.732700     7.842400     0.602400
H       4.908900     7.438200    -0.935900
H       5.981900     6.952400     0.147100
C       4.229200     5.890900     0.224600
C       3.134800     5.742500     1.082100
C       2.786000     4.329100     1.102300
C       3.610700     3.645300     0.148800
C       4.558900     4.587900    -0.350000
C       5.585100     4.375600    -1.414100
H       5.891200     3.444500    -1.392400
H       6.346400     4.973800    -1.258000
H       5.191800     4.569500    -2.290300
C       2.457700     6.780700     1.920700
H       2.914100     7.640700     1.808400
H       2.491600     6.512900     2.862200
H       1.522500     6.869000     1.639700
C       1.570800     3.744300     1.779600
H       0.789900     3.849500     1.197100
H       1.412200     4.211300     2.626300
H       1.721600     2.791900     1.955500
C       3.428000     2.221900    -0.268000
H       3.311000     1.661400     0.527500
H       4.217500     1.922800    -0.764700
H       2.635200     2.148600    -0.839500
C       5.562100     2.659300     2.495100
C       6.914100     2.313800     1.973000
C       7.095700     1.744000     0.706100
H       6.340900     1.600500     0.147100
C       8.354500     1.385800     0.250800
H       8.455200     0.999900    -0.611200
C       9.463800     1.588500     1.048900
H      10.324100     1.327100     0.743100
C       9.318700     2.171500     2.291800
H      10.081300     2.318100     2.839400
C       8.052200     2.545900     2.745900
H       7.963800     2.964400     3.593900
C       5.003900     1.933100     3.487500
C       5.668700     0.737500     4.098600
C       5.940000     0.752000     5.464900
H       5.680800     1.504200     5.984400
C       6.585100    -0.315100     6.083000
H       6.774700    -0.277200     7.012800
C       6.948900    -1.425100     5.354700
H       7.380900    -2.158000     5.777600
C       6.677400    -1.458900     3.998400
H       6.923300    -2.223400     3.489900
C       6.049600    -0.391200     3.369300
H       5.877400    -0.428900     2.436100
C       3.671100     2.228300     4.128200
C       2.705400     1.207300     4.086800
H       2.900000     0.403700     3.619300
C       1.480700     1.346700     4.710300
H       0.845300     0.642000     4.671800
C       1.177300     2.516000     5.393500
H       0.331600     2.619200     5.814400
C       2.117200     3.532900     5.457100
H       1.907300     4.335200     5.920900
C       3.370100     3.395700     4.848700
C       4.400500     4.469700     4.994600
C       4.885500     4.944900     6.187300
C       4.400900     4.489400     7.530500
C       5.127300     3.566500     8.266600
H       5.912100     3.185200     7.891600
C       4.729400     3.190100     9.541100
H       5.236400     2.554000    10.032300
C       3.588300     3.746100    10.094100
H       3.306800     3.484100    10.963100
C       2.861700     4.675700     9.390100
H       2.082500     5.059600     9.774800
C       3.265400     5.054000     8.115800
H       2.764000     5.703600     7.638000
C       5.959200     5.924800     6.153600
C       6.479500     6.511300     7.319300
H       6.138600     6.248100     8.165600
C       7.477100     7.463600     7.257300
C       7.987000     7.887300     6.009000
H       8.638400     8.576900     5.964100
C       7.527100     7.287800     4.863600
H       7.893800     7.545700     4.026300
C       6.529700     6.303100     4.899000
C       6.032000     5.655900     3.722400
C       8.856700     9.013600     8.468400
H       9.649700     8.754700     7.953800
H       9.118200     9.214000     9.391800
H       8.450300     9.808200     8.064100
