50
Refcode: FICJEH_comp_0 | Dataset: tmCAT | Charge: 0 | Potential Spins: [1, 3, 5]
Ti      6.071700     7.666300     6.044600
Cl      4.352200     8.056600     4.674900
Cl      6.087500     5.431400     5.608900
Cl      8.068500     8.054700     5.124400
O       5.979200     9.331300     6.761300
N       6.041100     7.131500     8.124600
C       6.075400     5.740300     8.563800
C       7.309400     5.151600     8.826400
C       7.320000     3.809400     9.201800
H       8.149300     3.390300     9.399100
C       6.149600     3.068900     9.295800
C       4.939700     3.699800     9.049000
H       4.134400     3.201800     9.128000
C       4.873200     5.044400     8.688700
C       8.600200     5.922700     8.694900
H       9.356300     5.328400     8.882300
H       8.603100     6.666800     9.333200
H       8.679200     6.275000     7.784200
C       6.194900     1.613600     9.657600
H       7.114800     1.360900     9.880000
H       5.883700     1.078200     8.897300
H       5.614000     1.450600    10.429800
C       3.555500     5.716900     8.456200
H       3.416800     6.408100     9.137000
H       2.835900     5.053200     8.512300
H       3.551600     6.130000     7.567000
C       6.065300     7.973300     9.122000
H       6.067700     7.586600     9.989400
C       6.087900     9.400700     9.074800
C       6.160200    10.118100    10.279000
H       6.173700     9.662300    11.113000
C       6.211200    11.491000    10.233300
H       6.267100    11.990800    11.039600
C       6.181400    12.153500     9.003900
H       6.214100    13.103400     9.002100
C       6.107200    11.492800     7.778500
C       6.056100    10.092100     7.851300
C       6.104300    12.228700     6.440400
C       7.320900    11.800100     5.610700
H       8.141600    11.990800     6.112300
H       7.331500    12.297300     4.765500
H       7.267900    10.839200     5.424700
C       6.190000    13.740900     6.642900
H       6.163100    14.189100     5.772200
H       7.029100    13.961800     7.099500
H       5.432900    14.041100     7.187900
C       4.815400    11.918200     5.668500
H       4.821200    12.400500     4.816400
H       4.041000    12.200100     6.199200
H       4.761500    10.954400     5.498100
