107
Refcode: FIHGOV_comp_0 | Dataset: tmCAT | Charge: unknown | Potential Spins: [1, 3, 5]
Rh      8.671600    -3.508800     7.127600
N       8.721700    -3.443900     9.134700
N       7.182000    -2.149300     7.134100
N       8.661900    -3.524900     5.105300
N       9.982000    -5.038100     7.132700
C       9.585700    -4.152900     9.956400
C       9.486900    -3.627600    11.293400
H       9.955100    -3.934800    12.048700
C       8.610200    -2.627900    11.258100
H       8.363100    -2.088300    11.988000
C       8.118100    -2.515900     9.953500
C       7.097300    -1.653800     9.515900
C       6.602300    -1.587900     8.218400
C       5.454800    -0.824100     7.810400
H       4.849600    -0.377400     8.372300
C       5.419900    -0.874800     6.474700
H       4.776500    -0.461800     5.926900
C       6.524800    -1.662900     6.017300
C       6.942600    -1.787800     4.702900
C       7.999000    -2.621000     4.286400
C       8.524900    -2.757800     2.952200
H       8.271800    -2.251000     2.201100
C       9.445900    -3.739400     2.974800
H       9.944600    -4.046600     2.239200
C       9.530900    -4.228000     4.293400
C      10.331800    -5.283800     4.731100
C      10.481100    -5.703500     6.034200
C      11.287600    -6.800700     6.477600
H      11.742100    -7.412500     5.928400
C      11.275300    -6.798100     7.816000
H      11.708000    -7.416200     8.376500
C      10.478000    -5.678600     8.239600
C      10.347000    -5.243300     9.566700
C       6.532800    -0.733500    10.562100
C       5.493200    -1.094500    11.365400
H       5.097000    -1.937400    11.246800
C       5.002600    -0.250600    12.350900
H       4.245900    -0.519600    12.840800
C       5.554700     0.915500    12.630400
C       6.691400     1.291300    11.899100
H       7.118600     2.106900    12.088300
C       7.195300     0.457600    10.886800
H       7.977100     0.700300    10.426500
C       5.037600     1.807000    13.769800
H       5.572400     2.615800    13.815000
H       4.111300     2.040600    13.603200
H       5.104300     1.328800    14.611200
C       6.287900    -0.944700     3.638300
C       6.387600     0.409600     3.679300
H       6.861100     0.824600     4.376700
C       5.786100     1.190800     2.676900
H       5.870500     2.125900     2.712200
C       5.087700     0.624200     1.658900
C       4.995800    -0.741100     1.651900
H       4.531700    -1.156600     0.947400
C       5.564800    -1.544300     2.650000
H       5.450900    -2.478200     2.637300
C       4.472800     1.482900     0.567600
H       4.014000     0.915200    -0.070600
H       3.839900     2.101900     0.962900
H       5.171700     1.979300     0.115800
C      11.073500    -6.068300     3.663800
C      12.383300    -5.803000     3.387000
H      12.812700    -5.094200     3.828900
C      13.099000    -6.565900     2.452400
H      14.007100    -6.377000     2.295700
C      12.494700    -7.580600     1.771900
C      11.183000    -7.856600     2.054200
H      10.751000    -8.566000     1.613700
C      10.485100    -7.099000     2.986100
H       9.581800    -7.300000     3.154100
C      13.244200    -8.426900     0.752500
H      12.643100    -9.091500     0.379800
H      13.577000    -7.856300     0.040900
H      13.989500    -8.871700     1.186000
C      11.130400    -5.974900    10.618500
C      12.375300    -5.528300    11.039300
H      12.736400    -4.737000    10.684900
C      13.084100    -6.248200    11.978100
H      13.906000    -5.907500    12.280300
C      12.632200    -7.446800    12.490600
C      11.393600    -7.861400    12.078400
H      11.040800    -8.660700    12.427100
C      10.642900    -7.139600    11.160700
H       9.793100    -7.448700    10.906500
C      13.473200    -8.261000    13.450700
H      14.310300    -7.801000    13.618700
H      12.992200    -8.373200    14.286500
H      13.654700    -9.132500    13.063800
C      10.242700    -2.116700     7.072000
H      10.787800    -2.210700     7.880900
H      10.815200    -2.304100     6.298300
C       9.736200    -0.726600     6.980200
H       9.380300    -0.297500     7.736900
C       9.791000    -0.115300     5.845100
H      10.164500    -0.561300     5.106700
C       9.277200     1.296900     5.660100
C       9.680900     1.972500     4.513700
H      10.300000     1.558500     3.941900
C       9.217000     3.200200     4.190400
H       9.541800     3.642300     3.426600
C       8.270900     3.794700     4.981000
H       7.908800     4.628500     4.738200
C       7.839000     3.152900     6.162700
H       7.205300     3.580400     6.709100
C       8.327500     1.904000     6.541100
H       8.047400     1.483000     7.333100
