86
Refcode: FIKXIJ_comp_0 | Dataset: tmCAT | Charge: 0 | Potential Spins: [1, 3, 5]
Ru      6.470600    -2.790200     5.526300
P       8.478900    -1.971400     6.107200
N       5.295500    -1.424200     4.139800
N       4.447700    -3.342500     2.668000
C       7.674800    -4.372800     4.560300
H       7.437100    -4.601300     3.616300
C       9.160600    -4.247600     4.875900
H       9.602600    -3.706900     4.174600
H       9.574500    -5.146800     4.877500
C       9.370700    -3.584000     6.243900
H      10.335600    -3.480500     6.486400
C       8.637700    -1.173600     7.776300
H       8.091700    -1.736700     8.396400
C      10.051800    -1.151000     8.376900
H      10.433000    -2.064600     8.361800
H      10.634500    -0.565700     7.831000
C      10.013600    -0.635700     9.817800
H       9.476600    -1.252300    10.375600
H      10.933200    -0.611700    10.184800
C       9.408000     0.758800     9.873700
H       9.989900     1.390200     9.380700
H       9.359800     1.059000    10.815800
C       8.013100     0.777200     9.265600
H       7.671500     1.706300     9.258500
H       7.405000     0.232500     9.825200
C       8.014700     0.226600     7.834200
H       7.084500     0.186100     7.497100
H       8.526100     0.838300     7.247400
C       9.497900    -0.870100     5.001200
H       9.427400     0.051900     5.381800
C      10.998400    -1.193700     4.932200
H      11.376300    -1.198900     5.847200
H      11.122700    -2.096000     4.544200
C      11.746200    -0.162000     4.076400
H      11.699200     0.723700     4.515400
H      12.700000    -0.420700     4.011300
C      11.155000    -0.063700     2.680000
H      11.307000    -0.916100     2.198700
H      11.614000     0.655800     2.179100
C       9.651900     0.229900     2.729700
H       9.506900     1.134200     3.105000
H       9.284400     0.217000     1.810700
C       8.916600    -0.796000     3.583100
H       8.983500    -1.686100     3.154900
H       7.958600    -0.552700     3.634100
C       8.560500    -4.336000     7.304600
H       8.651400    -3.884900     8.181100
H       8.899200    -5.261800     7.394400
C       7.088200    -4.358000     6.879500
H       6.431400    -4.604500     7.592000
C       6.803600    -4.854600     5.565500
H       6.082700    -5.523500     5.383300
C       5.285000    -1.028100     5.509000
B       4.604400    -2.703300     3.933000
C       4.883700    -2.784100     1.378800
H       4.607400    -3.448800     0.684500
C       4.164100    -1.489200     1.027400
H       3.197400    -1.649700     0.999200
H       4.468100    -1.173600     0.150800
H       4.362400    -0.810400     1.705800
C       6.394800    -2.662000     1.261400
H       6.725100    -2.032900     1.936500
H       6.627700    -2.333900     0.367800
H       6.805800    -3.540000     1.404500
C       3.771200    -4.656200     2.592000
H       3.628900    -4.950000     3.537300
C       2.389900    -4.539000     1.975100
H       1.857800    -3.892600     2.485800
H       1.947400    -5.412800     1.993900
H       2.470800    -4.233300     1.047300
C       4.623500    -5.733100     1.940600
H       4.742700    -5.524800     0.990400
H       4.178000    -6.601400     2.031200
H       5.498600    -5.767500     2.379900
C       4.122300    -3.053000     5.374600
C       3.382800    -4.114900     5.993500
H       3.154000    -4.882300     5.482400
C       3.002900    -4.044600     7.298100
H       2.504200    -4.758400     7.678300
C       3.339200    -2.920000     8.102900
H       3.055000    -2.892000     9.008800
C       4.060500    -1.887000     7.596700
H       4.293900    -1.146000     8.143700
C       4.461400    -1.934500     6.230900
H       5.539200    -0.134200     5.750400
H       5.781100    -0.947900     3.552600
