48
Refcode: FIQLOJ_comp_0 | Dataset: tmCAT | Charge: 0 | Potential Spins: [1, 3, 5]
Pd     11.026300     4.819700    10.471600
Cl      9.203900     4.753200     9.073400
Cl     12.804700     4.862200    11.934100
N      12.091800     5.935200     9.036100
C      12.009500     5.645400     7.737000
H      11.512500     4.902800     7.481200
C      12.632200     6.400700     6.748300
H      12.567900     6.165500     5.849900
C      13.351400     7.517100     7.149100
H      13.750400     8.069500     6.517400
C      13.469300     7.796200     8.473100
H      13.979600     8.521300     8.753900
C      12.828800     6.998900     9.399500
H      12.908300     7.203900    10.302500
C      10.023500     3.742500    11.773200
N      10.313700     2.454300    12.082000
N       9.493000     1.884400    12.960000
N       8.645900     2.850500    13.237600
C       7.590400     2.555800    14.218600
H       6.809900     2.232800    13.761600
H       7.370200     3.355000    14.702000
H       7.901500     1.885400    14.831500
C       8.905100     4.008900    12.559200
C       8.189600     5.272600    12.771300
C       8.928100     6.424200    12.983400
H       9.855700     6.394900    12.927300
C       8.289900     7.621500    13.281300
H       8.794200     8.390500    13.427900
C       6.930100     7.676200    13.360800
H       6.506400     8.474500    13.579200
C       6.191100     6.553000    13.117500
H       5.262800     6.597900    13.150300
C       6.806900     5.344800    12.822800
H       6.294700     4.586600    12.659000
C      11.393600     1.618000    11.523600
H      11.809400     1.108600    12.236400
H      12.071000     2.187900    11.126000
C      10.861200     0.681200    10.486500
C      10.849900     1.028600     9.145300
H      11.188500     1.850200     8.873900
C      10.331400     0.146400     8.211100
H      10.341400     0.362000     7.306600
C       9.798500    -1.063700     8.638400
H       9.436100    -1.649200     8.013100
C       9.796000    -1.400400     9.922000
H       9.428000    -2.209400    10.194900
C      10.345600    -0.541600    10.845200
H      10.368000    -0.795300    11.738900
