30
Refcode: FIQTOQ_comp_0 | Dataset: tmCAT | Charge: 0 | Potential Spins: [1, 3, 5]
Pd     -2.628600     2.952200     7.755500
Cl     -4.720800     2.876500     8.643100
Cl     -2.310500     0.752200     8.220500
C       2.401600     2.948300     5.523300
C       2.574000     1.610200     5.235700
H       1.859300     0.994700     5.418400
C      -3.793400     5.750900     7.532200
H      -4.605400     5.368800     7.873300
N      -2.728400     4.968900     7.373800
C      -1.465200     6.852600     6.611000
H      -0.619300     7.175200     6.290100
N      -0.800800     3.262000     6.969200
C       1.160400     3.418100     6.089300
C      -1.607800     5.502600     6.920800
N      -0.561000     4.594200     6.738100
N       0.188900     2.557300     6.583800
C       0.656300     4.714600     6.212400
H       1.195500     5.453500     5.921800
C       3.445200     3.822500     5.247800
H       3.337400     4.759200     5.428400
C       4.628100     3.312600     4.703000
H       5.353800     3.916200     4.526400
C      -3.756600     7.074100     7.214400
H      -4.552700     7.604900     7.295100
C       4.780700     2.005700     4.434600
H       5.604000     1.666700     4.077400
C      -2.572900     7.621300     6.776500
H      -2.529700     8.563900     6.604900
C       3.732400     1.147800     4.696900
H       3.811600     0.214100     4.488100
