41
Refcode: FITFUL_comp_0 | Dataset: tmCAT | Charge: unknown | Potential Spins: [1, 3, 5]
Ti      0.203200     2.421100     6.337800
Cl      0.567000     3.813400     4.589500
Cl     -0.200400     3.829500     8.071400
Si      1.391200    -0.186900     6.705900
N       1.838600     1.501300     6.684900
C       1.448800    -0.997400     8.380800
H       2.323600    -1.365400     8.528400
H       0.795100    -1.699600     8.419600
H       1.257100    -0.344600     9.058700
C       2.209300    -1.239800     5.419200
H       2.267000    -0.750600     4.595000
H       1.694500    -2.037200     5.282900
H       3.093800    -1.475300     5.713100
C      -0.362700     0.234600     6.275900
C      -0.716600     0.768000     5.015200
H      -0.288600     0.569700     4.214800
C      -1.817500     1.647600     5.146600
C      -2.138500     1.708200     6.528600
C      -1.258300     0.846800     7.192700
H      -1.261400     0.695200     8.110700
C      -2.537200     2.339400     4.052200
H      -1.922200     2.540300     3.341800
H      -2.918500     3.155000     4.384900
H      -3.236200     1.772300     3.719500
C      -3.251200     2.506500     7.128900
H      -3.094900     2.614700     8.069400
H      -4.082600     2.049300     6.992600
H      -3.287300     3.369700     6.708700
C       3.220700     2.067500     6.815000
C       3.910400     1.970600     5.460500
H       4.004000     1.047600     5.214100
H       4.778100     2.377500     5.513000
H       3.383700     2.426800     4.800100
C       3.169800     3.527300     7.277700
H       4.059600     3.832000     7.474100
H       2.626400     3.593900     8.065700
H       2.793500     4.070100     6.581100
C       4.008300     1.257100     7.834300
H       4.068400     0.345500     7.540400
H       3.559800     1.290900     8.683500
H       4.890200     1.623400     7.923100
