43
Refcode: FOFVAY_comp_0 | Dataset: tmCAT | Charge: 0 | Potential Spins: [1, 3, 5]
Pd      9.886000    11.875000    19.091400
S       8.067000    12.050000    20.587900
S       5.678400    10.709500    21.364800
Cl     11.106100    13.155000    20.579900
N       9.588000    10.642800    16.466500
N       8.923000    10.757500    17.736200
C       7.846900    10.020900    17.862600
C       6.965900    10.043100    19.024800
H       6.316500     9.377900    19.002100
C       6.889800    10.814700    20.119000
C       7.423600     9.049300    16.806100
H       6.807100     9.476900    16.206200
H       6.996400     8.294000    17.217400
H       8.193800     8.753500    16.315600
C       4.376400     9.717600    20.662400
H       4.108600    10.091300    19.820900
H       3.625800     9.705600    21.262300
H       4.693700     8.821900    20.530300
C       7.174400    13.568900    20.162400
H       7.094400    13.637300    19.207800
H       7.656200    14.328000    20.498200
H       6.298800    13.546200    20.556700
C      10.933800    11.121600    16.575900
C      11.348200    11.726500    17.751300
C      12.655400    12.179700    17.836200
H      12.951300    12.592900    18.615400
C      13.518900    12.022400    16.774000
H      14.396400    12.321000    16.853300
C      13.105200    11.428700    15.591100
H      13.687100    11.347200    14.870400
C      11.796200    10.956200    15.506200
H      11.503700    10.531400    14.732700
C       8.806100    11.220400    15.359100
C       8.215400    12.446800    15.515600
H       8.304200    12.922000    16.311800
C       7.479200    12.961700    14.449700
H       7.071500    13.792900    14.534600
C       7.347600    12.274800    13.295100
H       6.829100    12.625700    12.608400
C       7.971400    11.059500    13.123400
H       7.902600    10.608100    12.312200
C       8.704900    10.512000    14.170500
H       9.120300     9.685000    14.076100
