64
Refcode: FONMED_comp_0 | Dataset: tmCAT | Charge: unknown | Potential Spins: [1, 3, 5]
Ru      8.814400     2.454300     4.600900
Cl      7.945600     4.259900     3.244200
P       6.683600     1.648000     4.737600
C      10.167100     1.762300     2.911400
C      10.839000     2.745100     3.700900
H      11.043000     3.627700     3.279500
C      11.006800     2.622200     5.078200
H      11.335400     3.407200     5.602700
C      10.421200     1.511600     5.767300
C       9.762100     0.526100     4.998100
H       9.237600    -0.182700     5.468300
C       9.659500     0.632500     3.571200
H       9.040900     0.019200     3.080600
C      10.048800     1.981400     1.425600
H       9.930200     2.963500     1.274300
C      11.368300     1.567300     0.755500
H      11.304500     1.715600    -0.210200
H      11.538400     0.618100     0.929700
H      12.102600     2.103700     1.120900
C       8.851800     1.275400     0.800900
H       8.761300     1.551500    -0.134400
H       8.037800     1.515100     1.291300
H       8.985200     0.305600     0.844500
C      10.555900     1.347500     7.263700
H       9.774800     0.870200     7.611700
H      10.613900     2.230000     7.685500
H      11.367300     0.835800     7.464000
C       8.128400     3.558300     6.243700
C       8.971900     4.344000     7.033800
H       9.896700     4.381100     6.822100
C       8.493900     5.080300     8.131200
H       9.108700     5.569900     8.664400
C       7.164100     5.109800     8.449500
H       6.862100     5.620100     9.192700
C       6.242200     4.379000     7.671300
C       4.810800     4.401700     7.929400
C       4.223700     5.214200     8.923800
H       4.777600     5.782200     9.446400
C       2.862400     5.201800     9.156700
H       2.491700     5.769800     9.821300
C       2.025000     4.355700     8.415600
H       1.089600     4.343300     8.581100
C       2.568700     3.548000     7.451500
H       2.003600     2.962200     6.962200
C       3.950600     3.570000     7.172400
C       4.502300     2.742400     6.139100
H       3.929900     2.176500     5.634900
C       5.827900     2.758200     5.874400
C       6.744700     3.585100     6.609700
C       5.680300     1.510300     3.230800
C       4.972900     2.600200     2.729000
H       4.988200     3.429200     3.192400
C       4.242100     2.477300     1.546600
H       3.755200     3.221800     1.213700
C       4.222400     1.274700     0.855800
H       3.726200     1.196400     0.049200
C       4.926900     0.188900     1.344400
H       4.915300    -0.634600     0.871000
C       5.652100     0.300800     2.525900
H       6.131200    -0.449900     2.857200
C       6.479600     0.028800     5.532500
H       5.526200    -0.197800     5.572400
H       6.845200     0.062500     6.441500
H       6.955600    -0.652500     5.013900
