115
Refcode: FORVIT_comp_0 | Dataset: tmCAT | Charge: unknown | Potential Spins: [1, 3, 5]
Zr      3.163000    -6.953500     3.340700
O       3.580200    -8.951200     3.093700
O       2.790200    -5.285000     4.497000
N       4.850100    -7.516100     5.000700
N       5.842400    -8.406400     4.753800
N       6.816500    -8.439000     5.651800
N       1.648000    -7.653800     5.104600
N       0.586400    -6.880700     5.437900
N      -0.429000    -7.513200     6.013100
N       1.460900    -6.946800     2.202900
N       4.606100    -6.128800     2.141900
C       4.724800    -9.612700     2.892000
C       5.873600    -9.334500     3.653700
C       7.087800    -9.997600     3.447600
H       7.843400    -9.776100     3.979500
C       7.193900   -10.966300     2.480200
C       6.044500   -11.257500     1.733600
H       6.108800   -11.927900     1.063300
C       4.823300   -10.634700     1.906400
C       5.225800    -6.945400     6.180000
C       4.593400    -5.975100     6.990800
H       3.777700    -5.561400     6.732900
C       5.221000    -5.662800     8.169100
H       4.816400    -5.024700     8.745500
C       6.451700    -6.251800     8.564800
H       6.838000    -6.007500     9.398100
C       7.091500    -7.161500     7.773800
H       7.929600    -7.535600     8.021400
C       6.448000    -7.516700     6.573200
C       8.509500   -11.706600     2.187400
C       8.243800   -13.221200     2.119500
H       7.625900   -13.411300     1.382800
H       7.848300   -13.522300     2.964900
H       9.088400   -13.695200     1.968500
C       9.059700   -11.224000     0.844000
H       8.386200   -11.365100     0.146000
H       9.869800   -11.728400     0.622200
H       9.274800   -10.269400     0.902100
C       9.554000   -11.467200     3.279000
H       9.779700   -10.514700     3.311700
H      10.360100   -11.987300     3.079000
H       9.191200   -11.746300     4.145300
C       3.595700   -11.034100     1.055100
C       3.922700   -12.180000     0.088400
H       4.617000   -11.889600    -0.540000
H       3.115800   -12.429000    -0.409200
H       4.245500   -12.953100     0.596300
C       3.135200    -9.845700     0.204000
H       2.857300    -9.112300     0.791000
H       2.380200   -10.118900    -0.357500
H       3.874000    -9.545400    -0.365100
C       2.456500   -11.513800     1.960600
H       2.227800   -10.807000     2.599800
H       2.740900   -12.315000     2.447700
H       1.670800   -11.725100     1.413200
C       1.626700    -4.704800     4.806500
C       0.514700    -5.454800     5.232100
C      -0.732100    -4.864000     5.490400
H      -1.461300    -5.402400     5.773100
C      -0.902000    -3.505800     5.334600
C       0.214100    -2.753100     4.939900
H       0.105100    -1.815400     4.839000
C       1.467900    -3.291700     4.687700
C       1.278000    -8.892600     5.522000
C       1.967200   -10.125700     5.487200
H       2.836000   -10.201500     5.111300
C       1.321100   -11.201100     6.020400
H       1.761300   -12.043700     6.021000
C       0.013100   -11.113200     6.577200
H      -0.390900   -11.894400     6.936800
C      -0.676600    -9.928200     6.605600
H      -1.555700    -9.869300     6.961100
C      -0.011400    -8.801300     6.078100
C      -2.259400    -2.818300     5.524600
C      -2.130600    -1.604400     6.436300
H      -1.763000    -1.883400     7.301900
H      -3.014800    -1.203300     6.571700
H      -1.533200    -0.946400     6.024100
C      -3.294300    -3.742200     6.144200
H      -2.965000    -4.068000     7.009800
H      -3.450400    -4.504000     5.547900
H      -4.131900    -3.253300     6.276600
C      -2.767100    -2.383700     4.151400
H      -2.824000    -3.165100     3.562700
H      -2.148400    -1.729500     3.766600
H      -3.655100    -1.978700     4.245700
C       2.649800    -2.397200     4.265200
C       3.826800    -2.572900     5.230000
H       4.136600    -3.502400     5.201100
H       3.537900    -2.354100     6.141200
H       4.557400    -1.976200     4.965300
C       2.259300    -0.907700     4.287400
H       1.964400    -0.660100     5.188900
H       1.529700    -0.751700     3.650900
H       3.033800    -0.362400     4.035800
C       3.081200    -2.722700     2.823700
H       3.375700    -3.655800     2.773200
H       3.817900    -2.132600     2.561700
H       2.322700    -2.587300     2.217900
C       0.440000    -7.990600     2.168200
H       0.179600    -8.162100     1.239800
H      -0.343900    -7.698100     2.678900
H       0.799400    -8.812600     2.563300
C       0.955900    -5.713600     1.611600
H       0.695800    -5.879400     0.681500
H       1.656000    -5.028400     1.636800
H       0.176800    -5.402900     2.119100
C       5.769800    -5.374500     2.595700
H       5.835400    -4.539300     2.088600
H       6.580400    -5.907500     2.453700
H       5.676900    -5.171800     3.549000
C       4.662100    -6.335800     0.705500
H       4.770500    -5.473000     0.255600
H       3.831300    -6.760100     0.404600
H       5.422300    -6.916600     0.488300
