47
Refcode: FOVFAZ_comp_0 | Dataset: tmCAT | Charge: unknown | Potential Spins: [1, 3, 5]
Hf      4.928300     3.940800     9.642300
N       5.523300     5.655500     7.946600
N       3.144500     4.925800    10.048500
P       5.553000     6.259000    10.833400
Cl      7.367800     3.688200     9.616900
Cl      4.675100     2.335700    11.361100
Cl      4.390400     2.675800     7.690800
H       6.307100     5.075600     7.701200
C       6.410500     6.502800    12.428300
C       7.775900     6.168500    12.503700
H       8.230300     5.870400    11.746900
C       8.424900     6.276300    13.695100
H       9.334600     6.079000    13.738000
C       7.767400     6.676300    14.825900
H       8.222000     6.734400    15.638900
C       6.418700     6.980500    14.737200
H       5.938500     7.224600    15.498400
C       5.778900     6.922600    13.507400
H       4.888500     7.179500    13.439400
C       3.932200     7.041400    10.913200
C       3.753800     8.382200    11.262100
H       4.475900     8.916200    11.494100
C       2.479600     8.893900    11.254700
H       2.345000     9.785500    11.477900
C       1.351900     8.085800    10.911700
H       0.494300     8.429100    10.964900
C       1.567000     6.785500    10.497800
H       0.853300     6.257700    10.209600
C       2.877800     6.256600    10.520000
C       1.982300     4.042400     9.903600
H       1.379300     4.174300    10.630900
H       2.277200     3.126200     9.888800
H       1.533000     4.238300     9.072900
C       6.559900     7.115600     9.587300
C       6.432600     6.713800     8.262900
C       7.103300     7.403800     7.260700
H       7.018200     7.134800     6.373800
C       7.901200     8.495900     7.581400
H       8.349600     8.957400     6.910400
C       8.028500     8.897700     8.905900
H       8.562400     9.627400     9.121700
C       7.357700     8.207500     9.909500
H       7.443400     8.475800    10.795000
C       4.236600     6.206700     7.275500
H       3.872200     6.913400     7.809100
H       3.587100     5.497700     7.200100
H       4.448400     6.536200     6.400400
