45
Refcode: FUVRIX_comp_0 | Dataset: tmCAT | Charge: 0 | Potential Spins: [1, 3, 5]
H      -0.075600     6.662200     1.994000
H       0.909200     4.693500     2.464100
H       2.508000     5.378300     4.004200
H       3.677700     8.502500     4.425700
H       5.423000     6.990300     5.155200
H       4.706300     5.749200     4.571600
H       3.575400    11.284400     1.767000
H       4.993100     8.759300     1.783200
H       4.528200     9.515400     0.599800
H      -3.468900    10.785100     5.933300
H      -2.758700    11.013400     7.116700
H       0.990200     6.819100     7.376100
H       0.394500     6.105800     0.713300
H       2.233700     5.264200     1.848100
H       1.153200     6.120100     4.182500
H       3.193200     7.361300     5.317300
H       5.389300     6.976100     3.696200
H       2.692500    11.027600     2.966700
H       4.135100    10.671000     3.128800
H       4.075600     8.074600     0.924000
H      -1.235600     9.272900     7.619300
H      -2.523900    11.883600     6.257500
H       0.332500     7.603800     8.284000
H       1.660600     8.160200     7.862500
Rh      0.296300     9.442400     3.652200
P       1.944400     8.434100     2.593800
O       1.489100     7.626600     1.267700
O      -1.300100    10.321500     4.685100
O       0.788400     8.482600     5.388600
O      -0.233400    10.845000     1.102400
N       3.126400     9.411300     1.987500
N       2.734200     7.198600     3.412500
C       0.700000     6.425400     1.496300
C       1.484400     5.413900     2.289000
C       1.941800     5.978900     3.621600
C       3.638600     7.553800     4.522900
C       4.896800     6.715000     4.503500
C       3.374400    10.745200     2.512700
C       4.266000     8.829200     1.271000
C      -1.587500    10.171700     5.912200
C      -0.905600     9.340000     6.815200
C       0.207900     8.569600     6.523400
C      -2.771900    10.956300     6.409900
C       0.846300     7.745000     7.616100
C      -0.042400    10.298600     2.089600
