48
Refcode: FUWWAX_comp_0 | Dataset: tmCAT | Charge: unknown | Potential Spins: [1, 3, 5]
Au      4.877400    -1.932700     1.827500
I       4.243200    -4.300100     2.507100
N       6.207300     0.253200     0.248100
N       4.352800     0.889300     1.108700
N       0.380200     0.344500    -0.253400
O       2.513800    -0.070500    -0.673100
C       5.231600    -0.121800     1.055900
C       5.982700     1.520600    -0.248100
C       4.796800     1.934000     0.279800
C       4.242600     3.171000    -0.047500
H       3.435900     3.454600     0.319400
C       4.932800     3.944900    -0.923900
H       4.593900     4.776500    -1.166700
C       6.122800     3.517100    -1.457100
H       6.554500     4.068300    -2.069500
C       6.708000     2.320100    -1.132400
H       7.531100     2.059000    -1.478200
C       3.212300     0.955000     1.977100
C       3.423500     1.283500     3.312800
H       4.293100     1.442100     3.600500
C       2.403600     1.382800     4.212900
H       2.573600     1.594300     5.102500
C       1.127100     1.163300     3.777400
H       0.413100     1.249800     4.366000
C       0.898400     0.817200     2.470700
H       0.022700     0.653700     2.201500
C       1.910100     0.697000     1.533600
C       1.553600     0.326900     0.168900
C       1.860600    -0.445400    -1.884700
H       1.976000    -1.392400    -2.058900
H       2.210900     0.059300    -2.634400
C       0.400800    -0.113800    -1.644500
H      -0.120500    -0.940600    -1.707900
C      -0.197800     0.903700    -2.576300
C      -1.096200     0.552800    -3.582000
H      -1.314600    -0.342900    -3.698200
C      -1.658700     1.477300    -4.395000
H      -2.296400     1.208100    -5.015400
C      -1.318700     2.772000    -4.321100
H      -1.683400     3.398500    -4.904500
C      -0.398700     3.151700    -3.344400
H      -0.153500     4.045800    -3.275800
C       0.154500     2.243200    -2.481300
H       0.762400     2.522000    -1.834600
C       7.396200    -0.549600    -0.034300
H       7.426000    -1.299500     0.562200
H       8.182200    -0.011200     0.089700
H       7.362200    -0.863600    -0.942400
