33
Refcode: FUWXEC_comp_0 | Dataset: tmCAT | Charge: 0 | Potential Spins: [1, 3, 5]
Pt     -0.186700     0.455600    12.138100
F      -0.167600     4.947300    13.311300
F       1.872800     4.752700    12.949700
F       0.636300     5.637100    11.585300
O      -0.015600     2.448200    12.506100
O       0.919200     3.182800    10.579900
N       0.907300    -0.023400    13.875800
N       1.720400    -1.926000    15.070800
N      -0.247800    -1.536300    12.054500
N       0.444500    -3.526200    13.218500
C       1.050300    -1.355100    14.093600
C       1.495500     0.791100    14.775100
H       1.414100     1.733400    14.679600
C       2.211600     0.276300    15.831600
H       2.622600     0.849500    16.468700
C       2.315200    -1.088700    15.939100
H       2.825400    -1.454800    16.651500
C       0.372000    -2.207600    13.066600
C      -0.117400    -4.237600    12.218500
H      -0.057100    -5.183900    12.252100
C      -0.781000    -3.674300    11.161900
H      -1.190200    -4.207400    10.491200
C      -0.826300    -2.314500    11.114900
H      -1.281600    -1.897100    10.393100
C      -1.260200     0.783100    10.425300
H      -2.054700     0.192700    10.434700
H      -1.585700     1.718200    10.432100
C      -0.497300     0.547600     9.120200
H       0.207600     1.221000     9.027400
H      -1.116100     0.615600     8.363400
H      -0.095400    -0.345900     9.133600
C       0.516500     3.274700    11.725100
C       0.704200     4.636400    12.418700
