87
Refcode: FUXFEL_comp_0 | Dataset: tmCAT | Charge: unknown | Potential Spins: [1, 3, 5]
Fe      1.123200    13.880700     2.454500
H       0.851500    14.847700     3.482500
C       2.755900    14.230600     2.847000
O       3.891100    14.449300     3.073100
P       0.803100    12.310400     3.919400
C      -0.171200    11.060000     2.986500
H       0.430900    10.374600     2.599500
H      -0.815100    10.608800     3.588000
C      -0.914800    11.798800     1.874400
H      -1.012800    11.200100     1.091000
H      -1.821300    12.039500     2.189700
N      -0.194800    13.023600     1.468400
C      -0.945500    13.627900     0.354300
H      -1.817300    13.959500     0.685900
H      -1.121200    12.941600    -0.336800
C      -0.159100    14.789900    -0.268900
H      -0.782800    15.469100    -0.628500
H       0.407100    14.460400    -1.010300
P       0.887500    15.524800     1.045800
C       2.347500    16.253100     0.172600
H       2.936600    16.647100     0.878400
C       3.169800    15.155100    -0.523100
H       3.410400    14.458100     0.136600
H       2.619600    14.731700    -1.229100
C       4.435600    15.720900    -1.142800
H       5.032200    16.046500    -0.423700
H       4.910100    15.000700    -1.628000
C       4.145100    16.856500    -2.100800
H       3.652500    16.505600    -2.885000
H       4.998000    17.243000    -2.422500
C       3.322500    17.941000    -1.434000
H       3.088600    18.632000    -2.102800
H       3.862800    18.372300    -0.726300
C       2.036700    17.379600    -0.816000
H       1.449800    17.034300    -1.534800
H       1.552600    18.105700    -0.347600
C      -0.062500    16.994200     1.643900
H      -0.199600    17.614100     0.870600
C       0.710900    17.749000     2.734300
H       0.933200    17.122500     3.468500
H       1.560900    18.087100     2.355800
C      -0.086000    18.924900     3.303400
H       0.421100    19.334700     4.048900
H      -0.203000    19.612900     2.601000
C      -1.453900    18.481800     3.807200
H      -1.340200    17.873800     4.579700
H      -1.966200    19.272000     4.111000
C      -2.228800    17.767600     2.708200
H      -2.409900    18.400200     1.967800
H      -3.098600    17.456400     3.066600
C      -1.442900    16.572400     2.174700
H      -1.956700    16.141600     1.446400
H      -1.325800    15.907400     2.899000
C       2.236400    11.409300     4.661500
H       2.795400    12.099800     5.119800
C       3.121600    10.791700     3.565800
H       2.597800    10.117200     3.065000
H       3.394700    11.499200     2.930000
C       4.366400    10.129900     4.146600
H       4.872800     9.688200     3.418900
H       4.949300    10.822100     4.547100
C       4.005000     9.097600     5.208200
H       3.510100     8.350200     4.787700
H       4.833800     8.730500     5.605500
C       3.153500     9.717000     6.299200
H       3.682200    10.404700     6.777200
H       2.900400     9.018000     6.952600
C       1.885100    10.358800     5.726900
H       1.374400    10.787300     6.457500
H       1.313900     9.658100     5.323100
C      -0.274300    12.713400     5.368100
H      -0.505600    11.856300     5.829000
C       0.448000    13.612600     6.373400
H       0.743500    14.441900     5.919000
H       1.253100    13.145600     6.710500
C      -0.459800    13.976900     7.553600
H      -0.673900    13.157200     8.066800
H       0.020100    14.599500     8.156900
C      -1.754000    14.629200     7.080600
H      -1.547500    15.494600     6.648400
H      -2.337900    14.805900     7.860400
C      -2.485300    13.728600     6.091600
H      -3.295900    14.191400     5.760700
H      -2.770600    12.897500     6.549100
C      -1.583100    13.375600     4.911500
H      -1.371300    14.198400     4.404300
H      -2.065100    12.760700     4.305000
