79
Refcode: GADLAA_comp_0 | Dataset: tmCAT | Charge: -2 | Potential Spins: [1, 3, 5]
Pd     10.663500     0.971400     1.811800
Cl     10.088300     2.630000     0.341700
Cl     11.280500    -0.630000     3.339500
Cl     12.223800    -3.961400    -0.498100
N       8.443100     1.838300     3.584900
N      10.322100     2.589100     4.317000
N      11.580100    -0.152000     0.242500
C       9.763800     1.903600     3.294500
C       8.188000     2.466600     4.794400
H       7.352500     2.539300     5.217100
C       9.341600     2.946800     5.242700
H       9.473400     3.435000     6.034000
C       7.397900     1.340700     2.702500
C       7.064500    -0.009300     2.742300
C       6.061800    -0.441300     1.867100
H       5.816900    -1.348200     1.852900
C       5.431800     0.443200     1.026100
H       4.774400     0.129000     0.431200
C       5.745300     1.772700     1.043100
H       5.281000     2.361700     0.476700
C       6.735400     2.271900     1.882800
C       7.666500    -0.978100     3.735700
H       8.473200    -0.555400     4.124200
C       8.091500    -2.305600     3.093800
H       8.648600    -2.126100     2.321100
H       7.303000    -2.797400     2.817800
H       8.592300    -2.829200     3.738500
C       6.681300    -1.237900     4.868400
H       6.497900    -0.407600     5.335200
H       7.063200    -1.879300     5.487500
H       5.855200    -1.593200     4.502700
C       7.036600     3.767900     1.925500
H       7.942000     3.885700     2.309700
C       7.027200     4.401800     0.537900
H       7.667100     3.945500    -0.031300
H       7.268600     5.338600     0.609100
H       6.139500     4.325100     0.153700
C       6.033700     4.469100     2.849100
H       6.212300     5.422700     2.857600
H       6.121100     4.115700     3.748500
H       5.131500     4.312000     2.526000
C      11.689900     3.084400     4.377500
C      11.974500     4.265300     3.683000
C      13.284200     4.742500     3.778300
H      13.521000     5.527500     3.318700
C      14.234000     4.095100     4.524100
H      15.113300     4.427900     4.552500
C      13.908700     2.963800     5.228500
H      14.569300     2.537500     5.745100
C      12.617800     2.429000     5.192900
C      12.239000     1.288200     6.110800
H      11.387900     0.901300     5.786400
C      12.002700     1.843700     7.526800
H      11.279300     2.488900     7.505500
H      12.811400     2.275700     7.844200
H      11.770000     1.116300     8.125900
C      13.291500     0.168300     6.147800
H      13.464900    -0.144000     5.245600
H      12.962600    -0.568500     6.685800
H      14.113800     0.508600     6.534900
C      10.904200     5.050400     2.967200
H      10.178400     4.422300     2.721000
C      10.315700     6.105300     3.912100
H       9.996800     5.671400     4.720400
H       9.578100     6.555900     3.473800
H      11.001400     6.752200     4.141200
C      11.411600     5.710700     1.682100
H      11.881300     5.054400     1.144200
H      12.016800     6.434400     1.907000
H      10.660900     6.062200     1.179800
C      12.188300     0.447800    -0.788400
H      12.162700     1.385600    -0.848200
C      12.852100    -0.263700    -1.770300
H      13.271900     0.188900    -2.479100
C      12.894700    -1.628700    -1.704900
H      13.353200    -2.133600    -2.352400
C      12.242900    -2.238700    -0.656100
C      11.602100    -1.486800     0.304500
H      11.171900    -1.922300     1.018900
