118
Refcode: GAHKIK_comp_0 | Dataset: tmCAT | Charge: 0 | Potential Spins: [1, 3, 5]
Mo      1.242200     4.439200     3.686000
O       1.313000     3.470700     2.324300
O       2.957300     5.051900     4.154600
O       0.881600     6.110400     2.777700
O      -0.538400     4.578700     4.317800
O       1.518100     3.034100     4.977800
C       3.288400     6.319500     4.605100
C       3.202600     7.333900     3.642800
C       3.384400     8.676700     4.046900
C       3.740000     8.935400     5.389300
C       3.921400     7.880600     6.260400
C       3.682100     6.550600     5.925100
C       3.170800     9.821400     3.096500
C       4.021900    10.346000     5.859300
C       3.876400     5.440800     6.980200
C       4.771000     4.314500     6.408500
C       2.511800     4.890500     7.423200
C       4.600600     5.961800     8.220900
C       1.736900     6.532300     1.770500
C       2.989200     7.040400     2.197000
C       3.969600     7.343100     1.233200
C       3.651800     7.212900    -0.112200
C       2.385800     6.835000    -0.472900
C       1.366200     6.486400     0.426500
C       5.357200     7.776000     1.658300
C       4.684900     7.500900    -1.164400
C      -0.064900     6.246100    -0.061400
C      -0.688900     4.941900     0.475900
C      -0.927300     7.427500     0.455000
C      -0.161900     6.259000    -1.589400
C      -0.938000     4.597000     5.646800
C      -0.885200     3.362500     6.318700
C      -1.130100     3.307400     7.703100
C      -1.530500     4.475900     8.358600
C      -1.641300     5.653600     7.644700
C      -1.349900     5.767400     6.263400
C      -0.963600     2.039900     8.466400
C      -1.823700     4.477800     9.841800
C      -1.487200     7.143200     5.579400
C      -2.348100     8.115400     6.386100
C      -2.193100     6.979900     4.202500
C      -0.101900     7.754000     5.411800
C       0.724500     1.922500     5.036100
C      -0.570500     2.100400     5.577900
C      -1.501300     1.060300     5.518000
C      -1.087800    -0.188900     4.982300
C       0.237300    -0.355900     4.611100
C       1.179900     0.653000     4.632000
C      -2.943900     1.232700     5.898200
C      -2.049700    -1.337300     4.856500
C       2.673900     0.370500     4.347700
C       2.927300    -1.087800     4.043900
C       3.283000     1.218000     3.268600
C       3.438600     0.673200     5.681200
H       4.226300     8.065900     7.138900
H       3.971300    10.320300     3.026200
H       2.936500     9.474700     2.240400
H       2.470900    10.368000     3.419800
H       4.928900    10.406600     6.134700
H       3.862200    10.947700     5.146900
H       3.452800    10.549600     6.589600
H       4.877900     3.624800     7.061100
H       4.362600     3.940300     5.631800
H       5.620900     4.663000     6.179600
H       2.006700     5.578400     7.827300
H       2.043200     4.551100     6.666000
H       2.641900     4.180600     8.048800
H       4.707500     5.246400     8.845000
H       5.453900     6.288300     7.972500
H       4.089000     6.649700     8.616100
H       2.183900     6.798300    -1.400800
H       5.995400     7.137700     1.345500
H       5.550100     8.623500     1.288600
H       5.398300     7.816400     2.605600
H       5.505000     7.730200    -0.746800
H       4.815000     6.719400    -1.700200
H       4.388900     8.210800    -1.710600
H      -1.598400     4.885000     0.206500
H      -0.213900     4.189800     0.125700
H      -0.636800     4.927200     1.424800
H      -0.894600     7.444000     1.405300
H      -0.589500     8.234600     0.106300
H      -1.826700     7.300900     0.172100
H       0.162500     7.080800    -1.920200
H       0.360300     5.543600    -1.945600
H      -1.068900     6.139700    -1.849800
H      -1.929900     6.425900     8.105700
H      -1.789000     1.795900     8.872000
H      -0.693600     1.339100     7.873700
H      -0.302100     2.149900     9.136900
H      -1.226700     5.062900    10.281800
H      -2.718700     4.754800     9.987000
H      -1.711100     3.593600    10.187500
H      -1.955200     8.243800     7.240700
H      -2.405200     8.937200     5.926600
H      -3.219200     7.743000     6.493800
H      -2.253300     7.818200     3.774500
H      -1.691500     6.378200     3.657700
H      -3.065800     6.622200     4.334200
H       0.284900     7.893400     6.267900
H       0.447400     7.154200     4.913400
H      -0.174200     8.574000     4.952300
H       0.513900    -1.225400     4.325200
H      -3.078800     2.102200     6.237900
H      -3.490200     1.095100     5.131900
H      -3.174200     0.588800     6.564200
H      -2.911100    -1.069500     5.149900
H      -2.097500    -1.619800     3.948100
H      -1.748700    -2.069200     5.390800
H       2.594200    -1.630800     4.756300
H       2.485400    -1.333600     3.237200
H       3.861500    -1.241900     3.949600
H       4.218500     1.049300     3.231200
H       2.889900     0.988700     2.432000
H       3.125600     2.126100     3.460200
H       3.106900     0.102700     6.372600
H       4.366600     0.500800     5.558500
H       3.307300     1.573900     5.922100
