81
Refcode: GANJUB_comp_0 | Dataset: tmCAT | Charge: 0 | Potential Spins: [1, 3, 5]
Ni     11.466800     1.291300     4.496500
P      12.350000     0.662000     2.620600
P      10.761800     2.055200     6.435400
N      12.268000    -0.276700     5.187900
H      12.237200    -0.409500     6.037800
C      12.892100    -1.209800     4.409100
C      13.387900    -2.448300     4.873600
H      13.315000    -2.664400     5.775000
C      13.975600    -3.333800     4.011000
H      14.282800    -4.147900     4.339400
C      14.127300    -3.054100     2.664700
H      14.528400    -3.669900     2.093700
C      13.673300    -1.848300     2.188600
H      13.783100    -1.638100     1.290100
C      13.048700    -0.937100     3.040600
C      11.242000     0.395600     1.207300
C      10.675000    -0.839900     0.977600
H      10.902600    -1.561800     1.518100
C       9.768900    -1.013400    -0.056500
H       9.393600    -1.850300    -0.210700
C       9.427400     0.035700    -0.845500
H       8.827100    -0.087300    -1.544200
C       9.963800     1.275200    -0.618100
H       9.715600     1.994100    -1.153300
C      10.869700     1.457700     0.405700
H      11.232900     2.300500     0.556000
C      13.714600     1.678800     1.951600
C      14.361300     2.580100     2.777600
H      14.071900     2.693200     3.653100
C      15.444900     3.321900     2.306100
H      15.872500     3.930700     2.864700
C      15.876900     3.148300     1.018600
H      16.599600     3.643100     0.703700
C      15.253800     2.251900     0.193900
H      15.554300     2.135900    -0.677600
C      14.176700     1.519100     0.656800
H      13.757300     0.912300     0.091200
C      10.647400     2.757600     3.589200
C      11.263600     3.977300     3.354400
H      12.101900     4.136000     3.724700
C      10.669300     4.970900     2.585200
H      11.119800     5.770100     2.432500
C       9.425200     4.778500     2.049800
H       9.033700     5.438900     1.522500
C       8.760500     3.610400     2.295400
H       7.903700     3.482500     1.956800
C       9.365900     2.615800     3.049900
H       8.901500     1.824500     3.203500
C      11.932900     3.327800     7.005500
C      13.263000     3.168200     6.646800
H      13.509800     2.452200     6.105100
C      14.217800     4.047700     7.076100
H      15.104300     3.930700     6.821800
C      13.867900     5.100800     7.879500
H      14.519300     5.695800     8.174900
C      12.548900     5.281300     8.250500
H      12.312500     5.995200     8.796000
C      11.585500     4.403700     7.812200
H      10.697800     4.530600     8.057600
C       9.108200     2.830000     6.574900
C       8.900500     4.107200     6.058600
H       9.606200     4.570300     5.668500
C       7.652700     4.687300     6.124900
H       7.528100     5.548000     5.796700
C       6.593200     4.006100     6.668900
H       5.752600     4.401700     6.704500
C       6.779100     2.744700     7.156700
H       6.058800     2.276700     7.512500
C       8.027000     2.159700     7.127800
H       8.144800     1.307900     7.482000
C      10.792700     0.835900     7.803500
C      11.415500     1.087800     9.009100
H      11.817700     1.913800     9.154400
C      11.450400     0.127900    10.004900
H      11.871700     0.311400    10.813700
C      10.863900    -1.097700     9.799000
H      10.887500    -1.742200    10.468400
C      10.243100    -1.369400     8.609700
H       9.838500    -2.196400     8.474600
C      10.215900    -0.418500     7.609300
H       9.808600    -0.615800     6.797900
