80
Refcode: GASBIN_comp_0 | Dataset: tmCAT | Charge: unknown | Potential Spins: [1, 3, 5]
C      19.591900     2.975700     9.748400
C      19.161900     1.094600     8.522500
C      19.988600     1.860400     7.793700
H      20.331400     1.667000     6.951900
C      18.909000    -0.848800     7.066700
H      18.944500    -0.220700     6.317000
C      20.280300    -1.474700     7.213300
H      20.909600    -0.804000     7.484200
H      20.554500    -1.849400     6.371500
H      20.245900    -2.169500     7.875400
C      17.841700    -1.872400     6.767600
H      17.790500    -2.501600     7.490600
H      18.061400    -2.335600     5.954700
H      16.996700    -1.431000     6.666500
C      18.181800     1.182000    10.789900
C      18.822200     0.244700    11.597000
C      18.070900    -0.370300    12.586300
H      18.481900    -0.996300    13.137500
C      16.733600    -0.089600    12.784400
C      16.137200     0.822600    11.944300
H      15.234700     1.019200    12.066500
C      16.828700     1.458400    10.923300
C      20.267200    -0.108100    11.378000
H      20.578100    -0.653300    12.105000
H      20.791200     0.695900    11.335400
H      20.358000    -0.592100    10.553000
C      15.951800    -0.754800    13.883700
H      16.209600    -0.382300    14.731200
H      16.135300    -1.697600    13.881400
H      15.013600    -0.609600    13.743500
C      16.098400     2.380300     9.995600
H      16.655400     2.579200     9.238200
H      15.882400     3.194200    10.456800
H      15.288100     1.958700     9.696800
C      21.081000     4.070300     8.077800
C      22.331600     4.262500     8.652700
C      23.095200     5.320000     8.181000
H      23.928400     5.477300     8.564900
C      22.670000     6.150200     7.162300
C      21.435400     5.894600     6.589900
H      21.149700     6.426600     5.884100
C      20.613700     4.872100     7.034300
C      22.859800     3.359100     9.717600
H      23.796400     3.525200     9.844300
H      22.730000     2.444800     9.456300
H      22.392400     3.525200    10.540100
C      23.510400     7.291800     6.666900
H      24.405800     7.196700     7.000000
H      23.140200     8.120900     6.977600
H      23.522700     7.287400     5.707800
C      19.255100     4.674400     6.424100
H      19.012500     5.454400     5.922600
H      18.610700     4.528000     7.118700
H      19.273000     3.910800     5.842400
C      19.713200     5.921900    12.774200
C      19.744700     7.262300    12.110400
H      18.988100     7.780100    12.428800
H      20.549800     7.723300    12.390300
C      19.708600     7.236100    10.672900
H      20.612000     7.368200    10.344500
H      19.175800     7.988700    10.370200
C      19.156400     5.986400    10.042800
C      17.933700     5.419400    10.313700
C      18.567000     5.246800    13.039000
N      18.933800     1.777300     9.717600
N      20.233500     3.012800     8.559400
N      18.528100    -0.099400     8.266600
Cl     20.851900     2.990100    12.688200
Rh     19.471100     4.330600    11.286600
C      16.921000     6.007100    11.307500
H      16.912200     6.971700    11.203900
H      16.037500     5.681600    11.075600
C      17.179200     5.693600    12.697200
H      16.560900     4.995500    12.967500
H      16.976500     6.480100    13.227300
H      19.464000     5.800600     9.142000
H      18.681700     4.544400    13.695400
H      17.520600     4.894000     9.607000
H      20.551000     5.614900    13.153500
H      18.192600    -0.568000     8.956100
