80
Refcode: GASBIN_comp_1 | Dataset: tmCAT | Charge: unknown | Potential Spins: [1, 3, 5]
C      23.046400     0.290600     2.645800
C      24.097600    -1.698700     2.234700
C      24.946200    -0.942700     2.947500
H      25.804300    -1.175400     3.225900
C      25.437500    -3.708700     1.842800
H      26.177100    -3.110100     1.609700
C      25.638900    -4.205700     3.247000
H      25.530000    -3.477100     3.864000
H      26.522600    -4.569500     3.334900
H      24.991300    -4.887400     3.440700
C      25.395700    -4.854600     0.840500
H      24.639700    -5.415000     1.026100
H      26.203100    -5.371300     0.910700
H      25.320900    -4.499600    -0.048100
C      21.759800    -1.459400     1.407100
C      20.924600    -2.302800     2.125700
C      19.799600    -2.797600     1.490400
H      19.218500    -3.346000     1.965700
C      19.509300    -2.500500     0.162900
C      20.389900    -1.699800    -0.523300
H      20.218600    -1.507500    -1.417300
C      21.529200    -1.165600     0.067000
C      21.238700    -2.692800     3.542000
H      21.954200    -3.331800     3.546500
H      20.459000    -3.082800     3.947300
H      21.499900    -1.913900     4.037100
C      18.275800    -3.053300    -0.497000
H      17.501300    -2.595500    -0.160300
H      18.203100    -3.990500    -0.304600
H      18.337000    -2.925400    -1.446200
C      22.482000    -0.350700    -0.748100
H      23.297400    -0.228300    -0.256500
H      22.091200     0.504700    -0.936300
H      22.668400    -0.807300    -1.571200
C      24.852100     1.322900     3.982900
C      24.342900     1.537000     5.264300
C      24.856100     2.604300     5.981600
H      24.504600     2.788900     6.823700
C      25.871900     3.408300     5.492000
C      26.375600     3.122100     4.232400
H      27.069700     3.643200     3.899200
C      25.884900     2.095200     3.458300
C      23.293000     0.646700     5.861400
H      23.201600     0.841100     6.798000
H      23.549100    -0.270900     5.749500
H      22.455700     0.800700     5.419200
C      26.413100     4.553100     6.307100
H      27.229800     4.283300     6.733900
H      25.769700     4.803300     6.974400
H      26.586900     5.301400     5.730200
C      26.414600     1.862500     2.063500
H      26.975000     2.598800     1.808500
H      25.681500     1.792600     1.449400
H      26.924500     1.049800     2.045800
C      20.035900     3.312200     2.614700
C      19.827500     2.521300     1.521500
C      20.220800     2.858800     0.111300
H      19.623800     3.545900    -0.221300
H      20.099800     2.071200    -0.442500
C      21.642800     3.339500    -0.040700
H      21.656800     4.306200     0.025700
H      21.965700     3.097000    -0.923500
C      22.578400     2.759400     1.002100
C      22.820000     3.356900     2.256200
C      22.172800     4.603400     2.786200
H      22.582400     5.372400     2.360100
H      22.346300     4.665600     3.738900
C      20.664400     4.662400     2.559200
H      20.262500     5.229300     3.235500
H      20.489300     5.060000     1.693100
N      22.935100    -0.938400     2.057400
N      24.279700     0.270900     3.187700
N      24.181600    -2.972400     1.727400
Cl     20.170600     0.464600     3.996400
Rh     21.560600     1.707700     2.537600
H      23.280500     2.195700     0.638100
H      23.696000     3.178900     2.632600
H      19.172800     1.824300     1.664200
H      23.639800    -3.157000     1.032500
H      19.578800     3.069600     3.434300
