50
Refcode: GATGIU_comp_0 | Dataset: tmCAT | Charge: 0 | Potential Spins: [1, 3, 5]
Mo      0.929200     2.123000     7.571300
O       2.346800     2.941800     8.037500
O       0.731700     0.836200     8.676900
O       1.566100     1.197100     6.008900
C       1.788400     1.440100     4.708900
C       1.342200     2.589500     4.054300
C       1.628800     2.747700     2.639100
C       1.304200     3.917200     1.910300
H       0.872700     4.641000     2.347900
C       1.610400     4.012900     0.571900
H       1.397400     4.811400     0.102900
C       2.230800     2.956800    -0.118000
H       2.411300     3.030300    -1.048300
C       2.571400     1.822100     0.567000
H       2.997200     1.109000     0.107700
C       2.297200     1.695200     1.951700
C       2.716500     0.547500     2.671100
H       3.164700    -0.152700     2.210300
C       2.491400     0.426200     4.014700
H       2.806000    -0.338900     4.481700
C       0.562000     3.594900     4.731700
H       0.227400     4.320400     4.217200
N       0.288000     3.570700     6.002700
N      -0.527300     4.612500     6.463100
O      -0.362900     3.407100     8.420600
O      -1.716100     6.949800     6.516700
H      -1.280100     6.314300     6.182200
C      -0.799500     4.439900     7.730400
C      -1.598400     5.445200     8.442700
C      -1.977200     6.679300     7.836500
C      -2.601700     7.650700     8.582800
H      -2.866000     8.463400     8.167500
C      -2.855900     7.458000     9.960400
C      -3.396200     8.491900    10.775500
H      -3.626600     9.327000    10.387400
C      -3.586000     8.289200    12.118800
H      -3.942400     8.989800    12.651600
C      -3.259600     7.051700    12.722700
H      -3.392700     6.927200    13.655600
C      -2.752200     6.034400    11.961500
H      -2.548700     5.199200    12.366800
C      -2.526400     6.215200    10.566100
C      -1.909600     5.226100     9.774100
H      -1.701900     4.385500    10.164800
O      -1.144400     1.319400     6.743200
H      -1.605700     1.879400     6.322200
C      -2.011100     0.405900     7.427600
H      -1.479300    -0.323000     7.810900
H      -2.662200     0.037100     6.794900
H      -2.482600     0.878200     8.144800
