85
Refcode: GEJWIE_comp_0 | Dataset: tmCAT | Charge: unknown | Potential Spins: [1, 3, 5]
Ir     10.866500    20.846300     4.736600
O       8.995300    24.739000     5.219300
O      12.807600    23.377300     7.707200
N      11.629800    21.591500     2.992800
N      10.057700    19.936600     6.367000
N       9.611400    22.611100     4.764300
N      12.205700    21.891800     6.103900
C       8.487800    26.971900     4.686500
H       8.552700    26.778500     3.727300
H       8.732100    27.907000     4.848700
H       7.567000    26.817300     4.988000
C       9.412000    26.077900     5.437400
H      10.340500    26.201700     5.116200
H       9.383500    26.290700     6.403200
C       9.862300    23.700800     5.452800
C      10.851100    23.877900     6.430600
H      10.791300    24.669700     6.953500
C      11.917800    23.016600     6.721100
C      12.572800    24.560100     8.485000
H      11.677300    24.521500     8.904900
H      12.614700    25.362800     7.908400
C      13.638300    24.625000     9.541800
H      13.594400    23.821600    10.100900
H      13.496500    25.417500    10.099800
H      14.519200    24.678800     9.115300
C      12.520800    22.591200     2.907300
H      12.839300    22.984900     3.710800
C      12.992300    23.071100     1.701400
H      13.611700    23.792000     1.670700
C      12.536700    22.471800     0.533900
H      12.865600    22.759200    -0.310200
C      11.614100    21.464500     0.604000
H      11.306800    21.047100    -0.191800
C      11.126700    21.051000     1.841700
C       9.714900    19.869100     3.412600
C       8.646400    18.993700     3.661500
H       8.401600    18.801500     4.559300
C       7.936900    18.400300     2.620000
H       7.200600    17.832600     2.814100
C       8.297200    18.633900     1.298000
H       7.819100    18.217900     0.590900
C       9.347800    19.471500     1.022800
H       9.600000    19.633600     0.120600
C      10.048900    20.083900     2.058800
C       9.103500    20.474200     7.142100
H       8.790500    21.348000     6.940400
C       8.561000    19.812400     8.212000
H       7.888200    20.221800     8.742600
C       9.007600    18.538600     8.505800
H       8.651000    18.062900     9.246900
C       9.968600    17.970300     7.719800
H      10.277200    17.091700     7.909500
C      10.493100    18.674100     6.645500
C      11.942000    19.140500     4.756600
C      11.554000    18.208800     5.736700
C      12.143600    16.942300     5.828800
H      11.848400    16.323400     6.484300
C      13.161000    16.601500     4.959500
H      13.567400    15.744300     5.018600
C      13.586100    17.504300     4.005700
H      14.297000    17.271800     3.419200
C      12.977300    18.753600     3.896100
H      13.272100    19.355500     3.223000
C       8.608500    22.704300     3.744800
C       7.409900    22.014900     3.900500
H       7.240900    21.530400     4.699600
C       6.458600    22.037000     2.883100
H       5.639300    21.569200     2.989500
C       6.708900    22.740800     1.720000
H       6.062600    22.747800     1.023900
C       7.893800    23.435900     1.563300
H       8.053300    23.931100     0.768500
C       8.854700    23.410600     2.571800
H       9.675000    23.874100     2.458900
C      13.343500    21.152000     6.556700
C      13.322700    20.450000     7.767000
H      12.558000    20.500000     8.328200
C      14.409400    19.685800     8.148500
H      14.389300    19.223300     8.978300
C      15.520200    19.586700     7.339400
H      16.262100    19.056800     7.605800
C      15.546400    20.266500     6.135700
H      16.306900    20.196700     5.571200
C      14.467400    21.051900     5.744400
H      14.499300    21.521300     4.918900
