75
Refcode: GEYCEU_comp_0 | Dataset: tmCAT | Charge: unknown | Potential Spins: [1, 3, 5]
Ir      2.610700     3.247200     0.790700
Cl      0.262100     3.424600     1.062600
C       2.357200     4.019600    -1.067600
O       1.603900     7.221100    -2.456300
C       1.502300     0.870000    -1.698200
C       1.754200     6.904600     0.665400
C       0.249200     6.688400     0.589300
H      -0.180000     7.172700     1.297700
H       0.055600     5.752600     0.677000
H      -0.076400     7.003200    -0.256600
O       1.352600     2.841700    -4.257200
C       4.875500     6.278400    -1.486400
H       4.401900     5.680000    -2.069000
H       5.649600     5.833900    -1.132200
H       5.149600     7.055000    -1.978000
C       3.718000     1.485700    -2.467900
C       4.426900     7.573900     0.650500
H       5.318500     7.840300     0.619000
C       3.224300    -0.825000    -1.857100
C       2.640500     6.307900    -0.256600
C       2.439000     1.828200    -2.054100
C       4.105000     0.126300    -2.342100
H       4.964500    -0.129700    -2.588700
C       1.925200    -0.446200    -1.559200
H       1.322800    -1.086200    -1.258000
C       3.948500     6.705700    -0.322800
C       1.592900     3.691000    -3.398100
C       2.306800     7.726100     1.607200
H       1.743700     8.085900     2.254400
C       3.606800    -2.276200    -1.733000
H       4.525800    -2.386800    -1.971400
H       3.054600    -2.800200    -2.322300
H       3.467000    -2.565000    -0.827600
C       1.405000     5.098900    -3.505700
H       1.071300     5.458600    -4.295300
C       1.699700     5.903100    -2.494400
C       1.184000     7.855800    -3.628200
H       1.151700     8.803700    -3.484200
H       0.309200     7.539300    -3.868200
H       1.801200     7.660400    -4.336600
C       0.038900     1.214200    -1.570800
H      -0.078600     2.160300    -1.691600
H      -0.273500     0.961700    -0.698500
H      -0.460500     0.742000    -2.239500
C       2.762500     2.943800     2.981000
H       1.996000     3.270700     3.495800
C       4.608800     3.758400     1.120600
H       4.938000     4.427800     0.483300
C       4.066300     3.322600     3.517300
H       4.561800     2.520000     3.747400
H       3.939800     3.836300     4.330000
C       2.548300     1.727900     2.314000
H       1.649600     1.364700     2.456300
C       4.538400     2.468100     0.564400
H       4.842100     2.419700    -0.365800
C       3.626500     8.054700     1.660200
C       4.788400     1.188200     1.370500
H       5.140800     0.508500     0.774600
H       5.462000     1.368100     2.044200
C       4.639000     2.568500    -3.103500
H       4.189400     3.417700    -3.091900
H       4.841100     2.326300    -4.010600
H       5.453200     2.632500    -2.598700
C       4.870100     4.135500     2.535800
H       4.659400     5.074600     2.658300
H       5.814300     4.016100     2.726100
C       3.575200     0.660700     2.034300
H       3.830100     0.242100     2.871800
H       3.178200    -0.020800     1.469800
C       4.208500     8.971400     2.719500
H       3.514900     9.213600     3.341900
H       4.549900     9.763600     2.302400
H       4.909900     8.518300     3.184600
N       2.127100     3.251600    -2.151800
N       2.188000     5.373900    -1.274500
