42
Refcode: GICWEX_comp_0 | Dataset: tmCAT | Charge: 1 | Potential Spins: [1, 3, 5]
C       8.476100     8.834100    18.074700
C       8.886800     9.930600    17.317800
H       8.783100     9.904900    16.394900
C       9.457100    11.078500    17.914600
H       9.693100    11.809100    17.388900
C       9.664400    11.113300    19.292100
H      10.060100    11.855900    19.685300
C       9.270100    10.016800    20.086500
H       9.403800    10.038000    21.005500
C       8.682200     8.902200    19.491700
H       8.417500     8.186800    20.025200
C       7.834900     7.610500    17.485800
H       7.455700     7.091800    18.211100
H       8.532100     7.072100    17.080600
C       6.747600     7.832900    16.448200
C       6.860900    11.677500    21.746500
H       7.292000    10.916700    22.064700
C       6.315200    12.586400    22.647700
H       6.395700    12.421600    23.558800
C       5.672600    13.698100    22.238600
H       5.320600    14.298500    22.855200
C       5.551200    13.923400    20.877000
C       6.101000    12.993300    20.007500
C       4.884100    15.038100    20.331600
H       4.526600    15.682400    20.898700
C       4.758500    15.181800    19.001500
H       4.297400    15.918300    18.669500
C       5.312400    14.235000    18.078600
C       6.006800    13.162700    18.614200
C       5.208700    14.294000    16.679500
H       4.744900    14.992700    16.274300
C       5.776300    13.348700    15.930500
H       5.704000    13.392600    15.005600
C       6.473400    12.300600    16.511500
H       6.867700    11.656300    15.970000
Cl      5.419000     9.606800    18.931200
N       6.773600    11.884700    20.428400
N       6.583900    12.202300    17.837500
O       5.899100     6.802900    16.444300
H       5.409300     6.855800    15.788200
O       6.679400     8.738800    15.683400
Ru      7.553600    10.685200    18.905300
