65
Refcode: GICXUM_comp_0 | Dataset: tmCAT | Charge: unknown | Potential Spins: [1, 3, 5]
C      -1.650000    -1.597500     4.780800
H      -2.158800    -1.072700     5.404400
H      -0.736200    -1.642400     5.071600
H      -2.015100    -2.484500     4.738800
C      -1.048800    -1.915000     2.402800
H      -1.530300    -2.744500     2.381100
H      -0.140600    -2.078900     2.668800
H      -1.059100    -1.517000     1.528800
C      -2.421900     1.625400    -0.531000
H      -2.114400     1.108300    -1.239500
C       2.104300     1.018600     7.732600
H       1.819000     0.408700     8.373400
C      -3.425700     2.527800    -0.737600
H      -3.814800     2.606800    -1.578600
Ni      0.002900     3.508900     3.565300
P      -1.553700     2.054300     3.407800
P       1.334800     1.867800     3.807000
Cl     -1.551200     5.033200     3.811100
Cl      1.636700     4.960400     3.303500
C      -2.331500     2.239400     1.790400
C      -2.790900     2.126300     4.730100
C       1.997900     1.855500     5.494800
C      -0.889500     0.339200     3.471400
C       0.426300     0.320000     3.659300
H       0.877600    -0.492300     3.713900
C       2.767100     1.647300     2.720700
C      -3.314500     3.187200     1.557400
H      -3.607200     3.736800     2.248900
C      -4.169800     2.121500     4.536800
H      -4.517200     2.089700     3.675000
C       2.868900     2.848400     5.876100
H       3.123500     3.496800     5.259800
C      -1.855300     1.472000     0.728300
H      -1.166000     0.863800     0.861600
C      -1.715400    -0.959000     3.411100
C       3.368800     2.895100     7.159800
H       3.957900     3.572700     7.399800
C       3.761100     0.740900     3.072700
H       3.701000     0.269300     3.872500
C      -2.298400     2.175800     6.019400
H      -1.379700     2.181100     6.164900
C       3.937200     2.108900     0.689000
H       3.995400     2.558800    -0.122900
C       2.849400     2.321800     1.520100
H       2.177800     2.914800     1.270600
C      -4.526300     2.208600     6.895100
H      -5.105500     2.233700     7.622200
C      -5.026800     2.162800     5.626800
H      -5.947200     2.159400     5.493100
C       3.012600     1.967800     8.069800
H       3.386400     1.978300     8.920800
C       4.927000     1.237300     1.059100
H       5.666800     1.117600     0.508600
C      -3.155300    -0.786700     2.964600
H      -3.620000    -0.229100     3.592600
H      -3.582000    -1.645500     2.922300
H      -3.174100    -0.376200     2.096500
C      -3.859600     3.312600     0.291500
H      -4.528200     3.941100     0.140000
C      -3.169600     2.216700     7.098400
H      -2.831900     2.250700     7.964300
C       1.596500     0.947400     6.441600
H       0.984500     0.283300     6.219400
C       4.833300     0.542900     2.233300
H       5.497600    -0.065000     2.465000
