99
Refcode: GIFCOO_comp_0 | Dataset: tmCAT | Charge: unknown | Potential Spins: [1, 3, 5]
Ni      8.246600     5.323700     4.643300
C       9.767500     4.228200     5.129200
H       9.549800     3.702900     5.902800
H      10.518000     4.793200     5.327300
H       9.989400     3.646400     4.398100
N       7.519600     4.040800     3.450200
N       8.812000     6.615600     5.933600
C       9.030400     7.878000     5.541100
H       8.969900     8.081800     4.636100
C       9.343300     8.886800     6.431600
H       9.498900     9.750900     6.126200
C       9.420900     8.605400     7.751400
H       9.619300     9.274100     8.365500
C       9.204700     7.338400     8.162900
H       9.258200     7.123900     9.066400
C       8.903800     6.363800     7.237000
H       8.759400     5.494700     7.534400
O       7.000300     6.668700     4.126000
C       6.623200     4.315900     2.539900
H       6.368300     3.609600     1.990100
C       5.988300     5.564200     2.287500
C       6.215100     6.692400     3.095900
C       5.551700     7.917200     2.756200
C       4.688400     7.922700     1.696100
H       4.252900     8.715000     1.480500
C       4.434500     6.794900     0.927400
H       3.832800     6.834100     0.220200
C       5.074300     5.633800     1.220700
H       4.906500     4.875800     0.710500
C       5.804900     9.146000     3.542300
C       6.998200     9.878900     3.361500
C       7.985800     9.462800     2.424800
H       7.840700     8.694700     1.921000
C       9.128900    10.162400     2.253700
H       9.753500     9.877900     1.626800
C       9.380600    11.313400     3.017300
H      10.181400    11.775100     2.908000
C       8.469600    11.754700     3.907900
H       8.644000    12.530600     4.390100
C       7.252300    11.061800     4.121800
C       6.288000    11.484400     5.026400
H       6.447400    12.256600     5.520200
C       5.106900    10.808900     5.221200
C       4.113800    11.227300     6.160000
H       4.251000    12.007900     6.645400
C       2.998900    10.530800     6.359300
H       2.376000    10.828700     6.983000
C       2.753000     9.348900     5.637500
H       1.971200     8.868600     5.790200
C       3.649900     8.903000     4.719600
H       3.470300     8.124600     4.245400
C       4.851300     9.605400     4.472100
C       7.887100     2.642200     3.458600
C       7.553600     1.853600     4.577700
C       7.871300     0.496800     4.546400
H       7.648600    -0.039400     5.272600
C       8.504200    -0.065500     3.466400
H       8.707500    -0.973100     3.469000
C       8.839900     0.708000     2.382500
H       9.271400     0.315700     1.657300
C       8.545000     2.068600     2.348900
C       8.974800     2.860000     1.163000
C       8.785100     2.341600    -0.118000
H       8.337600     1.535000    -0.237900
C       9.270300     3.040700    -1.205600
O       9.156800     2.624800    -2.509600
C       8.274100     1.577800    -2.785800
H       8.287100     1.388700    -3.726200
H       7.386800     1.829700    -2.520600
H       8.543500     0.796500    -2.297100
C       9.930500     4.234500    -1.044400
H      10.257400     4.693700    -1.784300
C      10.104600     4.747000     0.220200
O      10.759000     5.943900     0.299300
C      10.909900     6.530700     1.583400
H      11.383500     7.362500     1.501400
H      11.405800     5.935300     2.150800
H      10.044800     6.691500     1.966000
C       9.628600     4.066500     1.329100
H       9.748000     4.420300     2.181400
C       6.882900     2.395400     5.786200
C       7.346900     1.997000     7.029000
H       8.088900     1.438000     7.081100
C       6.730300     2.415200     8.189500
O       7.105000     2.049400     9.454100
C       8.229900     1.172900     9.570600
H       8.393200     0.984000    10.497000
H       9.003800     1.592000     9.188500
H       8.046300     0.354300     9.104900
C       5.632000     3.266300     8.121800
H       5.214200     3.558800     8.899200
C       5.171700     3.671200     6.890100
O       4.078400     4.506900     6.920800
C       3.651500     5.095400     5.706700
H       2.886300     5.651100     5.872200
H       3.417900     4.405100     5.082900
H       4.362300     5.628700     5.343400
C       5.770300     3.238400     5.719200
H       5.435100     3.507000     4.894900
