45
Refcode: GIFFIL_comp_0 | Dataset: tmCAT | Charge: 0 | Potential Spins: [1, 3, 5]
Ni      6.905900     7.942100     3.305700
Cl      9.043800     8.740000     3.996500
Cl      4.679800     7.235400     2.807900
N       7.961800     9.288500    -0.426700
N       7.525100     8.007200     1.345200
N       6.202400     9.946700     2.680900
C       8.439000     7.348000     0.553000
C       8.731800     8.148300    -0.567500
C       7.271600     9.154200     0.736300
C       6.357000    10.129500     1.345600
C       5.400600    10.792100     3.344200
C       9.661300     7.777900    -1.524500
H       9.854400     8.324800    -2.251600
C       9.069000     6.107300     0.701200
H       8.870700     5.548500     1.417700
C       5.665100    11.090300     0.635700
H       5.775500    11.171800    -0.283700
C       8.009100    10.427300    -1.359000
H       7.395000    11.104700    -1.068600
H       7.765900    10.130800    -2.239100
H       8.898900    10.788100    -1.378300
C       9.992000     5.743700    -0.255800
H      10.432300     4.928200    -0.175000
C      10.284000     6.572400    -1.348400
H      10.916800     6.294800    -1.970700
C       4.802900    11.931600     1.323400
H       4.306600    12.573200     0.869500
C       4.696500    11.798100     2.680500
H       4.154200    12.379200     3.162400
C       5.272300    10.645300     4.830200
H       5.816100     9.912000     5.127400
H       4.355100    10.475700     5.057100
H       5.564500    11.454300     5.258200
O       6.298300     7.836100     5.322800
O       7.592600     5.955200     3.577100
C       7.102200     7.799800     6.500800
H       6.534300     7.753800     7.274100
H       7.640400     8.592600     6.545000
H       7.671100     7.027000     6.475800
C       6.754300     4.811800     3.718300
H       7.298400     4.028300     3.826000
H       6.207900     4.717300     2.935400
H       6.193400     4.920200     4.489700
H       8.251900     5.859600     3.981800
H       5.503500     7.424200     5.520700
