104
Refcode: GIFQOE_comp_0 | Dataset: tmCAT | Charge: unknown | Potential Spins: [1, 3, 5]
C       8.978200    11.097000     6.630200
C       9.797600    11.157200     3.858000
C      11.085200    11.499500     4.233300
H      11.266800    11.657600     5.130700
C      12.116300    11.615100     3.307100
H      12.975400    11.831100     3.591400
C      11.864900    11.408600     1.961000
H      12.569000    11.448700     1.354100
C      10.593900    11.143100     1.501100
C       9.554900    11.016800     2.452800
C      10.354900    10.948300     0.036700
C      11.135100    10.040800    -0.659500
H      11.755100     9.515600    -0.209200
C      10.984000     9.921600    -2.037600
H      11.506100     9.307900    -2.503900
C      10.098900    10.678100    -2.708300
H      10.013800    10.583700    -3.629700
C       9.318100    11.590400    -2.037600
H       8.707300    12.112000    -2.507100
C       9.441200    11.734300    -0.649900
H       8.917000    12.351600    -0.193200
C       6.105200    10.334700     2.829700
C       5.368600    10.243800     4.059200
C       3.992600    10.018400     3.934700
H       3.478500     9.955800     4.707600
C       3.379000     9.887400     2.729000
H       2.463900     9.726900     2.687500
C       4.137100     9.996000     1.536200
C       5.494100    10.226100     1.579300
H       5.990600    10.306300     0.796800
C       6.321800    13.551800     3.682400
C       6.764100    13.643800     2.342600
H       7.667800    13.555300     2.141400
C       5.839300    13.866900     1.331800
H       6.134100    13.938900     0.453500
C       4.527500    13.977800     1.595300
H       3.928000    14.150100     0.905400
C       4.053200    13.835000     2.917500
H       3.142000    13.874000     3.099500
C       4.972500    13.635600     3.947500
H       4.670700    13.558900     4.824100
C       8.854400    14.372000     4.913600
C       8.904600    15.421200     3.981000
H       8.232400    15.514400     3.345400
C       9.957700    16.314500     4.016100
H       9.996500    16.995500     3.383800
C      10.945600    16.221300     4.958300
H      11.648900    16.829100     4.964700
C      10.882900    15.207500     5.908400
H      11.532500    15.154400     6.571100
C       9.855800    14.272900     5.868500
H       9.838600    13.577700     6.486500
C       6.627800    13.594300     6.539200
C       6.471400    14.929000     6.909600
H       6.843100    15.601700     6.385900
C       5.760500    15.258300     8.064200
H       5.635100    16.151700     8.290900
C       5.245200    14.270500     8.865800
H       4.789000    14.493500     9.645100
C       5.406000    12.946400     8.512900
H       5.050800    12.278400     9.052600
C       6.097400    12.604100     7.352000
H       6.203200    11.708400     7.120400
C       7.651900     7.396100     4.134300
C       7.822500     7.420800     2.722700
H       8.420800     8.016800     2.333000
C       7.101500     6.567600     1.946600
H       7.236100     6.575900     1.026800
C       6.178400     5.690700     2.475100
H       5.716900     5.099500     1.924200
C       5.953300     5.708400     3.838900
H       5.311500     5.146700     4.207700
C       6.676200     6.555800     4.661300
H       6.508700     6.564000     5.576300
C       8.196000     7.881100     6.874500
C       7.361500     8.565600     7.738400
H       7.017800     9.392900     7.484500
C       7.031200     8.042800     8.968000
H       6.483300     8.521900     9.546100
C       7.513000     6.804800     9.338500
H       7.282900     6.450800    10.167300
C       8.330900     6.090800     8.495300
H       8.644200     5.252900     8.750800
C       8.691300     6.620700     7.257800
H       9.253200     6.145100     6.689300
C      10.374800     8.162000     5.030100
C      11.222000     8.255200     6.132000
H      10.854300     8.446400     6.963900
C      12.551600     8.078200     6.036200
H      13.082700     8.121900     6.797900
C      13.136400     7.826800     4.793800
H      14.054900     7.700500     4.720300
C      12.332700     7.771400     3.676000
H      12.712700     7.609700     2.842400
C      10.960100     7.953100     3.784600
H      10.428100     7.936600     3.021300
Cl      3.304100     9.849600     0.007700
N       8.257800    10.710000     2.026400
N       7.457200    10.610800     3.026100
O       9.554300    11.235100     7.540400
O       5.968200    10.357100     5.212200
P       7.506700    13.130700     4.993600
P       8.585800     8.547300     5.213000
Ru      8.108700    10.848100     4.949000
