46
Refcode: GIGHOU_comp_0 | Dataset: tmCAT | Charge: 0 | Potential Spins: [1, 3, 5]
Fe      6.391300     1.197100     3.535600
Cl     10.545700     2.024700     2.335200
Cl      4.941800     1.525100     5.316500
N       3.403800     1.727000     0.583800
Cl      7.554600    -0.771900     3.625800
N       6.115800     3.090400     2.582100
Cl      7.953900     2.289300     7.055000
C       9.359000     1.886300     6.128200
C       9.334800     2.097300     4.763000
N       8.163800     2.537600     4.071900
C       4.408900     1.980000     1.462600
N       4.882600     0.879700     2.027500
C       8.069700     3.768800     3.731400
C       4.161800    -0.163700     1.475200
C       5.016600     3.272100     1.813400
C       3.219200     0.345900     0.573300
C       4.642300     4.534000     1.415000
H       3.868300     4.656700     0.913900
C      11.610000     1.102500     6.051700
H      12.366100     0.775400     6.482600
C       2.352500    -0.466400    -0.138300
H       1.725700    -0.115100    -0.728600
C       5.418500     5.612400     1.760300
H       5.173800     6.470900     1.496400
C      10.475600     1.376600     6.769000
H      10.456400     1.220600     7.685700
C       6.871800     4.127400     2.924100
C       6.567300     5.411900     2.501500
H       7.125700     6.125600     2.713500
C      11.628000     1.309900     4.691400
H      12.399500     1.129700     4.204300
C       2.711800     2.647100    -0.320100
H       2.990900     3.546700    -0.134800
H       1.763700     2.571400    -0.189500
H       2.928100     2.424500    -1.228300
C      10.508900     1.782400     4.054100
C       4.272800    -1.547500     1.670600
H       4.904000    -1.905100     2.251700
C       2.467900    -1.823300     0.077200
H       1.903100    -2.400300    -0.384600
C       3.404400    -2.360900     0.964400
H       3.444500    -3.281600     1.080900
C       9.055500     4.849000     4.068100
H       9.770300     4.478000     4.591800
H       8.615200     5.538100     4.570700
H       9.412600     5.220000     3.258200
