114
Refcode: GIMKIY_comp_1 | Dataset: tmCAT | Charge: 1 | Potential Spins: [1, 3, 5]
Ag      6.050000     0.698100     4.601400
O       1.941600     0.249100     2.629000
N      -1.493100    -1.385500     4.608500
N      -0.189500    -1.223600     4.616800
O       2.259000    -1.063000     6.506900
N       8.548700     0.686000     4.371600
N       6.483000     1.612800     2.425200
H       6.520300     0.910500     1.815600
O       2.486200     3.451500     5.624000
N      -1.388100     3.280100     7.630100
N      -3.366700     1.822400     5.846000
N      -1.997100     2.008900     2.978500
N      -2.320700     0.993500     2.146900
N      -1.199900     0.549900     1.635000
N       6.679300    -1.599200     4.734400
H       6.779500    -1.841500     5.625700
N      -1.995900    -0.681900     5.643900
C       0.143300    -0.411000     5.665400
C       5.274800     0.736300     7.684800
N       6.824900     2.101400     6.351200
H       6.911000     2.971100     6.033200
C       8.846200     1.150100     3.019900
H       8.831900     0.379700     2.398700
H       9.754400     1.542000     3.000000
C       7.836800     2.192600     2.554400
H       7.813100     2.939800     3.203800
H       8.122300     2.556000     1.678100
C       5.497900     2.606400     1.931500
H       4.719500     2.131400     1.545600
H       5.912600     3.148000     1.214300
C       5.028800     3.516900     3.041400
C       5.622200     4.767700     3.258400
H       6.309900     5.076600     2.680300
C       5.201100     5.550200     4.315300
H       5.627700     6.384500     4.472700
C       4.180100     5.154200     5.146900
H       3.904700     5.701300     5.872500
C       3.559300     3.936100     4.903400
C       1.850700     4.383800     6.511900
H       1.627500     5.214100     6.021600
H       2.468300     4.616600     7.250700
C       0.618700     3.780900     7.063500
C      -0.673500     4.069400     6.795200
H      -1.006300     4.691400     6.159100
C      -2.825300     3.217500     7.876900
H      -3.109400     4.049000     8.332500
H      -3.013000     2.460700     8.486500
C      -3.641000     3.044600     6.614600
H      -4.600400     3.051400     6.858100
H      -3.478700     3.825800     6.028200
C      -3.946300     1.961200     4.505800
H      -4.839800     2.380400     4.583700
H      -4.067900     1.061600     4.111600
C      -3.090500     2.795500     3.579800
H      -3.657400     3.168500     2.859200
H      -2.705500     3.553600     4.086700
C      -0.163000     1.269800     2.127000
C       1.219900     1.027600     1.648300
H       1.194100     0.540300     0.786900
H       1.680600     1.891800     1.502500
C       3.107700    -0.363400     2.231400
C       3.802800    -1.022100     3.255100
H       3.481000    -0.975900     4.148000
C       4.948500    -1.736700     2.973500
C       5.656800    -2.460700     4.101600
H       4.994400    -2.737000     4.782500
H       6.091200    -3.277300     3.747100
C       7.984400    -1.701300     4.047000
H       7.862500    -1.529800     3.079500
H       8.343800    -2.617200     4.153000
C       8.971300    -0.700900     4.616800
H       9.058100    -0.847900     5.592500
H       9.860200    -0.849300     4.206000
C       5.441700    -1.755700     1.661500
H       6.237200    -2.232100     1.452800
C       4.759800    -1.076600     0.679200
H       5.100300    -1.094300    -0.207100
C       3.591100    -0.363400     0.931000
H       3.142800     0.106200     0.236900
C      -0.675200     2.204900     2.996700
H      -0.192600     2.848600     3.500300
C      -3.873700     0.631500     6.533500
H      -4.862600     0.660100     6.538400
H      -3.567700     0.649200     7.476000
C      -3.421800    -0.671000     5.894000
H      -3.653000    -1.426300     6.490400
H      -3.904100    -0.798900     5.039200
C      -1.007900    -0.066700     6.306500
H      -1.093100     0.495400     7.068500
C       1.508700     0.055800     5.958600
H       1.943100     0.383800     5.130300
H       1.482200     0.798900     6.613000
C       3.482300    -0.741800     7.075100
C       4.053600     0.506300     7.018800
H       3.631300     1.207200     6.535100
C       5.866700    -0.276300     8.410300
H       6.667300    -0.111600     8.894000
C       5.283100    -1.536600     8.431900
H       5.706200    -2.240200     8.910600
C       4.097500    -1.784300     7.765900
H       3.707000    -2.649900     7.780800
C       5.923900     2.096000     7.537300
H       5.224400     2.788700     7.428000
H       6.444200     2.308300     8.352300
C       8.166500     1.559700     6.657700
H       8.086100     0.626100     6.977400
H       8.589600     2.097300     7.373300
C       9.029900     1.599200     5.408700
H       9.037100     2.522000     5.050800
H       9.958200     1.358300     5.648900
N      -0.567900     2.522000     8.377200
N       0.679800     2.821400     8.039300
C       3.997300     3.118100     3.864700
H       3.580200     2.275600     3.722300
