46
Refcode: GIWCIA_comp_0 | Dataset: tmCAT | Charge: 1 | Potential Spins: [1, 3, 5]
C       3.935800     4.845500     5.011300
H       3.398700     4.428000     5.644700
C       5.159900     4.338500     4.506900
H       5.556900     3.529600     4.735400
C       5.674900     5.306500     3.575100
H       6.472500     5.237800     3.098900
C       4.761700     6.377700     3.509100
H       4.856400     7.138500     2.982400
C       3.660600     6.102800     4.388400
H       2.912700     6.639000     4.526900
C       5.619600     2.490600     1.664700
H       6.035500     2.609100     2.488300
C       6.202000     1.626500     0.753400
H       6.987400     1.176300     0.966800
C       5.602800     1.440800    -0.478800
H       5.978700     0.872000    -1.111200
C       4.430200     2.122900    -0.747500
H       4.002900     2.015800    -1.565900
C       3.898100     2.966200     0.212600
H       3.103700     3.412000     0.021300
C       3.661600     6.111600     0.306800
H       4.457400     5.657100     0.142800
C       3.342600     7.198400    -0.487000
H       3.908500     7.456400    -1.178500
C       2.174100     7.898000    -0.242300
H       1.952800     8.646300    -0.748500
C       1.340200     7.459000     0.772100
H       0.544100     7.903100     0.952000
C       1.710300     6.351400     1.515000
H       1.137900     6.055200     2.184700
C       2.472100     1.393600     3.569900
H       2.975400     1.042400     2.831400
H       1.699700     0.844700     3.719400
H       3.018500     1.397900     4.357900
C       0.737100     2.823900     1.843100
H       0.308900     3.654900     1.623300
H       0.076000     2.189700     2.128900
H       1.191500     2.483800     1.068500
C       0.805300     3.460600     4.569900
H       1.295800     3.474200     5.395200
H       0.127500     2.783000     4.612300
H       0.393400     4.317200     4.428500
N       4.478000     3.171500     1.416000
N       2.862100     5.682000     1.312900
P       1.943000     3.096200     3.189200
Ru      3.717800     4.535900     2.878700
