144
Refcode: GIXJOM_comp_0 | Dataset: tmCAT | Charge: 0 | Potential Spins: [1, 3, 5]
Zn     12.035900    -4.455600     5.492900
O      16.180900    -3.307400    -0.240000
O      14.307000     2.800300     7.907500
O       6.269000     0.903800     4.043500
O       8.430400    -8.073700     5.475400
N      14.037800    -3.960900     5.556000
N      11.632600    -2.661300     6.451400
N      10.086800    -4.505400     4.828000
N      12.497100    -5.814700     3.964800
N      15.168800    -4.652900     1.312900
N      13.171000    -1.650500     2.022800
N      14.015900     0.670200     4.095900
N      10.471800    -0.352200     3.418300
N      14.630300     0.767500     6.919300
N       7.874600    -0.571400     4.799800
N       9.913900    -9.301900     4.249200
N      11.933900    -5.834500     7.086700
C      15.053400    -4.552300     4.858200
C      16.312700    -3.962100     5.267600
C      16.043100    -3.030300     6.229600
C      14.602400    -3.024900     6.376800
C      13.894000    -2.092900     7.179500
C      12.501900    -1.936300     7.195600
C      11.792500    -0.955700     7.990200
C      10.512000    -1.081300     7.677600
C      10.385900    -2.181100     6.733800
C       9.191700    -2.677000     6.199300
C       9.029900    -3.759500     5.314000
C       7.802500    -4.202900     4.761400
C       8.089100    -5.273600     3.985000
C       9.504000    -5.474000     4.021300
C      10.182400    -6.504900     3.376000
C      11.586300    -6.640500     3.327600
C      12.324700    -7.576300     2.510800
C      13.635900    -7.306000     2.654000
C      13.739200    -6.173000     3.557500
C      14.918300    -5.540700     3.930600
C      16.161500    -5.917400     3.142000
C      17.205900    -6.701400     3.628000
C      18.340800    -6.932900     2.879900
C      18.439800    -6.381000     1.633500
C      17.428300    -5.626500     1.097100
C      16.271600    -5.373200     1.843300
C      15.184000    -3.683900     0.320700
C      13.799900    -3.151000     0.050400
C      13.539800    -1.736300     0.621100
C      14.293900    -1.590400     2.960500
C      14.856200    -0.185900     3.214600
C      12.669600     0.901400     3.519100
C      11.676100    -0.008000     4.210900
C      10.734700    -1.256300     2.307100
C      11.908000    -2.227900     2.420000
C      14.677100     1.966300     4.342000
C      14.099800     2.669900     5.552000
C      14.333000     2.102300     6.911200
C      15.059200     0.026400     8.038600
C      15.876800     0.659500     9.004600
C      16.318500    -0.063700    10.103700
C      15.960800    -1.397400    10.285200
C      15.181000    -2.014600     9.297000
C      14.714300    -1.327900     8.183800
C       9.720100     0.888200     3.041200
C       8.274500     0.629700     2.732600
C       7.414400     0.329100     3.930600
C       7.285400    -1.042900     5.945200
C       6.010700    -0.558500     6.413100
C       5.463500    -1.061600     7.568700
C       6.064700    -2.105300     8.312900
C       7.261200    -2.567300     7.802600
C       7.865500    -2.080300     6.689400
C       9.429600    -7.545500     2.599500
C       8.794800    -7.182800     1.399600
C       8.267400    -8.174900     0.576800
C       8.331600    -9.492800     0.947900
C       8.885900    -9.852000     2.129600
C       9.410700    -8.883100     2.992800
C       9.318900    -8.921600     5.437000
C       9.781600    -9.668000     6.663200
C       9.775700    -8.816200     7.921600
C      10.881800    -7.803000     8.000300
C      11.849000    -7.865100     8.992500
C      12.832200    -6.909100     9.020700
C      12.873300    -5.917600     8.048700
C      10.951000    -6.761400     7.100800
H      14.319600    -4.860000     1.681900
H      14.540500     0.297500     6.098500
H       8.729400    -0.934500     4.598100
H      10.681400    -9.860200     4.275400
H      17.171400    -4.183300     4.926800
H      16.671500    -2.498500     6.703500
H      12.169000    -0.344900     8.613300
H       9.801600    -0.546000     8.008300
H       6.943500    -3.820800     4.904600
H       7.462000    -5.799500     3.503000
H      11.950000    -8.261000     1.968300
H      14.356500    -7.766900     2.240600
H      17.134000    -7.092200     4.493200
H      19.046700    -7.475300     3.224700
H      19.231900    -6.522000     1.125300
H      17.511400    -5.276100     0.217800
H      13.671100    -3.119600    -0.891400
H      13.169300    -3.747800     0.435600
H      12.835700    -1.347700     0.115000
H      14.333200    -1.227900     0.502200
H      14.009200    -1.952600     3.793400
H      14.999900    -2.132300     2.611600
H      14.944700     0.252000     2.375700
H      15.711700    -0.274500     3.615900
H      12.424900     1.811700     3.650200
H      12.690700     0.714100     2.587400
H      11.383400     0.421900     5.007500
H      12.117000    -0.817100     4.432700
H       9.949000    -1.770400     2.174000
H      10.889400    -0.713000     1.540800
H      11.726500    -2.974800     1.865500
H      11.971200    -2.508600     3.325500
H      15.604300     1.817100     4.485100
H      14.559800     2.521100     3.579600
H      14.455600     3.550700     5.556000
H      13.159500     2.708900     5.426900
H      16.120200     1.571900     8.901700
H      16.877900     0.360300    10.745000
H      16.238400    -1.875700    11.057600
H      14.964500    -2.935000     9.391800
H       9.766200     1.500100     3.761200
H      10.124800     1.264200     2.270800
H       7.920200     1.395700     2.301100
H       8.225800    -0.118300     2.143800
H       5.543200     0.109000     5.921000
H       4.648000    -0.692900     7.883300
H       5.679600    -2.456900     9.105400
H       7.684600    -3.286900     8.258400
H       8.735800    -6.268300     1.149500
H       7.855800    -7.937100    -0.246000
H       7.988900   -10.159200     0.369100
H       8.915800   -10.769200     2.375700
H       9.208100   -10.411700     6.798300
H      10.669100    -9.975600     6.514000
H       8.945100    -8.346600     7.955900
H       9.843000    -9.389100     8.671800
H      11.830900    -8.550400     9.643900
H      13.487800    -6.925000     9.706400
H      13.581300    -5.284500     8.062800
H      10.264300    -6.691100     6.447400
