101
Refcode: GIYQAI_comp_0 | Dataset: tmCAT | Charge: 0 | Potential Spins: [1, 3, 5]
Ni     -1.044600     0.149600    10.495200
F       1.890300     2.369100     9.027100
F       2.536300     2.808600     6.504100
F       4.719700     4.277400     5.878000
F       6.265300     5.266900     7.856800
F       5.630700     4.872100    10.400600
F       2.086000     6.054700    11.216300
F       2.480600     8.114400    12.824900
F       4.271300     7.957400    14.858000
F       5.687500     5.674700    15.199300
F       5.308900     3.603400    13.628200
F       5.256900     1.437000    10.288700
F       5.996700    -0.801200    11.463200
F       4.905700    -1.557400    13.824400
F       3.087300     0.039800    15.022400
F       2.394000     2.351700    13.914800
N      -0.289300    -1.430000    11.251800
N      -0.969500     1.173200    12.098300
N       1.698400     3.397900    11.459200
C      -1.312500    -0.593600     8.657000
H      -0.584400    -0.442500     8.005100
H      -1.723000    -1.491800     8.594800
C      -2.178700     0.477100     8.889600
C      -1.567200     1.661400     9.240800
H      -2.147700     2.371700     9.612700
H      -0.864700     1.998900     8.630300
C      -3.654100     0.270400     9.036300
H      -4.089800     0.407500     8.169600
H      -4.010900     0.909700     9.686700
H      -3.826000    -0.643100     9.347400
C       0.820500    -2.799500    12.984800
H       0.644500    -2.899900    13.943400
H       1.787900    -2.750800    12.833700
H       0.453400    -3.569900    12.501800
C       0.166600    -1.531600    12.481000
C       0.069800    -0.501200    13.426300
H       0.431600    -0.687000    14.285600
C      -0.479300     0.739100    13.263300
C      -0.549500     1.642000    14.469400
H      -0.111600     1.205900    15.229400
H      -1.487900     1.819700    14.690100
H      -0.094400     2.487100    14.270800
C      -0.180400    -2.610700    10.432000
C       1.024300    -2.906300     9.778600
C       1.066900    -4.058100     9.000800
H       1.872300    -4.283700     8.550300
C      -0.019700    -4.871400     8.868900
H       0.038300    -5.657400     8.338500
C      -1.196700    -4.556800     9.498600
H      -1.950000    -5.126300     9.388900
C      -1.310600    -3.425100    10.292700
C       2.260100    -2.037100     9.911900
H       2.159000    -1.498300    10.749000
C       2.372700    -1.073800     8.771100
H       3.210300    -0.569700     8.851100
H       1.615400    -0.454600     8.790400
H       2.369200    -1.569500     7.925100
C       3.531400    -2.807000    10.027500
H       4.273200    -2.189500    10.194900
H       3.694900    -3.294800     9.191900
H       3.461100    -3.444700    10.768300
C      -2.615600    -3.068500    10.959400
H      -2.655500    -2.070400    11.009800
C      -2.677500    -3.589300    12.389200
H      -3.520600    -3.308300    12.804000
H      -1.924600    -3.227400    12.901800
H      -2.627800    -4.568800    12.383300
C      -3.843600    -3.525700    10.183100
H      -4.650500    -3.156000    10.600900
H      -3.890900    -4.504500    10.193400
H      -3.781700    -3.210400     9.257100
C      -1.577600     2.449900    12.075100
C      -0.833700     3.591500    11.792100
C      -1.411600     4.856300    11.675000
H      -0.880500     5.614000    11.460200
C      -2.756400     4.978000    11.875100
H      -3.172500     5.828400    11.793600
C      -3.509500     3.875700    12.196600
H      -4.441100     3.974900    12.353600
C      -2.929900     2.621200    12.291400
H      -3.470500     1.870200    12.509200
C       0.576700     3.448000    11.590600
C       3.684000     3.657400     9.851200
C       2.981400     3.128200     8.790400
C       3.305600     3.318100     7.473200
C       4.402200     4.055700     7.156200
C       5.165600     4.567400     8.159200
C       4.801200     4.368200     9.467500
C       3.646900     4.704600    12.356600
C       2.987400     5.911200    12.204000
C       3.182000     7.001500    13.017400
C       4.075700     6.917800    14.044100
C       4.784500     5.766000    14.217500
C       4.560100     4.695200    13.384800
C       3.742700     1.993600    12.020300
C       4.666100     1.138800    11.458700
C       5.056400    -0.049100    12.051400
C       4.512100    -0.426100    13.238100
C       3.593900     0.385200    13.836700
C       3.246500     1.559700    13.230700
B       3.275500     3.421400    11.411300
