68
Refcode: GOBHAG_comp_0 | Dataset: tmCAT | Charge: 0 | Potential Spins: [1, 3, 5]
Mo     11.056400     7.598400     3.444800
Si      9.201000    10.092800     4.334200
Si      9.828300     9.525600     1.335900
Si     14.156100     9.007100     3.680200
Si      8.968800     4.968500     2.962600
O      12.725700     8.487200     3.106500
O       9.947700     6.238700     2.655800
N      10.918900     7.465300     5.073800
N       9.901500     9.146800     3.044500
N      12.557300     5.814600     3.343700
C       8.134500    11.498000     3.692600
C      10.541000    10.853800     5.362300
C       8.095700     9.056800     5.403300
C      10.953100     8.393200     0.371100
C       8.101900     9.262600     0.683200
C      10.417300    11.257400     0.989000
C      14.305200     8.694800     5.494100
C      15.488400     8.100100     2.776500
C      14.301000    10.827400     3.344600
C       9.974000     3.448400     3.252400
C       7.919300     5.278400     4.457700
C       7.883700     4.720200     1.497000
C      13.045300     5.200100     4.420600
C      13.967200     4.201900     4.346400
C      14.430900     3.800800     3.141100
C      13.953200     4.407400     2.017700
C      13.015500     5.405800     2.170000
H       8.646400    12.101200     3.121900
H       7.735800    11.998600     4.375800
H       7.470000    11.032800     3.147500
H      11.206100    11.272600     4.798100
H      10.998300    10.190800     5.885600
H      10.077700    11.490100     5.898400
H       7.389900     8.652900     4.887600
H       7.679700     9.594600     6.090300
H       8.683200     8.405300     5.770500
H      10.827800     8.511300    -0.563000
H      10.761200     7.468300     0.588600
H      11.824600     8.645500     0.678100
H       7.787300     8.401800     0.946800
H       8.103800     9.297800    -0.268700
H       7.610800     9.972200     1.074800
H      10.680100    11.377900     0.089600
H      11.175500    11.479600     1.548200
H       9.653700    11.793900     1.228300
H      15.111800     9.021300     5.872800
H      14.242500     7.749900     5.706500
H      13.546600     9.159300     5.847200
H      16.291400     8.059900     3.275500
H      15.689000     8.532200     1.932000
H      15.106700     7.227100     2.622900
H      15.207500    11.099000     3.377800
H      13.803300    11.321000     3.979200
H      13.925200    10.897900     2.443800
H      10.575100     3.579600     4.017600
H      10.537100     3.255200     2.495000
H       9.328300     2.773500     3.416200
H       7.318000     5.987400     4.299100
H       8.481800     5.515200     5.207500
H       7.491400     4.437400     4.593300
H       8.372700     4.377800     0.729300
H       7.458400     5.539000     1.202700
H       7.214600     4.083100     1.791300
H      12.720700     5.491700     5.297100
H      14.276300     3.768600     5.156300
H      15.086800     3.084000     3.058000
H      14.267200     4.148000     1.138700
H      12.673800     5.835500     1.356300
