177
Refcode: GOBSUL_comp_0 | Dataset: tmCAT;tmPHOTO | Charge: 0 | Potential Spins: [1, 3, 5]
Zn      3.495900    10.068700    12.025900
O       3.430100     3.986800     5.280200
O       3.564300    16.127000     5.283400
N       3.495900     8.024600    12.025900
N       3.497200    10.078400     9.984700
N       3.495900    12.108000    12.025900
C       3.512600     5.828500    11.355600
C       3.501400     7.203100    10.922700
C       3.508400     7.635300     9.593400
C       3.519600     8.966900     9.192600
C       3.488800     9.377700     7.810400
C       3.493000    10.749500     7.812000
C       3.467900    11.179100     9.181400
C       3.498600    12.510700     9.601500
C       3.508400    12.910700    10.924300
C       3.487500    14.279900    11.365300
C       3.498600     6.615100     8.511100
C       4.587900     6.491600     7.643600
C       4.620000     5.632500     6.583800
C       5.829600     5.568100     5.665000
C       6.907700     6.572100     6.064200
C       5.446400     5.911700     4.247500
C       6.442000     4.193500     5.713100
C       3.472000     4.843200     6.370500
C       2.368800     4.896900     7.215500
C       1.106100     4.035100     6.992600
C       0.110500     4.206900     8.099000
C       1.416500     2.561200     6.899600
C       0.391600     4.478100     5.685800
C       2.407900     5.804300     8.273800
C       3.488800    13.522800     8.503100
C       2.417700    13.649000     7.646900
C       2.384200    14.500100     6.572500
C       1.173200    14.556400     5.665000
C       0.079800    13.557700     6.081900
C       1.541000    14.204700     4.236300
C       0.537000    15.928300     5.721100
C       3.525200    15.292100     6.364100
C       4.643800    15.249100     7.210700
C       5.877100    16.100100     6.983000
C       6.895100    15.909500     8.092600
C       5.591900    17.566000     6.909300
C       6.586000    15.614200     5.660200
C       4.592100    14.336300     8.264200
H       3.532200     4.972100    10.807300
H       3.402100     8.762900     6.970200
H       3.500000    11.283800     6.970200
H       3.525200    15.090700    10.789600
H       5.418500     7.028500     7.868100
H       7.604000     6.572100     5.464600
H       6.425200     7.544000     6.033800
H       7.142600     6.464800     7.026300
H       6.186100     5.930500     3.687900
H       4.688500     5.331800     3.949300
H       5.014300     6.899700     4.278000
H       7.211100     4.107600     5.190400
H       6.704900     3.973400     6.736100
H       5.738700     3.479400     5.515900
H      -0.769000     3.589400     7.965900
H       0.454500     3.852500     9.016200
H      -0.254400     5.111700     8.254600
H       0.446100     2.104800     6.841900
H       1.898900     2.429700     6.173300
H       1.754900     2.308800     7.794400
H      -0.493600     3.951900     5.607300
H       0.124500     5.452600     5.796500
H       0.966300     4.322400     4.972300
H       1.650100     5.876800     8.934400
H       1.640300    13.036900     7.839300
H      -0.655800    13.445000     5.386000
H       0.530000    12.497300     5.982500
H      -0.215300    13.579200     6.952600
H       0.696400    14.134900     3.623800
H       2.198200    14.752400     3.793800
H       1.911500    13.187200     4.161000
H      -0.222300    15.939100     5.097400
H       0.296500    16.089400     6.638300
H       1.248700    16.583400     5.405200
H       7.704700    16.446500     8.007600
H       6.463000    16.143100     9.024200
H       7.169200    14.918900     8.204900
H       6.511900    18.068000     6.748900
H       5.021300    17.791500     6.146000
H       5.236700    17.923100     7.759100
H       7.371900    16.143100     5.512700
H       6.819600    14.634300     5.796500
H       5.914900    15.686700     4.935400
H       5.398900    14.269200     8.904000
N       3.494500    10.078400    14.067100
C       3.490300     7.203100    13.129100
C       3.483300    12.910700    13.127400
C       3.479100     5.828500    12.696100
C       3.504300    14.279900    12.686500
C       3.472100     8.966900    14.859200
C       3.523800    11.179100    14.870400
C       3.483300     7.635300    14.458300
C       3.493100    12.510700    14.450300
H       3.459500     4.972100    13.244500
H       3.466500    15.090700    13.262100
C       3.502900     9.377700    16.241300
C       3.498700    10.749500    16.239700
C       3.493100     6.615100    15.540600
C       3.502900    13.522800    15.548700
H       3.589600     8.762900    17.081600
H       3.491700    11.283800    17.081600
C       2.403800     6.491600    16.408100
C       4.583800     5.804300    15.777900
C       4.574000    13.649000    16.404900
C       2.399600    14.336300    15.787600
C       2.371700     5.632500    17.468000
H       1.573200     7.028500    16.183600
C       4.622900     4.896900    16.836200
H       5.341600     5.876800    15.117300
C       4.607600    14.500100    17.479200
H       5.351400    13.036900    16.212500
C       2.347900    15.249100    16.841000
H       1.592800    14.269200    15.147800
C       1.162100     5.568100    18.386800
C       3.519700     4.843200    17.681200
C       5.885600     4.035100    17.059100
C       5.818500    14.556400    18.386800
C       3.466500    15.292100    17.687700
C       1.114600    16.100100    17.068700
C       0.084100     6.572100    17.987500
C       1.545300     5.911700    19.804200
C       0.549700     4.193500    18.338700
O       3.561600     3.986800    18.771600
C       6.881200     4.206900    15.952700
C       5.575200     2.561200    17.152100
C       6.600100     4.478100    18.365900
C       6.912000    13.557700    17.969900
C       5.450700    14.204700    19.815400
C       6.454700    15.928300    18.330600
O       3.427400    16.127000    18.768400
C       0.096600    15.909500    15.959100
C       1.399800    17.566000    17.142500
C       0.405700    15.614200    18.391600
H      -0.612300     6.572100    18.587200
H       0.566500     7.544000    18.018000
H      -0.150900     6.464800    17.025400
H       0.805600     5.930500    20.363800
H       2.303200     5.331800    20.102500
H       1.977400     6.899700    19.773700
H      -0.219400     4.107600    18.861400
H       0.286800     3.973400    17.315700
H       1.253000     3.479400    18.535900
H       7.760700     3.589400    16.085800
H       6.537200     3.852500    15.035600
H       7.246100     5.111700    15.797200
H       6.545600     2.104800    17.209800
H       5.092800     2.429700    17.878500
H       5.236800     2.308800    16.257400
H       7.485300     3.951900    18.444500
H       6.867200     5.452600    18.255300
H       6.025400     4.322400    19.079500
H       7.647500    13.445000    18.665800
H       6.461700    12.497300    18.069300
H       7.207000    13.579200    17.099200
H       6.295300    14.134900    20.428000
H       4.793500    14.752400    20.258000
H       5.080200    13.187200    19.890800
H       7.214000    15.939100    18.954400
H       6.695200    16.089400    17.413500
H       5.743000    16.583400    18.646500
H      -0.713000    16.446500    16.044100
H       0.528700    16.143100    15.027500
H      -0.177400    14.918900    15.846900
H       0.479800    18.068000    17.302800
H       1.970400    17.791500    17.905700
H       1.755000    17.923100    16.292700
H      -0.380200    16.143100    18.539100
H       0.172200    14.634300    18.255300
H       1.076900    15.686700    19.116300
H       4.171700     3.329800     5.346500
H       2.816800    16.778100     5.340900
H       2.820000     3.329800    18.705200
H       4.174900    16.778100    18.710900
