54
Refcode: GOFTOK_comp_0 | Dataset: tmCAT | Charge: 0 | Potential Spins: [1, 3, 5]
Rh      3.385400    11.213800     0.651200
P       2.250600     9.263300     0.739200
Cl      4.287900    10.672900    -1.466200
O       2.100500    12.183800     3.097500
N       4.408000    13.122600     0.374600
C       2.630000    11.759900     2.170900
C       3.557700    14.321500     0.337800
C       2.434000    14.188900    -0.624400
C       5.596600    13.369700     1.217600
C       6.511700    12.264400     1.237700
C       3.178400     7.679600     0.725900
C       4.136200     7.489700    -0.234200
C       4.828400     6.283000    -0.334500
C       4.572400     5.284400     0.556400
C       3.622500     5.448300     1.486300
C       2.927100     6.652300     1.581100
C       1.131600     9.125500    -0.703600
C       0.744400     7.890200    -1.195300
C      -0.153300     7.833000    -2.265700
C      -0.651200     8.969500    -2.803100
C      -0.273400    10.194400    -2.325900
C       0.627500    10.262000    -1.275600
C       1.147400     9.060500     2.179800
C      -0.235500     8.935700     2.042700
C      -1.030500     8.818600     3.169900
C      -0.464700     8.803000     4.435500
C       0.893000     8.935700     4.573700
C       1.684800     9.050100     3.454300
H       4.746200    13.068000    -0.468300
H       4.099800    15.088700     0.090300
H       3.200500    14.485300     1.224300
H       2.775400    13.923600    -1.480700
H       1.981900    15.031500    -0.706900
H       1.817600    13.525700    -0.305500
H       6.059600    14.155100     0.888700
H       5.307300    13.554300     2.124100
H       6.116500    11.531100     1.714900
H       7.324000    12.529700     1.673600
H       6.704500    11.994000     0.336700
H       4.327400     8.178900    -0.829600
H       5.462200     6.160800    -1.005700
H       5.056000     4.491200     0.518500
H       3.424900     4.753900     2.072800
H       2.280700     6.753800     2.241200
H       1.077900     7.107400    -0.819500
H      -0.409300     7.008600    -2.609100
H      -1.256500     8.917500    -3.506700
H      -0.618000    10.971900    -2.701600
H       0.893000    11.091600    -0.954400
H      -0.621100     8.930500     1.196400
H      -1.953500     8.748400     3.076300
H      -1.003600     8.701600     5.187000
H       1.277000     8.948700     5.421100
H       2.606200     9.122900     3.558000
