57
Refcode: GOHWOQ_comp_0 | Dataset: tmCAT | Charge: -1 | Potential Spins: [1, 3, 5]
Zr      8.660800    10.955500     8.789800
Cl      9.296800    10.449000     6.414400
C       7.365600     9.006000     9.646900
C       6.949000     9.244700     8.146400
H       7.524600     8.778100     7.333800
C       8.666900     8.201800     9.937600
C       8.901400     7.168500     8.819100
H       8.175300     6.540000     8.806700
H       9.724500     6.701800     8.981100
H       8.949200     7.617800     7.972000
C       8.553800     7.455700    11.244400
H       7.814500     6.845800    11.202800
H       8.413000     8.081600    11.958700
H       9.364000     6.965700    11.403600
C       9.852800     9.201200     9.954200
C      10.936300     9.098100     8.934000
H      10.825000     8.780200     8.067500
C      12.118500     9.538000     9.462800
H      12.925800     9.596300     9.006000
C      11.912100     9.894000    10.827700
C      12.786000    10.460500    11.762100
H      13.661100    10.659500    11.521200
C      12.350700    10.717600    13.025900
H      12.937200    11.069900    13.654400
C      11.023600    10.454300    13.381700
H      10.745900    10.634500    14.251000
C      10.113600     9.935100    12.483300
H       9.239500     9.754800    12.743500
C      10.539200     9.681700    11.158600
C       8.662700    13.407300     8.763800
H       7.939500    13.964100     8.406600
C       8.816300    13.064600    10.105100
H       8.217700    13.328100    10.834600
C      10.056400    12.484300    10.256000
H      10.473500    12.237200    11.107300
C      10.696200    12.465500     8.974200
H      11.623800    12.201500     8.799800
C       9.832700    13.060800     8.059200
H      10.049400    13.311800     7.137300
B       6.282300    10.722600     7.861200
H       6.339300    11.293700     6.922700
B       6.225200    11.476700     9.472500
H       6.217800    12.567500     9.615100
B       6.971500    10.342300    10.577200
H       7.505200    10.663100    11.483900
B       5.978900     8.178900     9.069700
H       5.911600     7.090700     8.927100
B       5.250200     9.273900     7.906900
H       4.708100     8.926400     7.014100
B       4.766200    10.674200     8.838500
H       3.869300    11.245000     8.552000
B       5.217400    10.465900    10.527300
H       4.630500    10.905200    11.346800
B       5.973700     8.910800    10.687900
H       5.907700     8.319100    11.612600
B       4.616900     9.097400     9.594300
H       3.645400     8.627100     9.806100
