61
Refcode: GOHWIK_comp_0 | Dataset: tmCAT | Charge: -1 | Potential Spins: [1, 3, 5]
Zr      8.809000    18.639300    17.648600
Cl      8.770900    16.208600    17.416900
C      10.308700    20.625600    18.588600
B      10.042700    20.670500    16.913900
H       9.189700    21.206000    16.471500
C       9.214500    21.142700    19.625000
C       9.702100    21.186300    21.101200
H       8.996800    21.516400    21.661600
H      10.464100    21.768300    21.169600
H       9.948400    20.302000    21.382800
C       8.738600    22.540900    19.265700
H       8.087600    22.832500    19.907900
H       8.342700    22.529300    18.391500
H       9.485400    23.144100    19.269700
C       8.090600    20.106500    19.515100
C       6.843000    20.098300    18.769600
C       6.088600    21.112200    18.083100
H       6.425800    21.976100    18.008000
C       4.868900    20.794600    17.540100
H       4.377000    21.460100    17.115100
C       4.339900    19.489700    17.607100
H       3.515600    19.299700    17.221000
C       5.022200    18.532400    18.223900
H       4.675100    17.669600    18.258700
C       6.287400    18.810000    18.835300
C       7.164800    17.996500    19.611600
H       6.973100    17.086300    19.920000
C       8.213900    18.808100    20.062100
H       8.816800    18.573000    20.796800
C       7.437800    18.910100    15.807800
H       6.717800    18.268400    15.905700
H       7.035400    19.788700    15.892300
C       7.918800    18.797300    14.377200
C       8.213000    19.920400    13.596900
H       8.159000    20.765900    13.981700
C       8.587300    19.803800    12.258800
H       8.760800    20.567800    11.758600
C       8.698500    18.556100    11.674200
H       8.947900    18.470400    10.781200
C       8.440600    17.468700    12.423700
H       8.514300    16.625500    12.037500
C       8.070000    17.568500    13.743000
H       7.916800    16.789900    14.228400
B      10.784900    19.220100    16.227500
H      10.482600    18.737300    15.284900
B      11.385600    18.337200    17.633900
H      11.454500    17.241200    17.709000
C      11.084100    19.310900    18.961300
H      10.911900    18.854400    19.946800
B      11.319000    21.672000    17.651400
H      11.263000    22.770700    17.668800
B      11.669900    20.731500    16.143000
H      11.852600    21.223100    15.176300
B      12.530500    19.270800    16.601500
H      13.277900    18.797200    15.948600
B      12.708300    19.289500    18.386100
H      13.560600    18.815000    18.892900
B      11.986800    20.766700    19.004200
H      12.372700    21.265000    19.906600
B      12.873100    20.795400    17.465000
H      13.834700    21.318600    17.355100
