65
Refcode: GOHWEG_comp_0 | Dataset: tmCAT | Charge: unknown | Potential Spins: [1, 3, 5]
Zr      7.003900     3.601800     8.119500
N       5.648200     2.352400     9.031300
N       8.788900     2.315000     9.139100
H       9.105200     1.818200     8.445900
C       7.468400     6.109600     7.205000
C       5.970800     6.031600     7.712300
H       5.187600     5.774200     6.983000
C       7.766300     5.664100     5.733500
C       6.835800     6.304000     4.679600
H       7.069600     5.980300     3.806500
H       6.932000     7.258000     4.704400
H       5.924300     6.069000     4.874600
C       9.205900     6.019900     5.322000
H       9.822200     5.644900     5.955200
H       9.306600     6.974900     5.303400
H       9.387400     5.663100     4.448900
C       7.523500     4.162100     5.772300
C       8.439100     3.066000     6.020000
C       9.854200     2.940000     6.092300
H      10.394400     3.696300     6.052700
C      10.418800     1.694300     6.219900
H      11.344700     1.614200     6.238400
C       9.616400     0.521300     6.325100
H      10.029200    -0.305500     6.428800
C       8.263000     0.588600     6.275600
H       7.750000    -0.183700     6.349900
C       7.640500     1.855600     6.108400
C       6.280600     2.216700     5.946800
H       5.526100     1.592800     5.891700
C       6.216000     3.589500     5.731300
H       5.417700     4.060600     5.411800
C       4.962300     1.124900     8.599100
H       4.388700     0.814000     9.301900
H       5.613000     0.449800     8.394800
H       4.438000     1.309700     7.815800
C       5.257900     2.572500    10.432000
H       4.623500     1.903700    10.695100
H       4.862400     3.443100    10.520200
H       6.034500     2.515800    10.992300
C       8.327600     1.299100    10.093000
H       9.084500     0.827900    10.449000
H       7.747300     0.679400     9.644000
H       7.849400     1.725300    10.808100
C      10.006100     2.931400     9.688900
H      10.581700     2.245600    10.038800
H       9.767700     3.537100    10.394800
H      10.464300     3.411100     8.995400
B       5.812800     5.544500     9.294200
H       4.925400     5.016700     9.675000
B       7.462500     5.314800     9.877800
H       7.731200     4.652400    10.713700
B       8.476600     5.650200     8.444300
H       9.448200     5.175900     8.240000
B       6.663800     7.617000     7.493900
H       6.390600     8.352000     6.723000
B       5.607400     7.257000     8.859200
H       4.639000     7.766500     8.966000
B       6.604600     6.830700    10.266300
H       6.301800     7.076400    11.295700
B       8.319000     6.874500     9.721400
H       9.145800     7.136200    10.397900
B       8.330700     7.369100     8.012400
H       9.159800     7.949200     7.579000
B       7.145400     8.090200     9.117700
H       7.197600     9.146800     9.418000
