66
Refcode: GOJDOB_comp_0 | Dataset: tmCAT | Charge: unknown | Potential Spins: [1, 3, 5]
C       3.836600     6.075900     4.769600
C       3.471200     7.002200     3.769100
C       2.493600     7.990500     4.021400
H       2.261900     8.594300     3.353100
C       1.885400     8.062500     5.248300
H       1.227600     8.700800     5.404000
C       2.256000     7.174100     6.268500
H       1.859500     7.248800     7.106500
C       3.196200     6.192700     6.048300
C       4.219800     7.094500     2.546300
H       4.071100     7.845500     2.018400
C       5.970800     6.671100     1.021400
H       5.599000     7.456700     0.590700
H       6.045500     5.968300     0.357000
C       7.352500     6.997400     1.582700
H       7.851900     7.489300     0.912400
H       7.245700     7.576900     2.353200
C       8.161800     5.780400     1.997200
H       8.294000     5.210300     1.223800
H       9.034800     6.071100     2.304200
C       8.250500     4.590900     4.021100
H       9.128100     4.896500     4.056800
C       7.812400     3.680000     5.062700
C       6.649900     2.881500     4.939400
C       6.354700     1.982600     5.988800
C       7.184800     1.875100     7.089000
H       6.965500     1.285400     7.773800
C       8.347300     2.639300     7.185000
H       8.907500     2.551800     7.922400
C       8.657500     3.522600     6.179600
H       9.438500     4.024900     6.236800
C       3.037400     5.372400     8.284200
H       2.069400     5.339800     8.232500
H       3.295200     6.209600     8.700800
C       3.554000     4.211500     9.088500
H       3.256000     3.389500     8.691800
H       3.221700     4.271800     9.987200
H       4.513600     4.231800     9.100100
C       3.977600     1.705300     5.849900
H       4.027100     2.612100     5.509200
H       3.605800     1.733200     6.745300
C       3.114100     0.861900     4.956000
H       3.440800     0.913300     4.054700
H       2.210500     1.184100     4.987800
H       3.139700    -0.050000     5.254300
C       1.741200     2.217200     1.821700
H       1.441600     2.151500     2.731400
H       1.722900     1.347800     1.415200
H       1.162500     2.809700     1.336300
C       3.154700     2.757500     1.794000
C       4.102700     2.085300     0.982900
H       3.855000     1.269000     0.612600
C       5.379300     2.562900     0.703000
C       6.252100     1.792300    -0.252700
H       6.709200     2.405000    -0.833500
H       5.707800     1.200100    -0.776800
H       6.895600     1.280800     0.243200
N       7.517500     5.004200     3.057500
N       5.081800     6.233900     2.107700
O       4.765700     5.167700     4.617800
O       3.607900     5.276500     6.969200
O       5.878700     2.868600     3.852100
O       5.300200     1.108000     5.876000
O       3.397000     3.793900     2.465400
O       5.889900     3.634200     1.181200
Mn      5.408300     4.446700     2.963600
