60
Refcode: GOLLID_comp_0 | Dataset: tmCAT | Charge: 0 | Potential Spins: [1, 3, 5]
C      15.109000    13.345400     4.731100
C      14.774100    14.608700     4.269300
H      14.494600    14.724500     3.368400
C      14.845600    15.703500     5.117200
H      14.604700    16.566000     4.803000
C      15.267900    15.536000     6.419600
H      15.296600    16.280800     7.007900
C      15.648300    14.290600     6.869900
H      15.963400    14.187500     7.759800
C      15.577600    13.191800     6.035700
H      15.846700    12.336900     6.349700
C      14.523600    10.525900     4.664900
C      13.557200    10.713600     5.656200
H      13.265900    11.589000     5.881000
C      13.026700     9.615600     6.306900
H      12.364000     9.735400     6.977300
C      13.461000     8.338300     5.980700
H      13.087500     7.586000     6.425100
C      14.431300     8.154200     5.017600
H      14.734700     7.278000     4.807100
C      14.958100     9.247100     4.358800
H      15.623300     9.121100     3.692400
C      15.366700    12.988100    -0.121500
C      16.052500    12.720600    -1.316000
H      16.381900    11.848400    -1.495700
C      16.243500    13.743000    -2.233000
H      16.695300    13.568600    -3.050500
C      15.781700    15.009600    -1.960900
H      15.928400    15.705900    -2.592000
C      15.111200    15.286800    -0.791700
H      14.798100    16.165500    -0.615400
C      14.896300    14.270400     0.129600
H      14.426300    14.452900     0.935300
C      14.710500    10.209400     0.251100
C      13.678200    10.308900    -0.680000
H      13.379300    11.162800    -0.972000
C      13.090900     9.162000    -1.178000
H      12.382300     9.224200    -1.807500
C      13.536000     7.921200    -0.761500
H      13.115900     7.137000    -1.090200
C      14.583000     7.811500     0.124900
H      14.896400     6.953400     0.385100
C      15.183200     8.957800     0.641500
H      15.908400     8.887500     1.253200
C      12.639900    12.092600     2.091400
H      12.472300    12.276200     1.122800
C      11.969300    13.201500     2.873100
H      12.183900    13.105900     3.824900
H      10.998500    13.148400     2.749000
H      12.292300    14.069200     2.551300
C      12.024000    10.735000     2.399900
H      12.547300    10.031200     1.962400
H      11.101900    10.710800     2.068300
H      12.025500    10.587900     3.368400
N      14.130000    12.106000     2.290200
P      15.133200    11.901400     3.650100
P      15.288600    11.684300     1.123800
Ni     16.900100    11.555400     2.500100
Br     18.339800    11.809900     4.305400
Br     18.489100    10.982900     0.883900
