56
Refcode: GOLMAW_comp_0 | Dataset: tmCAT | Charge: 0 | Potential Spins: [1, 3, 5]
Co      7.874300     1.903300     2.708600
S      11.130800    -1.348300     4.170200
O       8.740100     3.545600     1.991900
O       7.418300     2.759900     4.467400
O      10.206400     5.699900     1.758200
O       7.353900     4.055700     6.714100
N       7.755400     1.197400     0.733400
N       6.119300     0.840600     2.756900
N       9.326800     0.608100     3.293000
C       6.889800    -0.800500    -0.453000
C       6.887600     0.082900     0.602900
C       5.974000    -0.097600     1.686700
C       5.075600    -1.137300     1.670400
C       4.115000    -3.121800     0.534800
C       4.106200    -3.974500    -0.542300
C       5.012700    -3.795400    -1.612700
C       5.926200    -2.782400    -1.584200
C       5.961300    -1.871000    -0.497800
C       5.039900    -2.044700     0.576200
C       8.250100     1.753400    -0.317100
C       9.098100     2.926700    -0.325400
C       9.741000     3.231400    -1.551100
C      10.565700     4.315200    -1.659600
C      10.741900     5.170500    -0.560700
C      10.098700     4.913900     0.629000
C       9.280900     3.758000     0.811300
C      10.968500     6.906500     1.630600
C       5.164400     0.995600     3.624800
C       5.219600     1.790800     4.822600
C       4.094100     1.709300     5.683000
C       4.043700     2.384100     6.875100
C       5.142500     3.182000     7.257200
C       6.243200     3.284900     6.438600
C       6.335400     2.587300     5.192700
C       7.418900     4.640000     8.023700
C      10.077300    -0.201800     3.670600
H       7.517600    -0.690900    -1.157100
H       4.472500    -1.249500     2.397100
H       3.504100    -3.252800     1.250300
H       3.484000    -4.692100    -0.569500
H       4.985000    -4.384700    -2.358200
H       6.544400    -2.686200    -2.298700
H       8.039800     1.361800    -1.157100
H       9.596100     2.675500    -2.306500
H      11.019200     4.487600    -2.477300
H      11.307000     5.930900    -0.639400
H      10.973000     7.382300     2.487700
H      10.565100     7.477200     0.942300
H      11.888800     6.686000     1.374600
H       4.350000     0.538600     3.450600
H       3.354000     1.172000     5.425700
H       3.280400     2.314600     7.437100
H       5.122500     3.649700     8.084200
H       8.242700     5.163800     8.107500
H       7.413700     3.930400     8.700300
H       6.644500     5.225300     8.159300
