49
Refcode: GOQQAG_comp_0 | Dataset: tmCAT | Charge: 0 | Potential Spins: [1, 3, 5]
Zn     -0.220700     2.917500     2.980100
O       8.660200     2.583400     0.980300
O      -0.607900     2.701400     0.940000
O      -0.220700     4.940200     2.980100
O      -0.220700     0.595500     2.980100
N       3.988700     2.688300     2.005400
N       3.915700     1.819900     3.052700
N       1.882600     2.719800     2.607300
N       2.565700     4.104900     0.720800
N       3.614800     4.445500    -0.006300
C       2.637600     1.896400     3.361100
H       2.274400     1.407600     4.063700
C       2.772700     3.225700     1.731800
C       4.840200     3.945100     0.252000
C       5.117500     3.022000     1.292600
C       6.369300     2.526600     1.554900
H       6.504000     1.919000     2.245800
C       7.449900     2.959300     0.752700
C       7.179200     3.877600    -0.314900
H       7.880800     4.154000    -0.858300
C       5.934100     4.357600    -0.558500
H       5.795200     4.957100    -1.256400
H      -0.135300     2.293900     0.439900
H      -1.093400     3.160100     0.510200
H      -0.436000     5.340100     2.343500
H      -0.359100     0.114700     2.357800
H      -0.005300     5.340100     3.616600
H      -0.082300     0.114700     3.602300
O      -9.101600     2.583400     4.979900
O       0.166500     2.701400     5.020100
N      -4.430100     2.688300     3.954800
N      -4.357100     1.819900     2.907500
N      -2.323900     2.719800     3.352800
N      -3.007000     4.104900     5.239400
N      -4.056200     4.445500     5.966500
C      -3.078900     1.896400     2.599100
H      -2.715700     1.407600     1.896500
C      -3.214000     3.225700     4.228400
C      -5.281500     3.945100     5.708200
C      -5.558800     3.022000     4.667500
C      -6.810700     2.526600     4.405300
H      -6.945400     1.919000     3.714400
C      -7.891300     2.959300     5.207500
C      -7.620600     3.877600     6.275100
H      -8.322100     4.154000     6.818400
C      -6.375500     4.357600     6.518700
H      -6.236600     4.957100     7.216600
H      -0.306100     2.293900     5.520300
H       0.652000     3.160100     5.450000
