116
Refcode: GOTWOD_comp_0 | Dataset: tmCAT | Charge: 0 | Potential Spins: [1, 3, 5]
Zr      8.326400    -0.336600     4.098900
Cl      8.228900     0.311900     1.746100
Si      9.081300    -3.473400     3.765500
Si      5.459800     0.522900     5.044600
Si     10.798100     1.779000     4.493800
O       9.773100    -2.431600     2.693800
O       5.725900    -0.432900     3.709200
O       9.466700     2.446700     3.783300
N       8.171100    -2.312200     4.671200
N       7.132000     0.652000     5.459200
N      10.182300     0.188500     4.817200
C       7.995400    -4.750100     2.967100
H       7.385900    -4.312600     2.336400
H       7.473700    -5.212700     3.656900
H       8.551000    -5.398500     2.486800
C      10.288300    -4.384300     4.830900
H      10.832300    -4.979900     4.273900
H       9.801100    -4.913100     5.496700
H      10.871200    -3.741400     5.287800
C       4.457700    -0.243600     6.394700
H       3.526300    -0.330100     6.102400
H       4.497600     0.322800     7.193400
H       4.817000    -1.130700     6.604600
C       4.678800     2.160400     4.645100
H       5.134000     2.561700     3.875100
H       4.758100     2.758000     5.417600
H       3.731900     2.027200     4.430100
C      11.308400     2.638000     6.057800
H      11.612100     3.546600     5.848400
H      12.039300     2.139500     6.480500
H      10.545600     2.682500     6.670500
C      12.279700     1.721000     3.371000
H      12.023900     1.318700     2.515100
H      12.984000     1.183100     3.788600
H      12.609300     2.631700     3.218600
C       5.344400    -4.766600     9.058000
H       5.991100    -5.150900     9.685900
H       4.771100    -5.477900     8.704000
H       4.792200    -4.103200     9.522300
C       8.227000     3.459300    10.368400
H       7.637000     3.119300    11.072300
H       8.063200     4.416000    10.237100
H       9.161500     3.321500    10.630200
C      13.715700    -2.823300     8.246500
H      13.617600    -2.500700     9.166700
H      14.635500    -2.677200     7.945900
H      13.509000    -3.781100     8.213000
C      10.474200    -2.664800     1.443400
C      11.409400    -3.861700     1.616500
H      11.962300    -3.731900     2.415400
H      11.987200    -3.941800     0.829600
H      10.878600    -4.679000     1.715600
C      11.293800    -1.420100     1.154800
H      10.693800    -0.652400     1.049700
H      11.805500    -1.549700     0.329200
H      11.909300    -1.254700     1.899900
C       9.460300    -2.896700     0.340700
H       8.929600    -3.693400     0.547400
H       9.928200    -3.027100    -0.511700
H       8.867600    -2.118600     0.272800
C       7.460600    -2.871200     5.775800
C       6.152300    -3.330900     5.631700
H       5.716000    -3.237300     4.793100
C       5.476700    -3.920500     6.688700
H       4.580600    -4.207600     6.563200
C       6.079700    -4.101300     7.922900
C       7.383700    -3.639300     8.065500
H       7.822400    -3.743800     8.901500
C       8.056500    -3.030100     7.021300
H       8.941500    -2.713800     7.157700
C       4.807300    -0.792000     2.626100
C       4.602400     0.407800     1.720300
H       4.130500     1.111100     2.212200
H       4.072300     0.140700     0.940600
H       5.474200     0.744500     1.422100
C       3.490500    -1.253000     3.236300
H       3.661800    -1.970400     3.880800
H       2.899200    -1.584400     2.528200
H       3.060300    -0.499500     3.692700
C       5.451500    -1.943800     1.864900
H       6.295600    -1.641800     1.469200
H       4.847400    -2.245000     1.155000
H       5.625800    -2.685500     2.481200
C       7.432500     1.345400     6.672000
C       7.475600     0.677600     7.885300
H       7.334000    -0.261500     7.908300
C       7.723400     1.363600     9.071400
H       7.735700     0.884000     9.891000
C       7.951400     2.721400     9.082600
C       7.917900     3.370100     7.865700
H       8.080700     4.306500     7.840500
C       7.654800     2.707400     6.682500
H       7.626600     3.193600     5.867200
C       9.249200     3.642600     3.008300
C       7.740700     3.718700     2.770000
H       7.446400     2.920900     2.281800
H       7.532800     4.518900     2.244200
H       7.275100     3.764100     3.630600
C       9.958600     3.539500     1.666900
H      10.928600     3.532700     1.809600
H       9.716600     4.307600     1.109900
H       9.689200     2.711600     1.217100
C       9.726900     4.834100     3.811200
H       9.334000     4.801200     4.708500
H       9.451300     5.660800     3.363500
H      10.704300     4.810300     3.880800
C      11.035000    -0.603800     5.659900
C      12.091200    -1.336600     5.140400
H      12.240600    -1.342500     4.202400
C      12.932400    -2.058500     5.970500
H      13.642000    -2.558600     5.586900
C      12.766700    -2.072300     7.345400
C      11.706300    -1.352800     7.852000
H      11.557300    -1.350100     8.790500
C      10.852100    -0.632300     7.036700
H      10.131000    -0.151300     7.422900
