75
Refcode: GUDQOL_comp_0 | Dataset: tmCAT | Charge: unknown | Potential Spins: [1, 3, 5]
Zr      5.108200     8.782500     3.804100
Cl      5.552000    10.213600     1.926800
Cl      7.394000     8.314000     4.483600
C       4.065000     6.529200     4.038800
C       4.207000    11.155700     4.626000
C       5.374500    10.801500     5.383900
C       3.668400     9.228600     5.832100
C       3.170700    10.194400     4.873700
C       3.234500     7.160000     3.050100
C       5.309400     6.317900     3.392700
H       6.009800     5.772800     3.758100
C       1.896600    10.396200     4.258100
H       1.182900     9.774500     4.415800
C       4.023300     7.388100     1.871800
C       5.349500     6.883200     2.094500
C       3.958700    12.267400     3.776200
H       4.655000    12.906400     3.604400
C       2.725000    12.408900     3.214300
H       2.548900    13.163700     2.649200
C       1.853400     7.469000     3.032600
H       1.313400     7.296800     3.807600
C       1.709600    11.467800     3.454000
H       0.855900    11.592200     3.032600
C       3.422000     7.998800     0.742000
H       3.949500     8.197200    -0.036400
C       1.310900     7.999500     1.905500
H       0.367400     8.176500     1.879000
C       2.093100     8.286700     0.776700
H       1.679100     8.700000     0.014900
Si      2.787400     7.855800     6.783500
Si      3.569900     5.926400     5.738700
Si      6.919800    11.848400     5.570500
Si      6.721000     6.551000     0.855400
C       4.988300     9.663800     6.139200
H       5.506900     9.312300     6.866600
C       3.392800     7.936800     8.557300
H       3.063700     8.735300     8.975400
H       3.072300     7.168800     9.038200
H       4.352900     7.942600     8.567200
C       0.923100     8.056100     6.807100
H       0.692300     8.873000     7.255000
H       0.594300     8.081800     5.904800
H       0.528500     7.314500     7.271500
C       2.346900     4.537400     5.595800
H       2.761100     3.792600     5.152900
H       2.058600     4.269900     6.470000
H       1.590000     4.832100     5.083500
C       5.115700     5.334300     6.595600
H       5.437400     4.539100     6.164300
H       5.788000     6.017700     6.546000
H       4.920300     5.141900     7.514500
C       7.808600    12.065900     3.964600
H       8.093900    11.210300     3.635800
H       7.219300    12.473600     3.325100
H       8.575100    12.629200     4.096800
C       6.385800    13.519300     6.197300
H       7.153400    14.083900     6.311400
H       5.787300    13.917900     5.561100
H       5.934900    13.418700     7.040200
C       8.025700    11.095300     6.845200
H       8.318100    10.231100     6.547700
H       8.788500    11.661500     6.984000
H       7.540400    11.004300     7.668200
C       7.587200     8.042100     0.229700
H       6.954100     8.604000    -0.221500
H       7.973400     8.522000     0.966800
H       8.279800     7.782800    -0.381800
C       5.946000     5.666900    -0.576800
H       5.317200     6.257200    -0.998200
H       6.618600     5.410100    -1.211400
H       5.487500     4.884400    -0.261100
C       7.943200     5.468900     1.702200
H       8.331500     5.954000     2.434300
H       7.502800     4.684100     2.037700
H       8.633700     5.210800     1.087400
