71
Refcode: GUHJOI_comp_0 | Dataset: tmCAT | Charge: 0 | Potential Spins: [1, 3, 5]
Pt      0.000000     0.000000     0.000000
P      -0.495300    -1.223900     1.906000
Cl     -1.286200     1.700700     0.861300
C       0.438000    -0.638400     3.349500
C       0.589100    -1.416100     4.484100
H       0.221000    -2.268600     4.521500
C       1.301400    -0.906300     5.574300
H       1.392500    -1.422700     6.342500
C       1.862500     0.326700     5.533000
H       2.336300     0.651200     6.263700
C       1.727200     1.090300     4.404300
H       2.121100     1.930400     4.362000
C       1.005700     0.613700     3.327900
H       0.901400     1.149600     2.575400
C      -2.254500    -1.105300     2.350900
C      -3.178900    -1.184900     1.333500
H      -2.896800    -1.267200     0.451100
C      -4.544000    -1.140500     1.634900
H      -5.171700    -1.210200     0.952400
C      -4.953500    -0.996000     2.918100
H      -5.863000    -0.968400     3.112200
C      -4.039600    -0.890600     3.932600
H      -4.330000    -0.778100     4.809100
C      -2.687800    -0.952500     3.656800
H      -2.069200    -0.891500     4.348200
C      -0.156300    -3.016000     1.864300
C      -1.177100    -3.951300     1.819000
H      -2.065600    -3.678300     1.838700
C      -0.861300    -5.300400     1.745200
H      -1.545000    -5.929500     1.711700
C       0.431800    -5.713700     1.720600
H       0.630300    -6.621800     1.679200
C       1.440200    -4.796000     1.756000
H       2.324700    -5.080900     1.738300
C       1.156900    -3.456200     1.818100
H       1.852200    -2.838500     1.827900
P       0.495300     1.223900    -1.906000
Cl      1.286200    -1.700700    -0.861300
C      -0.438000     0.638400    -3.349500
C      -0.589100     1.416100    -4.484100
H      -0.221000     2.268600    -4.521500
C      -1.301400     0.906300    -5.574300
H      -1.392500     1.422700    -6.342500
C      -1.862500    -0.326700    -5.533000
H      -2.336300    -0.651200    -6.263700
C      -1.727200    -1.090300    -4.404300
H      -2.121100    -1.930400    -4.362000
C      -1.005700    -0.613700    -3.327900
H      -0.901400    -1.149600    -2.575400
C       2.254500     1.105300    -2.350900
C       3.178900     1.184900    -1.333500
H       2.896800     1.267200    -0.451100
C       4.544000     1.140500    -1.634900
H       5.171700     1.210200    -0.952400
C       4.953500     0.996000    -2.918100
H       5.863000     0.968400    -3.112200
C       4.039600     0.890600    -3.932600
H       4.330000     0.778100    -4.809100
C       2.687800     0.952500    -3.656800
H       2.069200     0.891500    -4.348200
C       0.156300     3.016000    -1.864300
C       1.177100     3.951300    -1.819000
H       2.065600     3.678300    -1.838700
C       0.861300     5.300400    -1.745200
H       1.545000     5.929500    -1.711700
C      -0.431800     5.713700    -1.720600
H      -0.630300     6.621800    -1.679200
C      -1.440200     4.796000    -1.756000
H      -2.324700     5.080900    -1.738300
C      -1.156900     3.456200    -1.818100
H      -1.852200     2.838500    -1.827900
