57
Refcode: GULJIH_comp_0 | Dataset: tmCAT | Charge: unknown | Potential Spins: [1, 3, 5]
Rh      0.192100     2.395900     9.723500
Cl      2.454400     2.704900    10.496500
S      -0.345800     1.520000    11.851500
P      -1.999600     2.391900     9.261700
C       0.659100     2.745600     7.984800
O       1.014400     2.923100     6.925600
C      -0.452100     2.808500    13.091100
C      -0.824400     2.451300    14.381900
H      -1.048700     1.550300    14.582400
C      -0.865600     3.421900    15.375700
H      -1.133500     3.188200    16.256500
C      -0.517000     4.731800    15.085400
H      -0.541300     5.392300    15.767900
C      -0.126900     5.082300    13.784700
H       0.121500     5.976500    13.585300
C      -0.105800     4.113900    12.790900
H       0.147200     4.347600    11.905700
C      -2.092900     1.002100    11.680800
H      -2.128200     0.101100    11.273100
H      -2.506000     0.948100    12.578200
C      -2.884700     1.968200    10.825500
H      -3.051600     2.797300    11.339500
H      -3.761200     1.563800    10.605000
C      -2.690100     4.039100     8.791300
H      -3.684800     4.001600     8.886600
C      -2.152700     5.123400     9.745200
H      -2.411300     4.902500    10.674800
H      -1.163500     5.142900     9.698700
C      -2.706000     6.502200     9.376300
H      -3.689500     6.504500     9.492600
H      -2.322800     7.183000     9.982300
C      -2.363000     6.852700     7.931600
H      -2.756200     7.731200     7.701100
H      -1.380200     6.920100     7.830800
C      -2.901700     5.787800     6.981000
H      -2.643100     6.012400     6.051400
H      -3.890400     5.772000     7.028600
C      -2.356400     4.406000     7.336600
H      -1.373900     4.397000     7.211400
H      -2.748300     3.729700     6.728400
C      -2.644100     1.231700     7.981400
H      -2.208300     1.485100     7.118400
C      -4.167100     1.316600     7.752100
H      -4.639000     1.105400     8.595200
H      -4.408700     2.240100     7.488400
C      -4.619400     0.337000     6.653000
H      -5.606800     0.355000     6.583200
H      -4.246100     0.624600     5.782200
C      -4.161200    -1.083000     6.955500
H      -4.415000    -1.676100     6.203200
H      -4.622500    -1.408700     7.768700
C      -2.654500    -1.161600     7.168200
H      -2.188700    -0.918900     6.327300
H      -2.400600    -2.087300     7.404200
C      -2.213400    -0.206700     8.289400
H      -2.616500    -0.496500     9.147000
H      -1.228300    -0.242700     8.385800
