70
Refcode: GULZAO_comp_0 | Dataset: tmCAT | Charge: unknown | Potential Spins: [1, 3, 5]
Ru      3.862200     2.964700     7.544300
C       4.239700     4.053700     6.135400
O       4.488700     4.745300     5.236800
F       3.383000     1.714200     9.117200
C       5.536500     3.300500     8.489000
F       6.567100     4.092500     8.155200
F       5.943700     2.741300     9.615800
P       2.468300     4.563200     8.689000
C       2.733000     4.316200    10.475000
C       2.836400     6.404700     8.452400
C       2.252200     6.874900     7.114300
C       2.289800     7.288000     9.584800
C       4.357200     6.571300     8.442500
C       0.618600     4.218100     8.482000
C       0.184800     4.174700     7.022800
C       0.416600     2.807500     9.101700
C      -0.291300     5.199500     9.244000
P       4.510700     0.924600     6.449500
C       5.257700    -0.132400     7.739700
C       5.863900     1.018000     5.125500
C       6.930400     1.997200     5.631200
C       6.559200    -0.335500     4.865000
C       5.296900     1.533800     3.798700
C       3.051000    -0.118700     5.850900
C       2.236500    -0.461100     7.118600
C       2.152000     0.652800     4.874800
C       3.487900    -1.428800     5.191700
H       2.537200     2.602100     6.887600
H       2.599900     3.423800    10.704600
H       3.633600     4.565000    10.690500
H       2.145700     4.884600    10.958100
H       2.505900     7.806200     6.986200
H       2.568600     6.368200     6.422800
H       1.299900     6.847500     7.169300
H       2.568600     8.194200     9.493300
H       1.362600     7.258400     9.676400
H       2.678200     6.984500    10.437000
H       4.776900     6.071500     7.732700
H       4.620300     7.486600     8.338300
H       4.745600     6.254100     9.267900
H       0.313200     5.021500     6.620000
H       0.673500     3.515100     6.563600
H      -0.751800     3.948700     6.986200
H      -0.501200     2.556400     9.042600
H       0.971000     2.168400     8.718600
H       0.610800     2.807500    10.084900
H      -0.250600     6.048600     8.887600
H      -1.174600     4.861700     9.239800
H      -0.031300     5.249800    10.197500
H       5.481700    -0.981500     7.394600
H       6.061200     0.273900     8.084800
H       4.651600    -0.251100     8.479200
H       7.611700     2.031400     4.957900
H       6.531100     2.807500     5.760800
H       7.298500     1.643400     6.422800
H       5.951600    -0.958600     4.577600
H       7.282800    -0.205400     4.253700
H       6.953900    -0.616300     5.718500
H       5.967200     1.597800     3.155000
H       4.620300     0.913000     3.521300
H       4.886500     2.373800     3.943800
H       1.926400     0.342400     7.521400
H       1.503600    -1.004300     6.873500
H       2.772200    -0.935800     7.746800
H       2.662500     0.867400     4.070600
H       1.393900     0.137000     4.591700
H       1.832500     1.506500     5.225500
H       2.709500    -1.917300     4.887500
H       3.993800    -1.186900     4.394500
H       4.009500    -1.985800     5.732600
