63
Refcode: GUQFIJ_comp_0 | Dataset: tmCAT | Charge: unknown | Potential Spins: [1, 3, 5]
C      -1.200200     4.822700     3.670400
H      -0.609200     4.497600     3.020800
C      -2.203500     5.679100     3.258500
H      -2.286100     5.956800     2.376500
C      -3.048400     6.094900     4.225000
H      -3.759900     6.645300     3.992600
C      -2.890000     5.720700     5.529400
H      -3.460800     6.022500     6.200100
C      -1.838600     4.880900     5.793500
H      -1.713800     4.611500     6.675400
C       1.977400     1.903300     5.983600
C       3.036900     1.408600     5.239000
C       3.524200     1.745300     3.881700
C       2.761300     1.420200     2.756800
H       1.947600     0.988600     2.867700
C       3.197200     1.729500     1.457600
H       2.677300     1.530800     0.713000
C       4.439200     2.339000     1.315000
H       4.758400     2.542700     0.464700
C       5.204400     2.643300     2.408200
H       6.030600     3.048300     2.297300
C       4.740200     2.349800     3.670400
H       5.264400     2.567700     4.404500
C       4.959100    -0.191200     5.772400
H       5.739200     0.365000     5.703700
H       4.809800    -0.637800     4.932600
H       5.092500    -0.843100     6.464200
C       1.576500     1.727900     8.508000
H       0.849200     2.355600     8.317900
C       2.625500     2.465400     9.363600
H       3.382100     1.876700     9.511400
H       2.943800     3.239500     8.872400
C       2.094500     2.914400    10.689100
H       1.371100     3.552200    10.514900
C       1.493500     1.733700    11.418000
H       1.073900     2.046300    12.236500
H       2.204900     1.121700    11.666200
C       0.463300     0.983700    10.588800
H       0.165100     0.206200    11.085200
H      -0.305300     1.558200    10.451500
C       0.981700     0.528000     9.236800
H       1.717200    -0.097300     9.405800
C      -0.074900    -0.232800     8.402400
H       0.282300    -0.332600     7.494000
C      -1.416200     0.490600     8.291500
H      -1.843000     0.518000     9.147000
H      -1.981700     0.029900     7.668300
H      -1.271200     1.391900     7.979900
C      -0.273600    -1.621400     8.967500
H      -0.642300    -1.561600     9.849400
H       0.567000    -2.081200     8.999200
H      -0.881900    -2.112800     8.402400
C       3.144900     3.632800    11.497200
H       3.900500     3.050800    11.634500
H       2.783400     3.886400    12.347400
H       3.434400     4.418600    11.027100
I       1.993800     5.008300     6.436200
I      -0.829300     1.110200     4.464200
N      -1.010100     4.428600     4.901000
N       2.207300     1.353700     7.214100
N       3.275500     0.567900     7.309200
N       3.786800     0.643600     6.099800
Pd      0.535400     3.112900     5.448100
