31
Refcode: GUXHOX_comp_0 | Dataset: tmCAT | Charge: 0 | Potential Spins: [1, 3, 5]
Pd      7.932300     0.566000     4.107900
Cl      4.040400    -0.005200     6.241900
Cl      5.283600    -2.769700     5.498500
Cl      8.421500     2.744500     3.792700
Cl      9.775600    -0.067900     2.915900
N       6.184000     0.995300     5.075100
N       7.268500    -1.344500     4.499300
C       5.527400    -0.046500     5.411500
C       6.127500    -1.355900     5.081100
C       5.686300     2.314300     5.325600
C       6.111300     3.010500     6.438500
C       5.638300     4.304900     6.638100
C       4.757900     4.879400     5.728900
C       4.349800     4.167200     4.632000
C       4.792500     2.864400     4.406400
C       7.974500    -2.574300     4.260700
C       8.600000    -3.189500     5.329600
C       9.249600    -4.398400     5.099100
C       9.269300    -4.971400     3.840500
C       8.645200    -4.319900     2.779600
C       8.000600    -3.108800     2.972200
H       4.479700     2.340900     3.613000
H       7.566400    -2.630900     2.208700
H       6.746000     2.592700     7.089200
H       3.721400     4.591800     3.979300
H       8.585900    -2.777100     6.240900
H       8.662900    -4.731200     1.868400
H       5.932700     4.823400     7.440500
H       4.423200     5.810600     5.874600
H       9.709900    -4.859400     5.857600
H       9.729000    -5.846500     3.692800
