28
Refcode: HAJQEO_comp_0 | Dataset: tmCAT | Charge: 0 | Potential Spins: [1, 3, 5]
I      -5.110200     1.582100     6.142700
I      -4.338400    -2.089900     7.009500
Pd     -3.133600     0.260500     7.301400
N      -1.111600    -1.455300     8.920200
N      -0.270200    -0.299200     7.315100
N      -0.792800     1.944700     6.856000
N      -2.212100     3.138200     7.955800
C      -1.451200    -0.600000     7.920500
C       0.239400    -1.692700     8.883900
C       0.779400    -0.962600     7.908700
C      -2.012700    -2.004900     9.897400
C      -0.223200     0.757700     6.301600
C      -2.040200     1.918700     7.394600
C      -1.084800     3.909000     7.781200
C      -0.182900     3.152900     7.099300
C      -3.396500     3.572400     8.694600
H       0.703400    -2.268300     9.448100
H       1.677700    -0.912200     7.677200
H      -1.527900    -2.580500    10.493900
H      -2.697400    -2.510600     9.453000
H      -2.416600    -1.292700    10.398700
H       0.696100     0.923600     6.038700
H      -0.722100     0.486200     5.515800
H      -0.956600     4.782200     8.074500
H       0.676200     3.401700     6.847100
H      -3.274500     4.476500     8.991800
H      -3.526600     3.000000     9.453900
H      -4.165100     3.523600     8.121600
