67
Refcode: HANQUK_comp_0 | Dataset: tmCAT | Charge: 0 | Potential Spins: [1, 3, 5]
Pd     -1.285000     7.643400     3.290600
N      -2.315100     5.923900     4.130200
N       0.735000     5.450600     5.646200
C      -2.459400     9.137300     4.183100
H      -2.234200     9.204500     5.134600
H      -3.407700     8.909000     4.086900
H      -2.284300     9.995700     3.744700
C      -1.691300     5.269800     5.130900
C      -2.013400     3.960500     5.458700
H      -1.565700     3.519600     6.171800
C      -2.996600     3.303400     4.733300
H      -3.243800     2.413100     4.951700
C      -3.611100     3.968000     3.685400
H      -4.282200     3.535900     3.170800
C      -3.236000     5.275000     3.395000
C      -3.838800     5.981700     2.204900
H      -4.822900     5.868700     2.220500
H      -3.642000     6.949600     2.263900
C      -0.611400     5.994100     5.896800
H      -0.624900     6.950800     5.645300
H      -0.807900     5.933900     6.865500
C       1.637100     5.646400     6.826100
C       1.153100     4.722700     7.951500
H       0.228200     4.948400     8.184300
H       1.726200     4.839000     8.738400
H       1.196000     3.790700     7.649900
C       3.057400     5.202200     6.482000
H       3.027500     4.330600     6.034900
H       3.585600     5.129900     7.305100
H       3.470400     5.861800     5.886200
C       1.677100     7.101400     7.299200
H       1.914200     7.682700     6.546900
H       2.346900     7.196300     8.007900
H       0.796800     7.356900     7.644700
N      -0.254900     5.923900     2.451000
N      -3.305000     5.450600     0.934900
C      -0.110600     9.137300     2.398000
H      -0.335800     9.204500     1.446500
H       0.837700     8.909000     2.494300
H      -0.285700     9.995700     2.836500
C      -0.878700     5.269800     1.450200
C      -0.556600     3.960500     1.122500
H      -1.004300     3.519600     0.409300
C       0.426700     3.303400     1.847900
H       0.673800     2.413100     1.629500
C       1.041100     3.968000     2.895700
H       1.712200     3.535900     3.410400
C       0.666000     5.275000     3.186200
C       1.268800     5.981700     4.376200
H       2.252900     5.868700     4.360700
H       1.072100     6.949600     4.317200
C      -1.958500     5.994100     0.684300
H      -1.945100     6.950800     0.935800
H      -1.762100     5.933900    -0.284300
C      -4.207000     5.646400    -0.245000
C      -3.723100     4.722700    -1.370300
H      -2.798200     4.948400    -1.603200
H      -4.296200     4.839000    -2.157300
H      -3.766000     3.790700    -1.068800
C      -5.627400     5.202200     0.099100
H      -5.597500     4.330600     0.546200
H      -6.155600     5.129900    -0.723900
H      -6.040400     5.861800     0.695000
C      -4.247100     7.101400    -0.718000
H      -4.484200     7.682700     0.034200
H      -4.916800     7.196300    -1.426800
H      -3.366800     7.356900    -1.063500
