65
Refcode: HAQBUY_comp_0 | Dataset: tmCAT | Charge: unknown | Potential Spins: [1, 3, 5]
C       2.271800     4.460700    -0.048600
C       2.584100     2.010900    -0.177600
C       1.974200     1.275800    -1.155100
C       1.563700     1.682600    -2.537400
H       2.320400     2.028700    -3.037500
H       0.868500     2.358800    -2.509600
C       1.052800     0.405000    -3.146700
H       0.166400     0.558500    -3.490000
H       1.462800     0.344400    -3.929700
C       0.986700    -0.665500    -2.102800
H       0.065700    -0.893900    -1.900300
H       1.450100    -1.464900    -2.397500
C       1.658600    -0.069600    -0.915900
C       1.951500    -0.665500     0.288800
H       1.719400    -1.552300     0.446600
C       2.594000     0.074900     1.258300
C       3.056800    -0.330100     2.634700
H       3.855200    -0.877900     2.586000
H       2.364200    -0.820800     3.105000
C       3.344400     0.988500     3.314400
H       4.101600     0.902800     3.914800
H       2.574500     1.282900     3.826500
C       3.651500     1.971600     2.207900
H       3.328700     2.858400     2.430200
H       4.605700     2.016200     2.037300
C       2.920600     1.413100     1.027100
C       4.236100     3.700600    -1.046900
H       4.282500     3.350900    -1.949900
H       4.978800     3.350900    -0.530900
C       1.098100     4.460700     2.528500
C      -1.383200     4.460700     1.492500
Cl     -0.577100     4.460700    -1.297000
Ir      0.383900     4.460700     0.825300
N       2.950100     3.375900    -0.414800
O       1.497500     4.460700     3.571400
O      -2.441100     4.460700     1.872500
C       2.584100     6.910500    -0.177600
C       1.974200     7.645600    -1.155100
C       1.563700     7.238800    -2.537400
H       2.320400     6.892700    -3.037500
H       0.868500     6.562600    -2.509600
C       1.052800     8.516400    -3.146700
H       0.166400     8.362900    -3.490000
H       1.462800     8.577000    -3.929700
C       0.986700     9.586900    -2.102800
H       0.065700     9.815300    -1.900300
H       1.450100    10.386300    -2.397500
C       1.658600     8.991000    -0.915900
C       1.951500     9.586900     0.288800
H       1.719400    10.473700     0.446600
C       2.594000     8.846500     1.258300
C       3.056800     9.251500     2.634700
H       3.855200     9.799300     2.586000
H       2.364200     9.742200     3.105000
C       3.344400     7.932900     3.314400
H       4.101600     8.018600     3.914800
H       2.574500     7.638500     3.826500
C       3.651500     6.949800     2.207900
H       3.328700     6.063000     2.430200
H       4.605700     6.905200     2.037300
C       2.920600     7.508300     1.027100
C       4.236100     5.220800    -1.046900
H       4.282500     5.570500    -1.949900
H       4.978800     5.570500    -0.530900
N       2.950100     5.545500    -0.414800
