78
Refcode: HAVQEC_comp_0 | Dataset: tmCAT | Charge: unknown | Potential Spins: [1, 3, 5]
C       2.748400     7.549100     6.921200
H       1.932000     8.001800     7.218400
H       3.398200     8.217500     6.613700
H       3.130300     7.041900     7.666500
C       2.419400     6.612900     5.793600
C       3.460800     6.039300     4.964300
C       4.830200     6.169600     5.108300
H       5.207300     6.695800     5.804000
C       5.638100     5.491800     4.183400
H       6.583000     5.558100     4.255900
C       5.090000     4.728500     3.169800
H       5.645500     4.256900     2.560500
C       3.705300     4.669300     3.063800
C       2.881500     3.955900     2.111300
C       3.530000     3.233000     0.959500
H       3.175900     2.320400     0.905300
H       4.499600     3.199800     1.097700
H       3.335300     3.707000     0.124400
C       0.063300     6.701300     6.170300
C      -0.240500     6.236000     7.451100
C      -1.448900     6.657900     8.039600
H      -1.691600     6.352100     8.904700
C      -2.277800     7.525400     7.347400
H      -3.101400     7.790800     7.739000
C      -1.942700     8.001800     6.121900
H      -2.517100     8.625200     5.691100
C      -0.766900     7.594100     5.479200
C       0.664000     5.290300     8.225100
H       1.514800     5.190700     7.710200
C       1.012300     5.849700     9.599200
H       1.369500     6.757400     9.502400
H       1.684600     5.278400    10.024200
H       0.205700     5.875700    10.156700
C       0.031500     3.889500     8.372500
H      -0.759300     3.946400     8.947300
H       0.684000     3.278000     8.773300
H      -0.228900     3.555300     7.489100
C      -0.379500     8.134500     4.105100
H       0.057900     7.387900     3.604000
C       0.653000     9.269900     4.230600
H       0.877400     9.608800     3.339100
H       1.463500     8.930900     4.664800
H       0.275000     9.997500     4.769700
C      -1.576000     8.584900     3.291900
H      -2.260100     7.883300     3.301100
H      -1.295900     8.755500     2.368100
H      -1.944500     9.405000     3.678900
C       0.680500     3.417800     1.322300
H       1.216800     3.330100     0.482600
C      -0.526800     4.285300     0.980200
H      -1.100500     4.316100     1.798000
C      -0.147900     5.712200     0.656500
H       0.217200     6.134100     1.474300
H       0.572800     5.700300    -0.021900
C      -1.234800     6.532300     0.160100
H      -0.856800     7.380800    -0.184300
H      -1.829900     6.759800     0.919100
C      -2.065100     5.904200    -0.924900
H      -2.845400     6.482500    -1.112600
H      -1.525000     5.844900    -1.751900
C      -2.541400     4.553200    -0.557500
H      -2.993700     4.140700    -1.336100
H      -3.200500     4.624300     0.178500
C      -1.356200     3.652500    -0.108300
H      -1.712600     2.789700     0.216500
H      -0.777700     3.467600    -0.889200
C       0.325900     2.002800     1.762300
H       1.146200     1.516900     1.985700
H      -0.139900     1.543000     1.034300
H      -0.255400     2.043100     2.550100
C      -0.650700     4.273500     4.395300
H      -0.747300     3.384600     3.993300
H      -1.343500     4.868400     4.041700
H      -0.746700     4.202400     5.368600
N       1.208600     6.191000     5.449200
N       2.913000     5.322800     3.957600
N       1.574400     4.043300     2.334700
Co      1.116700     4.997100     3.963500
