47
Refcode: HAZXIQ_comp_0 | Dataset: tmCAT | Charge: unknown | Potential Spins: [1, 3, 5]
Ti      1.681800     4.047100     3.034800
Cl      0.614200     6.071000     2.659600
Cl      1.871100     3.931700     5.326900
N       3.336000     4.366500     2.518000
N       4.658700     4.886700     0.585000
N       5.701800     4.030400     2.306600
C       4.480300     4.408800     1.852600
C       6.017600     4.815100     0.258500
C       6.655100     4.286900     1.323400
C       3.535900     5.458500    -0.189300
C       6.589400     5.252100    -1.053400
C       8.109200     4.036200     1.538500
C       5.982900     3.455200     3.647600
C       3.256000     4.677200    -1.463500
C       3.731200     6.946400    -0.421300
C       5.292600     2.127200     3.843300
C       5.656400     4.467500     4.734300
C       1.452000     2.498100     1.296900
C       1.591600     1.790200     2.452900
C       0.428200     2.039300     3.210900
C      -0.329900     2.905100     2.506000
C       0.287200     3.188000     1.344300
H       2.720700     5.365900     0.384100
H       7.547900     5.051400    -1.075600
H       6.454900     6.217100    -1.163400
H       6.138800     4.775200    -1.781600
H       8.425900     4.574600     2.293800
H       8.606600     4.282600     0.729800
H       8.252500     3.086500     1.732200
H       6.966200     3.283800     3.693100
H       2.401000     4.968000    -1.843800
H       3.212100     3.720100    -1.256600
H       3.974500     4.840600    -2.110900
H       4.451400     7.084000    -1.070100
H       3.965500     7.380400     0.424400
H       2.901400     7.334200    -0.768300
H       4.325000     2.269300     3.914400
H       5.622100     1.705600     4.664400
H       5.481200     1.544400     3.078500
H       5.840700     4.074100     5.613800
H       4.709800     4.713200     4.679000
H       6.209200     5.267900     4.611400
H       2.070400     2.507100     0.576200
H       2.326900     1.240000     2.699900
H       0.216800     1.667300     4.059000
H      -1.165300     3.259000     2.785800
H      -0.039700     3.773100     0.671300
