69
Refcode: HEBMAD_comp_0 | Dataset: tmCAT | Charge: -2 | Potential Spins: [1, 3, 5]
Ag      1.051400     4.124000     4.592800
Cl      3.362800     4.061400     4.403800
N      -1.749600     5.257900     4.441300
C      -1.028100     4.170100     4.520000
N      -1.812900     3.103500     4.403000
C      -3.211100     4.991700     4.213600
H      -3.767600     5.367400     4.941400
H      -3.518700     5.352700     3.345300
C      -3.222700     3.467700     4.226300
H      -3.772800     3.123100     4.975400
H      -3.576800     3.108400     3.375100
C      -1.210100     6.590800     4.400800
C      -0.672300     7.061200     3.190000
C      -0.029400     8.300900     3.215500
H       0.364400     8.642300     2.419600
C       0.041100     9.032700     4.371100
H       0.488200     9.870600     4.356200
C      -0.502500     8.601500     5.526600
H      -0.459100     9.148700     6.303300
C      -1.135100     7.342100     5.586200
C      -1.677300     6.812900     6.905600
H      -2.204400     5.986400     6.707700
C      -2.637000     7.828900     7.552500
H      -2.172800     8.683200     7.678100
H      -2.936700     7.490800     8.420800
H      -3.412400     7.962800     6.967300
C      -0.539500     6.417600     7.856800
H       0.050100     5.774100     7.409900
H      -0.914600     6.010900     8.665500
H      -0.026300     7.216400     8.101600
C      -0.795400     6.254300     1.881200
H      -1.279900     5.403300     2.081300
C      -1.582800     7.017100     0.832100
H      -2.488400     7.187000     1.164100
H      -1.630400     6.486200     0.010600
H      -1.137700     7.869700     0.646900
C       0.612900     5.901500     1.359800
H       0.534500     5.298700     0.591600
H       1.123100     5.458800     2.070600
H       1.075600     6.721400     1.087400
C      -1.337700     1.726500     4.426400
C      -0.877300     1.154800     3.238900
C      -0.477800    -0.184600     3.296400
H      -0.149800    -0.604400     2.511100
C      -0.550100    -0.898400     4.451900
H      -0.279100    -1.808200     4.460400
C      -1.016600    -0.303800     5.622400
H      -1.034900    -0.806900     6.426800
C      -1.453700     1.007800     5.626600
C      -1.956100     1.643200     6.897100
H      -2.251300     2.574200     6.680000
C      -0.838000     1.734700     7.931300
H      -0.567800     0.833000     8.201600
H      -1.158200     2.228000     8.716600
H      -0.070800     2.203500     7.541900
C      -3.160100     0.890200     7.473800
H      -3.882100     0.872200     6.812000
H      -3.472100     1.344300     8.284600
H      -2.896100    -0.027800     7.695100
C      -0.752800     1.929000     1.942900
H      -1.092200     2.855200     2.104700
C       0.717200     2.038500     1.481100
H       1.233000     2.533400     2.151500
H       0.756500     2.510500     0.623500
H       1.093300     1.140100     1.376900
C      -1.614200     1.298600     0.827800
H      -1.294800     0.392000     0.640500
H      -1.544300     1.842500     0.014900
H      -2.549900     1.264300     1.117200
