106
Refcode: HEBYIY_comp_0 | Dataset: tmCAT | Charge: unknown | Potential Spins: [1, 3, 5]
Ru      9.264000    15.992800    14.759100
P      10.121200    18.103800    14.030600
P       8.354500    13.997600    15.607700
Cl     10.771000    15.971000    16.715200
N       8.042000    15.944600    13.188500
N      10.445700    14.965400    13.241700
N       9.759100    14.926100    12.033600
C       8.431800    15.415100    12.011700
C       7.576300    15.349800    10.933400
H       7.849800    14.966600    10.131400
C       6.305000    15.864200    11.072800
H       5.712800    15.831300    10.355800
C       5.907300    16.423100    12.254500
H       5.049900    16.774700    12.340000
C       6.789200    16.464600    13.327400
C      11.635400    14.423900    12.995400
C      11.730700    14.076200    11.643500
H      12.470700    13.696700    11.228600
C      10.564600    14.386700    11.047900
C      12.618900    14.216700    14.084100
H      12.235700    14.494900    14.917900
H      13.407700    14.734800    13.905500
H      12.850600    13.285500    14.133400
C      10.191300    14.258100     9.594100
H      10.967900    14.011100     9.085400
H       9.853400    15.097600     9.274500
H       9.516900    13.583800     9.495300
C       7.664700    16.965300    15.556000
C       6.573700    17.044200    14.650400
C       5.380200    17.681100    14.998900
H       4.671100    17.697800    14.396700
C       5.249700    18.282600    16.225100
H       4.451300    18.703700    16.449800
C       6.302500    18.268300    17.133100
C       7.474600    17.604500    16.792600
H       8.167000    17.583000    17.412800
C       6.209700    19.009100    18.448900
H       6.824200    18.623100    19.077200
H       5.316600    18.941500    18.792700
H       6.430900    19.933300    18.312100
C      11.930400    18.471900    13.999100
C      12.827900    17.733300    14.746400
H      12.535900    16.980300    15.205900
C      14.165800    18.110300    14.814600
H      14.764500    17.605100    15.315500
C      14.605500    19.221500    14.148600
H      15.497400    19.477700    14.209400
C      13.724600    19.961100    13.385700
H      14.025800    20.709300    12.923100
C      12.398400    19.591000    13.309700
H      11.809300    20.092500    12.794100
C       9.546600    19.599100    14.953800
C      10.427000    20.276500    15.790300
H      11.316700    20.007800    15.833200
C       9.998000    21.343400    16.558700
H      10.603500    21.783700    17.110700
C       8.693100    21.761500    16.517700
H       8.415800    22.489200    17.025800
C       7.798700    21.089700    15.711100
H       6.909400    21.362400    15.681200
C       8.214500    20.014300    14.946000
H       7.595900    19.560400    14.419700
C       9.740600    18.410600    12.249200
C       8.598700    19.055200    11.789300
H       7.999300    19.419300    12.400100
C       8.347600    19.161400    10.438500
H       7.572000    19.586600    10.149100
C       9.218300    18.651100     9.520100
H       9.046900    18.740000     8.610100
C      10.351500    18.006000     9.950600
H      10.950700    17.657500     9.331000
C      10.603000    17.873200    11.304300
H      11.362600    17.415600    11.585600
C       9.427400    12.525600    15.305200
C       9.621900    11.992200    14.040300
H       9.168600    12.360300    13.317100
C      10.475900    10.922300    13.832500
H      10.566600    10.562300    12.979600
C      11.189200    10.391300    14.876800
H      11.753600     9.663300    14.739500
C      11.064900    10.938600    16.112000
H      11.569700    10.602600    16.817400
C      10.188900    11.996800    16.336600
H      10.113900    12.354200    17.191900
C       7.954300    13.748300    17.390900
C       7.338900    12.551800    17.766900
H       7.169000    11.900700    17.124800
C       6.981100    12.326200    19.080900
H       6.579800    11.523800    19.322800
C       7.218400    13.286300    20.027100
H       6.970700    13.138300    20.911300
C       7.820800    14.466700    19.671200
H       7.980000    15.115700    20.319300
C       8.194900    14.703500    18.353300
H       8.606400    15.504800    18.123100
C       6.679600    13.619100    14.926100
C       5.576500    14.155300    15.587400
H       5.704300    14.617900    16.384500
C       4.298600    14.015400    15.088800
H       3.579500    14.378000    15.552300
C       4.084800    13.343100    13.912000
H       3.222100    13.233100    13.582200
C       5.151900    12.840000    13.233700
H       5.016800    12.400600    12.424800
C       6.437200    12.973900    13.730000
H       7.151400    12.622300    13.248200
