94
Refcode: HEDWIX_comp_0 | Dataset: tmCAT | Charge: unknown | Potential Spins: [1, 3, 5]
Rh      3.079500     3.467400     1.972200
Cl      3.961400     5.440000     3.023300
Cl     -0.606800     3.839200     6.508300
P       1.561400     4.846300     0.807800
P       4.535000     2.130700     3.282100
N       2.358200     1.842500     1.124700
N       1.388800     1.181300     1.654600
N       4.320200     3.350800     0.221500
H       4.933900     3.830800    -0.150400
C       1.592800     2.992800     3.271500
C       1.109600     3.591000     4.423600
H       1.520400     4.355700     4.757700
C       0.009700     3.046000     5.080900
C      -0.626800     1.896600     4.638700
H      -1.360500     1.555100     5.098000
C      -0.151600     1.267000     3.503900
H      -0.557600     0.489300     3.196300
C       0.943500     1.809500     2.822900
C       2.956900     1.425200    -0.050100
C       2.570200     0.265300    -0.752800
H       1.864600    -0.254400    -0.444100
C       3.236800    -0.088600    -1.886400
H       3.010600    -0.868300    -2.338600
C       4.275700     0.737700    -2.369200
H       4.729100     0.489300    -3.142600
C       4.633900     1.893700    -1.732300
H       5.298200     2.434100    -2.096800
C       4.000300     2.280700    -0.512800
C       0.840700     3.974600    -0.618800
C      -0.056600     2.910400    -0.438900
H      -0.362900     2.699200     0.413600
C      -0.486500     2.174300    -1.531400
H      -1.069900     1.460800    -1.405700
C      -0.056400     2.491600    -2.805000
H      -0.366400     2.005300    -3.534700
C       0.831800     3.528200    -2.996300
H       1.128100     3.736500    -3.853500
C       1.283700     4.262800    -1.905200
H       1.890000     4.955400    -2.037700
C       2.178500     6.371700     0.018400
C       1.231100     7.262400    -0.508700
H       0.324800     7.111900    -0.363500
C       1.634900     8.364100    -1.245600
H       1.003200     8.953400    -1.590100
C       2.987600     8.583200    -1.466400
H       3.263600     9.316400    -1.967900
C       3.923700     7.716500    -0.942400
H       4.828200     7.873400    -1.088700
C       3.529400     6.610600    -0.197700
H       4.167600     6.033600     0.154000
C       0.189400     5.489300     1.830800
C       0.534300     6.282200     2.929700
H       1.426400     6.490900     3.087100
C      -0.444900     6.760100     3.784900
H      -0.205500     7.277300     4.519600
C      -1.773200     6.469500     3.550800
H      -2.428500     6.779100     4.132800
C      -2.123300     5.720100     2.453200
H      -3.020000     5.542500     2.284900
C      -1.153700     5.226300     1.592100
H      -1.403200     4.718700     0.854100
C       4.108100     2.035200     5.053500
C       3.896900     0.850500     5.757300
H       4.011100     0.033800     5.328900
C       3.517300     0.880200     7.088100
H       3.366200     0.083600     7.544000
C       3.361400     2.083600     7.743600
H       3.084900     2.101400     8.630900
C       3.620400     3.263900     7.071200
H       3.547000     4.076400     7.517100
C       3.987100     3.243700     5.742900
H       4.155200     4.044300     5.300300
C       6.296900     2.618100     3.345800
C       7.118800     2.045500     4.319900
H       6.757100     1.464400     4.951100
C       8.475400     2.342100     4.349100
H       9.019100     1.957200     4.999500
C       9.019400     3.198800     3.423900
H       9.929600     3.389600     3.443400
C       8.205100     3.779200     2.459800
H       8.571500     4.362800     1.835400
C       6.845800     3.493500     2.421700
H       6.304700     3.889500     1.778100
C       4.627700     0.414000     2.655200
C       5.660800     0.064400     1.792300
H       6.332100     0.679700     1.604400
C       5.701500    -1.197500     1.206400
H       6.376200    -1.409200     0.601700
C       4.743100    -2.130500     1.521300
H       4.783300    -2.980300     1.146000
C       3.726000    -1.812200     2.387500
H       3.092700    -2.453700     2.614300
C       3.642900    -0.533400     2.923800
H       2.922600    -0.307800     3.468500
