77
Refcode: HEJFAG_comp_0 | Dataset: tmCAT | Charge: 0 | Potential Spins: [1, 3, 5]
Br     -1.143800    11.467800     8.762400
Ni      0.853700    10.903700     7.675400
Br      2.560900     9.616100     8.702900
N       0.605100    10.031300     5.894300
N       1.885100    12.427500     6.892100
C       2.848800    15.117600     9.292100
H       3.532400    15.314900     9.921300
C      -0.563700     9.192000     5.681300
C       0.786500    15.727400     8.249100
H       0.072800    16.347400     8.152700
C       1.796400    15.992200     9.157500
H       1.762600    16.779100     9.688900
C       2.744900    10.920400     5.214000
C       1.548100    10.050900     5.016300
C       4.142600    13.044400     8.709700
H       4.050600    12.278000     8.074800
C      -1.696700     7.092900     5.878200
H      -1.701100     6.175700     6.126200
C       2.648900    12.257700     5.874800
C       0.713200     7.174700     6.616600
H       1.447200     7.855000     6.639200
C      -0.522400     7.838900     6.053500
C      -2.840100     8.979900     4.972700
H      -3.627400     9.355900     4.595700
C      -1.712400     9.778300     5.130000
C       0.797700    14.562200     7.467400
C       3.929600    10.506300     4.775700
H       4.006500     9.663400     4.342100
H       4.697100    11.051200     4.896200
C      -2.837200     7.649500     5.356700
H      -3.622100     7.123700     5.257500
C       2.945400    13.945100     8.532200
C       3.513400    13.351900     5.293000
H       3.276500    14.209100     5.706800
H       3.366900    13.404500     4.326500
H       4.455200    13.152800     5.471500
C       0.460900     6.699900     8.056400
H       0.131600     7.450300     8.594900
H       1.296000     6.363700     8.441800
H      -0.208700     5.984500     8.052100
C       0.101400    14.699900     5.047800
H       0.279200    15.662200     5.029400
H      -0.624900    14.489600     4.424300
H       0.909200    14.212300     4.784200
C      -1.739200    11.221700     4.642500
H      -0.947700    11.693300     5.032200
C      -1.638800    14.942100     6.820600
H      -1.909500    14.658500     7.720500
H      -2.323400    14.669600     6.174400
H      -1.540400    15.915600     6.802200
C      -0.305900    14.285500     6.459300
H      -0.455100    13.296200     6.446500
C       1.883800    13.683000     7.627700
C      -2.982900    11.964200     5.081800
H      -3.775400    11.516400     4.720400
H      -2.948300    12.885100     4.750200
H      -3.029900    11.972100     6.061000
C      -1.603700    11.258300     3.107800
H      -0.787100    10.786700     2.839900
H      -1.556700    12.190400     2.805900
H      -2.381000    10.821800     2.701000
C       1.172200     6.011600     5.732300
H       0.492300     5.307300     5.739400
H       2.017200     5.653100     6.075200
H       1.301800     6.330200     4.814000
C       5.443200    13.785300     8.378100
H       5.371200    14.190000     7.488100
H       6.191300    13.152800     8.390800
H       5.597100    14.488000     9.044100
C       1.539000     9.210900     3.761100
H       2.216400     8.506700     3.834700
H       1.740500     9.778100     2.987300
H       0.655700     8.803000     3.647700
C       4.228800    12.477200    10.139500
H       4.352200    13.213300    10.775800
H       4.989600    11.862200    10.200500
H       3.401700    11.997600    10.350700
