55
Refcode: HESTIL_comp_0 | Dataset: tmCAT | Charge: unknown | Potential Spins: [1, 3, 5]
Pd      5.021400     0.000000     0.000000
O       5.140400     1.653900    -1.093100
N       3.519000     0.777000     1.145000
C       4.504700     2.752600    -0.866100
C       3.597500     2.977500     0.140400
H       3.266500     3.864300     0.225900
C       3.099900     2.015500     1.072400
C       4.846800     3.843100    -1.850400
H       5.811000     4.017300    -1.822300
H       4.360000     4.660200    -1.615000
H       4.591800     3.560100    -2.753800
C       1.988100     2.524600     1.973700
H       2.153100     2.231500     2.893600
H       1.128800     2.167300     1.666300
H       1.964900     3.504200     1.942200
C       2.844000    -0.144700     2.077500
H       2.785600    -1.039300     1.658100
H       1.920300     0.176000     2.233300
C       3.556800    -0.274600     3.426300
H       4.518000    -0.460400     3.276700
H       3.482800     0.577200     3.924100
C       2.938000    -1.402800     4.247300
H       1.988100    -1.187300     4.422400
H       2.964400    -2.238000     3.715600
C       3.642400    -1.643600     5.576100
H       3.180400    -2.354800     6.066600
H       3.628600    -0.820600     6.107300
H       4.570400    -1.910800     5.409800
O       4.902400    -1.653900     1.093100
N       6.523800    -0.777000    -1.145000
C       5.538100    -2.752600     0.866100
C       6.445300    -2.977500    -0.140400
H       6.776300    -3.864300    -0.225900
C       6.942900    -2.015500    -1.072400
C       5.196000    -3.843100     1.850400
H       4.231800    -4.017300     1.822300
H       5.682800    -4.660200     1.615000
H       5.451000    -3.560100     2.753800
C       8.054700    -2.524600    -1.973700
H       7.889700    -2.231500    -2.893600
H       8.914000    -2.167300    -1.666300
H       8.077900    -3.504200    -1.942200
C       7.198800     0.144700    -2.077500
H       7.257200     1.039300    -1.658100
H       8.122500    -0.176000    -2.233300
C       6.486000     0.274600    -3.426300
H       5.524800     0.460400    -3.276700
H       6.560000    -0.577200    -3.924100
C       7.104800     1.402800    -4.247300
H       8.054700     1.187300    -4.422400
H       7.078400     2.238000    -3.715600
C       6.400400     1.643600    -5.576100
H       6.862400     2.354800    -6.066600
H       6.414200     0.820600    -6.107300
H       5.472400     1.910800    -5.409800
