59
Refcode: HEXBAP_comp_0 | Dataset: tmCAT | Charge: unknown | Potential Spins: [1, 3, 5]
Ru      7.887800    10.308600     9.833100
P       8.752900    10.010900     7.876200
O      10.359800     9.785200     7.743600
O       8.390100     8.729600     6.913400
O       8.514300    11.104400     6.692700
N       6.250300    11.190600     9.074800
N       6.902700     8.371800     9.925100
N       7.019200     7.646400    11.077500
N       7.027500    10.573800    11.758900
N       7.093700     9.571100    12.673200
N       9.480700     9.414900    10.815700
N       9.225600     8.559300    11.856600
C      10.628800     9.117000     6.483300
H      10.986200     8.227200     6.633100
H      11.262000     9.624000     5.952100
C       8.804600    10.460800     5.424300
H       9.502800    10.939000     4.949700
H       8.012300    10.429800     4.866200
C       9.267700     9.047000     5.788700
C       9.195400     8.028600     4.687800
H       9.434500     7.165300     5.034600
H       9.803900     8.271100     3.986900
H       8.301300     7.997000     4.339500
C       8.762500    12.201100    10.005600
C       8.509600    13.259600     9.123200
H       7.968500    13.108500     8.381600
C       9.046200    14.536900     9.321700
H       8.856600    15.216600     8.717200
C       9.855200    14.793400    10.411900
H      10.216700    15.641000    10.539300
C      10.122900    13.773000    11.313800
H      10.668600    13.935200    12.048600
C       9.572800    12.504800    11.118900
H       9.747500    11.839100    11.744200
C       5.316300    11.755100     8.722000
C       4.157700    12.506900     8.295300
H       3.681000    12.824800     9.066900
H       3.582500    11.940700     7.775600
H       4.439500    13.253400     7.762900
C       6.378900     6.467700    10.937400
H       6.315300     5.802800    11.584200
C       5.842600     6.418800     9.685600
H       5.348800     5.724600     9.310400
C       6.190200     7.632800     9.083600
H       5.956000     7.885600     8.220200
C       6.435300     9.941000    13.792100
H       6.340600     9.426900    14.561600
C       5.930400    11.200300    13.604600
H       5.435400    11.706700    14.207700
C       6.321000    11.559700    12.315300
H       6.118000    12.368100    11.902700
C      10.384300     8.144400    12.392300
H      10.471000     7.555200    13.106200
C      11.425300     8.737200    11.710300
H      12.336400     8.641800    11.870200
C      10.813700     9.506800    10.735700
H      11.269200    10.020700    10.107500
B       7.783100     8.239200    12.284600
H       7.709200     7.548100    13.083500
