95
Refcode: HEXFEW_comp_0 | Dataset: tmCAT | Charge: 1 | Potential Spins: [1, 3, 5]
Ru      3.940400     0.587000     4.436300
P       3.384300    -1.183400     5.808100
P       5.720000    -0.494200     3.564300
P       2.478900     0.078100     2.673800
N       2.102300    -1.828700     8.215400
N       4.102600    -3.184900     7.652700
N       1.988000    -3.531900     6.419100
N       7.096100    -2.703100     2.596700
N       8.403200    -1.131200     3.994100
N       7.747100    -0.495800     1.680100
C       3.180600     2.837900     4.628100
C       4.459300     2.732400     4.015200
H       4.709500     3.106400     3.122400
C       5.376900     2.195600     4.984700
H       6.370300     2.149900     4.884300
C       4.648000     1.818100     6.133800
H       5.040300     1.468800     6.984400
C       3.275500     2.275300     5.956800
C       2.176800     2.424200     6.833800
H       2.225600     2.101800     7.724100
C       1.043700     3.039600     6.379500
H       0.299600     3.133300     6.963300
C       0.955600     3.543600     5.053400
H       0.155300     3.973800     4.778700
C       1.959300     3.431100     4.187000
H       1.866100     3.739400     3.291400
C       2.466600    -0.695100     7.346300
H       3.028100    -0.065600     7.864100
H       1.641200    -0.216900     7.084800
C       4.676800    -2.208500     6.704400
H       5.220600    -2.693800     6.033400
H       5.281300    -1.598900     7.198400
C       2.314100    -2.628100     5.328100
H       1.470200    -2.282300     4.942500
H       2.777400    -3.141500     4.620200
C       3.325600    -2.493300     8.693500
H       3.905800    -1.814600     9.121500
H       3.073800    -3.150900     9.390900
C       3.222700    -4.132100     6.965900
H       2.971300    -4.848300     7.602600
H       3.727000    -4.552900     6.226300
C       1.292400    -2.814500     7.502200
H       0.503200    -2.356200     7.116500
H       0.959500    -3.480300     8.154600
C       7.228800    -0.534500     4.643900
H       7.451400     0.390300     4.916000
H       7.021000    -1.049100     5.462800
C       5.773500    -2.271800     3.059000
H       5.503100    -2.833300     3.830300
H       5.116400    -2.419500     2.332500
C       6.504800     0.202800     2.055200
H       5.862700     0.146500     1.305000
H       6.706700     1.159300     2.211000
C       8.117200    -2.519100     3.640100
H       7.821300    -2.996200     4.456400
H       8.957100    -2.943400     3.333700
C       7.506500    -1.907200     1.405300
H       8.331100    -2.302200     1.027600
H       6.798100    -1.978700     0.715900
C       8.757000    -0.415000     2.765800
H       9.614300    -0.777200     2.425000
H       8.904600     0.539200     2.987700
C       0.725900    -0.250900     3.162000
C       0.302200     0.160600     4.430000
H       0.902200     0.614200     5.011100
C      -0.999600    -0.096100     4.839400
H      -1.288200     0.161800     5.708500
C      -1.874000    -0.732600     3.970300
H      -2.769900    -0.890900     4.247700
C      -1.484600    -1.132400     2.736700
H      -2.092100    -1.581300     2.160800
C      -0.180500    -0.878000     2.319300
H       0.092900    -1.137100     1.447600
C       2.820900    -1.321100     1.521600
C       3.574200    -1.154600     0.380400
H       3.834000    -0.277800     0.124200
C       3.962700    -2.226000    -0.406800
H       4.503300    -2.077200    -1.172900
C       3.567000    -3.513100    -0.081900
H       3.834800    -4.251600    -0.615500
C       2.765600    -3.700700     1.048700
H       2.470300    -4.572800     1.281200
C       2.401800    -2.624600     1.828000
H       1.854700    -2.768800     2.588800
C       2.267900     1.514500     1.511000
C       1.036300     2.001000     1.143800
H       0.243900     1.556700     1.423800
C       0.958800     3.155600     0.359300
H       0.108600     3.485000     0.092500
C       2.087100     3.814400    -0.026400
H       2.012500     4.608000    -0.544200
C       3.338800     3.344300     0.322300
H       4.122800     3.807400     0.055500
C       3.424600     2.173300     1.080400
H       4.278900     1.821600     1.305000
