63
Refcode: HEXGAT_comp_0 | Dataset: tmCAT | Charge: 0 | Potential Spins: [1, 3, 5]
Ru     -4.990200    -9.274800    -0.595600
Cl     -4.429900    -9.441700     1.786000
P      -3.142100    -8.011000    -0.934900
P      -3.869500   -11.214000    -0.874800
N      -2.194400    -5.459600    -1.539500
N      -0.858800    -7.350900    -2.390600
N      -0.830500    -6.799600     0.026300
N      -3.741400   -13.925900    -0.225800
N      -1.605800   -12.803200    -0.543600
N      -3.026800   -13.319800    -2.485500
C      -3.430600    -6.231400    -1.360100
H      -3.959800    -6.183900    -2.194700
H      -3.965300    -5.814100    -0.639900
C      -1.952800    -8.343900    -2.311700
H      -1.560500    -9.245100    -2.187000
H      -2.446800    -8.346200    -3.169800
C      -1.907000    -7.735500     0.419000
H      -2.373700    -7.375400     1.214700
H      -1.503900    -8.603800     0.671100
C      -1.382200    -6.005300    -2.644800
H      -1.935100    -6.027900    -3.465500
H      -0.621300    -5.393600    -2.813100
C      -0.100900    -7.318100    -1.125400
H       0.201000    -8.237600    -0.916900
H       0.707200    -6.763900    -1.259700
C      -1.378900    -5.476500    -0.331700
H      -1.927800    -5.148300     0.424500
H      -0.626800    -4.845100    -0.450200
C      -4.526800   -12.684500     0.014500
H      -4.535400   -12.493900     0.986200
H      -5.461800   -12.837300    -0.269400
C      -2.129500   -11.430100    -0.322700
H      -1.556900   -10.787200    -0.809600
H      -2.070300   -11.216500     0.642000
C      -3.724100   -12.010300    -2.532600
H      -4.632200   -12.141700    -2.907300
H      -3.230700   -11.404000    -3.139300
C      -2.370400   -13.761700     0.229900
H      -2.382800   -13.471700     1.176600
H      -1.915000   -14.638700     0.191100
C      -1.675600   -13.163300    -1.967500
H      -1.215200   -12.464100    -2.493800
H      -1.184100   -14.011400    -2.103900
C      -3.734100   -14.267200    -1.631600
H      -4.670600   -14.335600    -1.944700
H      -3.318400   -15.159100    -1.737600
C      -7.150600    -8.752200    -0.164800
C      -6.548000    -7.699300    -0.909300
H      -6.487000    -6.737600    -0.643400
C      -6.106700    -8.279600    -2.156600
H      -5.710300    -7.775000    -2.923200
C      -6.449500    -9.664100    -2.164200
H      -6.338900   -10.296500    -2.930800
C      -7.106800    -9.945200    -0.925900
C      -7.904800   -11.026900    -0.238200
H      -7.449900   -11.903400    -0.295700
H      -8.813100   -11.104300    -0.622600
C      -7.951000   -10.508500     1.221600
H      -8.794800   -10.783700     1.660700
H      -7.190500   -10.869500     1.742400
C      -7.864700    -8.973500     1.133000
H      -8.765600    -8.565200     1.119800
H      -7.351300    -8.600300     1.892700
