65
Refcode: HEZBOF_comp_0 | Dataset: tmCAT | Charge: 1 | Potential Spins: [1, 3, 5]
Ru      1.635100     6.892800     2.364100
Cl      1.938900     6.649300    -0.006600
Cl      9.504700    12.138200     3.893500
N       7.458800     8.119800     6.015000
H       6.958200     7.417600     6.191100
N       7.489000    10.833200     2.875700
N       3.719200     6.656200     2.438500
N       1.874400     4.807700     2.391200
C       4.675800     7.729300     2.572100
C       5.546800     7.720100     3.645700
H       5.525100     7.006700     4.273500
C       6.466200     8.778500     3.802300
C       7.364900     8.906400     4.902600
C       8.472700     8.614300     6.820100
C       8.899500     8.120100     8.071000
H       8.464200     7.383500     8.485100
C       9.975000     8.746700     8.670900
H      10.286400     8.443200     9.514900
C      10.612900     9.836600     8.038200
H      11.367400    10.231500     8.459600
C      10.173200    10.357200     6.806800
H      10.606100    11.099400     6.402400
C       9.067000     9.737100     6.195900
C       8.320400     9.935000     4.970600
C       8.320400    10.847700     3.891000
C       6.554800     9.807100     2.815000
C       5.635900     9.779100     1.734200
H       5.666200    10.463500     1.076000
C       4.706500     8.778700     1.627300
H       4.078600     8.790200     0.914500
C       4.156000     5.437000     2.381500
H       5.087000     5.248600     2.379000
C       3.166800     4.366300     2.319500
C       3.469100     3.015400     2.199300
H       4.373600     2.727300     2.155600
C       2.430600     2.091000     2.142200
H       2.613500     1.163000     2.048700
C       1.130900     2.545200     2.224800
H       0.407400     1.929200     2.194400
C       0.883500     3.909000     2.352300
H      -0.015700     4.209800     2.414200
C       0.034300     8.457300     1.954000
C      -0.543500     7.317400     2.561200
H      -1.282100     6.888100     2.145900
C      -0.033200     6.808800     3.784100
H      -0.443400     6.039800     4.163000
C       1.067400     7.398800     4.467800
C       1.672800     8.504700     3.801100
H       2.444700     8.899500     4.190900
C       1.177700     9.055500     2.568500
H       1.603700     9.803600     2.168900
C      -0.490700     8.976300     0.659400
H      -0.504200     8.253100    -0.001200
H       0.086900     9.701100     0.338800
H      -1.401000     9.316900     0.789400
C       1.573900     6.902100     5.814600
H       1.322600     7.595900     6.488600
C       0.889300     5.612100     6.242100
H       1.234900     5.333700     7.116400
H       1.070000     4.912200     5.581400
H      -0.077300     5.760600     6.305200
C       3.081800     6.761700     5.879000
H       3.343000     6.445300     6.769100
H       3.498300     7.631200     5.706500
H       3.379500     6.117200     5.203800
