101
Refcode: HEZWAM_comp_0 | Dataset: tmCAT | Charge: unknown | Potential Spins: [1, 3, 5]
Ru      6.260600     2.842400    14.319300
Cl      6.293800     2.138400    11.962300
P       6.099800     0.660200    15.140600
P       3.940200     3.121500    14.124900
C       7.023000     3.992800    16.054400
C       6.630300     4.919600    15.053500
C       7.459400     4.695600    13.896300
C       8.356200     3.610000    14.211300
C       8.106200     3.213900    15.531800
C       6.580900     4.056800    17.491700
H       7.095300     4.746400    17.960600
H       6.733000     3.188500    17.921000
H       5.627800     4.277500    17.531300
C       5.702300     6.073700    15.247200
H       4.902400     5.773600    15.730100
H       5.439300     6.432200    14.374600
H       6.152500     6.773200    15.765100
C       7.570400     5.548500    12.655000
H       8.431800     6.014100    12.655000
H       6.843000     6.206100    12.643400
H       7.507600     4.978100    11.859400
C       9.472300     3.184100    13.294300
H      10.098500     3.927700    13.173000
H       9.100300     2.926000    12.424100
H       9.943900     2.419500    13.686300
C       9.000600     2.292700    16.348400
H       9.279100     1.532500    15.795500
H       8.505700     1.963900    17.130000
H       9.791600     2.785800    16.649400
C       5.952100     0.620100    16.987700
C       6.852500     0.143400    17.942000
H       7.641800    -0.303400    17.659700
C       6.612400     0.310000    19.292900
H       7.248200    -0.007700    19.922800
C       5.451500     0.940000    19.747800
H       5.308700     1.061400    20.678800
C       4.502200     1.391300    18.826200
C       3.169600     2.052100    19.173900
C       2.888400     3.113500    18.082000
C       2.273700     4.348100    18.294300
H       2.004100     4.608500    19.166900
C       2.060800     5.191000    17.207000
H       1.616500     6.019600    17.351700
C       2.466700     4.870000    15.933100
H       2.311200     5.475700    15.219200
C       3.111900     3.645300    15.690500
C       3.267300     2.824400    16.791700
O       3.882000     1.604200    16.523400
C       4.798900     1.191600    17.501000
C       2.066900     0.986400    19.080600
H       2.064200     0.596900    18.180000
H       1.196500     1.400100    19.257900
H       2.236400     0.282400    19.740800
C       3.161700     2.655600    20.576100
H       3.286700     1.944000    21.238700
H       2.304800     3.103600    20.734800
H       3.890200     3.306600    20.655400
C       4.830100    -0.605700    14.677900
C       4.717400    -0.917900    13.324700
H       5.198200    -0.411500    12.680700
C       3.906200    -1.966100    12.914000
H       3.816700    -2.162500    11.987800
C       3.221800    -2.731800    13.858900
H       2.679100    -3.461100    13.583600
C       3.341600    -2.420600    15.198200
H       2.873000    -2.940300    15.839800
C       4.127500    -1.368100    15.622800
H       4.192800    -1.161800    16.549100
C       7.531200    -0.423700    14.761900
C       8.412700    -0.047400    13.770300
H       8.311600     0.802100    13.359700
C       9.451400    -0.885900    13.359700
H      10.067000    -0.602400    12.694700
C       9.566100    -2.150300    13.942900
H      10.262000    -2.736200    13.667600
C       8.675500    -2.553000    14.920500
H       8.755700    -3.415800    15.312500
C       7.665200    -1.702400    15.328800
H       7.057000    -1.983700    16.003100
C       3.368400     4.403300    12.930400
C       2.006800     4.655900    12.708700
H       1.352600     4.215700    13.240700
C       1.604800     5.539700    11.724100
H       0.679100     5.697400    11.584100
C       2.535200     6.192800    10.947200
H       2.245500     6.800700    10.275200
C       3.887200     5.965500    11.133800
H       4.529400     6.423400    10.601900
C       4.305000     5.048700    12.123100
H       5.230300     4.871100    12.242100
C       2.818700     1.780700    13.495000
C       2.883300     1.509300    12.144100
H       3.529800     1.952800    11.607500
C       2.005000     0.584700    11.549100
H       2.039200     0.417000    10.613500
C       1.101500    -0.068400    12.344700
H       0.508800    -0.699500    11.952800
C       1.028300     0.166600    13.702600
H       0.402000    -0.307800    14.239300
C       1.887200     1.112100    14.288200
H       1.833100     1.295300    15.219200
