66
Refcode: HIBVIA_comp_0 | Dataset: tmCAT | Charge: 0 | Potential Spins: [1, 3, 5]
C      11.943500     4.600300    12.299600
C      13.273100     4.916500    12.595600
C      13.647700     5.466700    13.820300
C      12.692800     5.788300    14.775100
C      11.360100     5.571400    14.492100
H      10.684900     5.822400    15.112900
C      11.023300     4.976400    13.275500
C       9.596000     4.791500    12.942000
C       8.172900     3.903800    11.279800
C       7.754100     4.385600    10.043600
H       8.363200     4.880100     9.508300
C       6.480100     4.162300     9.581700
H       6.201100     4.514600     8.743700
C       5.602800     3.409100    10.364000
H       4.715700     3.244800    10.064900
C       6.021800     2.913400    11.551400
H       5.427800     2.388800    12.075600
C       7.664000     2.549100    13.290100
H       8.597500     2.251500    13.248200
H       7.084900     1.780200    13.474000
H       7.565100     3.211100    14.006200
C      14.660000     5.929300    10.987000
H      13.894700     6.276200    10.482300
H      15.401300     5.747700    10.372900
H      14.940500     6.592400    11.651700
C      15.730700     4.699700    14.500200
H      15.316200     4.296500    15.291200
H      16.633200     5.008600    14.726000
H      15.783300     4.034000    13.783200
C      12.223100     6.732700    16.907400
H      11.634300     7.417700    16.526800
H      12.681700     7.096500    17.693300
H      11.689200     5.954300    17.172400
C      12.459700     2.020200    10.578700
C      12.690900     2.778800     9.383300
C      11.463300     2.758500     8.602500
C      10.494700     2.021300     9.306800
C      11.085500     1.599300    10.560800
C      13.464300     1.637800    11.619700
H      13.743500     0.708700    11.480600
H      13.063200     1.728100    12.509700
H      14.245400     2.226500    11.553200
C      14.009500     3.293700     8.861200
H      14.664400     3.312800     9.589400
H      13.888900     4.198700     8.505400
H      14.330800     2.702700     8.148000
C      11.306600     3.402700     7.268800
H      11.697400     2.826200     6.579100
H      11.765300     4.269300     7.267500
H      10.354400     3.537700     7.080300
C       9.129300     1.662400     8.810700
H       8.769400     2.404300     8.281900
H       8.540200     1.489200     9.574600
H       9.186000     0.859400     8.252700
C      10.450800     0.672000    11.559500
H      10.709700    -0.251300    11.359500
H       9.475100     0.755900    11.509200
H      10.751900     0.907800    12.462100
N       7.283800     3.154800    12.004200
N       9.438000     4.135600    11.753200
O      14.278600     4.703900    11.659200
O      14.974200     5.765900    14.080600
O      13.179600     6.341700    15.940500
O       8.660700     5.238100    13.618000
Cl     10.994600     5.994400     9.749900
Ir     11.172000     3.731400    10.609800
