41
Refcode: HICMAH_comp_0 | Dataset: tmCAT | Charge: 0 | Potential Spins: [1, 3, 5]
Pt     -0.757500     3.034500     2.963200
Cl     -0.757500     5.348700     2.963200
Cl      1.143900     3.076000     1.651100
Cl     -0.757500     0.714800     2.963200
O       1.462600     2.885100     6.608000
N       0.490800     3.128500     4.557400
N       2.397400     3.902700     6.155200
C       0.526500     2.588300     5.703600
C      -0.409100     1.569900     6.235800
C       2.981400     4.387900     7.172100
C       2.762900     4.034300     8.582600
C       4.002600     5.438200     6.874600
H       1.028300     3.638600     4.456700
H      -0.845300     1.926800     6.850900
H      -0.941000     1.273100     5.487900
H       0.198600     0.860200     6.590200
H       3.367900     3.518200     8.996300
H       1.900500     3.741900     8.759200
H       2.736500     4.739700     9.103000
H       4.867600     5.290200     7.230200
H       3.745200     6.417100     7.242100
H       4.128400     5.522500     6.021200
Cl     -2.658900     3.076000     4.275300
N      -2.005900     3.128500     1.369000
C      -2.041500     2.588300     0.222800
O      -2.977600     2.885100    -0.681500
N      -3.912400     3.902700    -0.228800
C      -4.496400     4.387900    -1.245700
C      -4.278000     4.034300    -2.656200
H      -4.882900     3.518200    -3.069900
H      -3.415500     3.741900    -2.832800
H      -4.251500     4.739700    -3.176600
C      -5.517700     5.438200    -0.948200
H      -6.382600     5.290200    -1.303800
H      -5.260300     6.417100    -1.315700
H      -5.643400     5.522500    -0.094800
C      -1.106000     1.569900    -0.309400
H      -0.669800     1.926800    -0.924500
H      -0.574100     1.273100     0.438600
H      -1.713600     0.860200    -0.663800
H      -2.543300     3.638600     1.469800
