137
Refcode: HIDLAI_comp_0 | Dataset: tmCAT;tmPHOTO | Charge: 0 | Potential Spins: [1, 3, 5]
Pt      2.700700     6.390400     0.000000
P       3.676400     6.498000     2.099300
O       2.625600     1.539700     2.097200
N       6.458000     1.172700     5.218400
N       6.739600     1.358700     1.624600
N       5.893900     1.866800    -1.844000
C       7.262600     1.086400     6.281800
C       8.626400     0.984000     6.221300
C       9.213000     0.948300     4.986300
C       8.414700     1.041000     3.865300
C       7.050600     1.151500     4.013000
C       6.138000     1.273400     2.824400
C       4.765400     1.330800     2.987600
C       3.969500     1.504700     1.867900
C       4.564200     1.623300     0.620300
C       5.951800     1.525100     0.548600
C       6.654900     1.639000    -0.768000
C       8.036300     1.532400    -0.841100
C       8.648700     1.656400    -2.086000
C       7.892100     1.892900    -3.188700
C       6.526600     1.988400    -3.028400
C       1.768700     1.949500     1.002900
C       1.969500     3.336900     0.624500
C       2.209000     4.493000     0.361500
C       3.478200     8.045000     3.067800
C       2.570300     9.022900     2.714700
C       2.412700    10.159300     3.501000
C       3.154300    10.319600     4.669900
C       4.031400     9.331400     5.053900
C       4.212300     8.195000     4.260500
C       3.207600     5.269300     3.375800
C       4.114000     4.649800     4.205700
C       3.684000     3.809500     5.228300
C       2.341000     3.602100     5.429400
C       1.415100     4.211400     4.609400
C       1.856400     5.041800     3.582600
C       5.479800     6.297500     1.908700
C       6.000100     5.015100     1.672400
C       7.359500     4.862300     1.457200
C       8.196800     5.936500     1.455800
C       7.676800     7.206300     1.671000
C       6.329200     7.385300     1.894700
H       6.858700     1.097500     7.141200
H       9.149200     0.941200     7.013200
H      10.155300     0.862500     4.901900
H       8.802900     1.026200     2.998800
H       4.377200     1.253800     3.849800
H       4.042900     1.767900    -0.160400
H       8.553000     1.379600    -0.059100
H       9.591400     1.576300    -2.161900
H       8.293500     1.989500    -4.045300
H       5.998000     2.149000    -3.800600
H       1.952700     1.399700     0.250400
H       0.863100     1.833800     1.265900
H       2.049300     8.920900     1.927000
H       1.793700    10.831300     3.240800
H       3.055000    11.103700     5.197300
H       4.518900     9.422300     5.864000
H       4.830900     7.525400     4.525000
H       5.042900     4.799800     4.079100
H       4.320200     3.378000     5.786700
H       2.048800     3.037000     6.135500
H       0.485600     4.066500     4.743000
H       1.219900     5.461200     3.015700
H       5.424000     4.259500     1.659800
H       7.714800     3.993400     1.310900
H       9.127900     5.818300     1.308100
H       8.256500     7.958700     1.665400
H       5.983300     8.259700     2.036700
P       1.724900     6.282800    -2.099300
O       2.775700    11.241100    -2.097200
N      -1.056600    11.608200    -5.218400
N      -1.338300    11.422200    -1.624600
N      -0.492600    10.914000     1.844000
C      -1.861300    11.694400    -6.281800
C      -3.225100    11.796900    -6.221300
C      -3.811700    11.832600    -4.986300
C      -3.013400    11.739900    -3.865300
C      -1.649300    11.629400    -4.013000
C      -0.736700    11.507500    -2.824400
C       0.635900    11.450100    -2.987600
C       1.431800    11.276200    -1.867900
C       0.837100    11.157500    -0.620300
C      -0.550500    11.255800    -0.548600
C      -1.253500    11.141800     0.768000
C      -2.635000    11.248500     0.841100
C      -3.247400    11.124500     2.086000
C      -2.490800    10.887900     3.188700
C      -1.125300    10.792400     3.028400
C       3.632600    10.831400    -1.002900
C       3.431800     9.443900    -0.624500
C       3.192300     8.287800    -0.361500
C       1.923200     4.735800    -3.067800
C       2.831000     3.758000    -2.714700
C       2.988600     2.621500    -3.501000
C       2.247000     2.461200    -4.669900
C       1.369900     3.449500    -5.053900
C       1.189000     4.585800    -4.260500
C       2.193700     7.511600    -3.375800
C       1.287300     8.131000    -4.205700
C       1.717300     8.971300    -5.228300
C       3.060300     9.178800    -5.429400
C       3.986200     8.569400    -4.609400
C       3.544900     7.739000    -3.582600
C      -0.078500     6.483400    -1.908700
C      -0.598700     7.765700    -1.672400
C      -1.958200     7.918500    -1.457200
C      -2.795500     6.844400    -1.455800
C      -2.275500     5.574500    -1.671000
C      -0.927900     5.395500    -1.894700
H      -1.457400    11.683400    -7.141200
H      -3.747900    11.839600    -7.013200
H      -4.754000    11.918300    -4.901900
H      -3.401600    11.754700    -2.998800
H       1.024100    11.527000    -3.849800
H       1.358400    11.012900     0.160400
H      -3.151700    11.401300     0.059100
H      -4.190100    11.204500     2.161900
H      -2.892200    10.791400     4.045300
H      -0.596600    10.631800     3.800600
H       3.448600    11.381100    -0.250400
H       4.538200    10.947100    -1.265900
H       3.352000     3.860000    -1.927000
H       3.607700     1.949600    -3.240800
H       2.346300     1.677100    -5.197300
H       0.882400     3.358500    -5.864000
H       0.570400     5.255500    -4.525000
H       0.358400     7.981100    -4.079100
H       1.081200     9.402900    -5.786700
H       3.352500     9.743900    -6.135500
H       4.915700     8.714400    -4.743000
H       4.181400     7.319700    -3.015700
H      -0.022700     8.521400    -1.659800
H      -2.313500     8.787500    -1.310900
H      -3.726500     6.962600    -1.308100
H      -2.855200     4.822200    -1.665400
H      -0.581900     4.521200    -2.036700
