101
Refcode: HIGFIP_comp_0 | Dataset: tmCAT | Charge: unknown | Potential Spins: [1, 3, 5]
Cl      7.578700     3.430100    17.254100
Cl      4.853300     1.093000    14.302400
Ru      6.008800     2.209000    16.006100
C       4.840600     3.790100    15.879700
N       3.810200     4.247900    16.618900
C       3.155900     3.548400    17.682200
C       2.129300     2.652600    17.370400
C       1.690600     2.445700    15.943100
H       0.927300     1.830900    15.922300
H       2.431000     2.065700    15.424700
H       1.428600     3.305800    15.553100
C       1.562100     1.915600    18.405700
H       0.873000     1.292400    18.205500
C       1.978100     2.067800    19.727500
C       1.388200     1.220400    20.825800
H       1.750200     0.311100    20.769600
H       0.413500     1.190700    20.725400
H       1.616500     1.608000    21.696500
C       2.959000     3.016900    20.003200
H       3.227500     3.153200    20.906000
C       3.559300     3.772800    19.001600
C       4.650300     4.770800    19.309400
H       5.462200     4.529400    18.815400
H       4.837000     4.764200    20.272000
H       4.359400     5.666200    19.040100
C       3.362500     5.601900    16.231300
H       3.603400     6.270500    16.921400
H       2.385100     5.627300    16.082800
C       4.127600     5.847300    14.934800
H       3.524000     5.823300    14.148700
H       4.603100     6.716300    14.955200
N       5.074000     4.717100    14.919500
C       6.061200     4.556600    13.882200
C       5.708100     3.922700    12.682000
C       4.273700     3.607500    12.340200
H       3.869300     4.376800    11.889500
H       3.777400     3.412000    13.161600
H       4.242500     2.827100    11.749100
C       6.717500     3.666900    11.761500
H       6.505100     3.193600    10.966600
C       8.024000     4.080800    11.968600
C       9.117100     3.748500    10.984300
H       8.821900     3.017100    10.404900
H       9.923300     3.476300    11.472200
H       9.316200     4.538300    10.437000
C       8.300100     4.831700    13.105800
H       9.177000     5.178600    13.225800
C       7.338500     5.092000    14.071200
C       7.660700     6.015300    15.216800
H       8.567100     5.830700    15.541100
H       7.020200     5.871100    15.942300
H       7.606400     6.945100    14.911100
C       5.284000     1.315300    17.417000
H       4.477800     1.560200    17.848400
C       5.938900     0.147300    17.950700
C       5.446300    -0.484200    19.106300
H       4.668500    -0.142100    19.529700
C       6.076400    -1.595900    19.636800
H       5.736500    -2.022400    20.416500
C       7.209400    -2.072000    19.011600
H       7.646800    -2.834600    19.373200
C       7.733300    -1.475300    17.872400
H       8.521200    -1.820400    17.467200
C       7.092100    -0.369300    17.331500
O       7.482500     0.332800    16.204400
C       8.538900    -0.215000    15.316400
H       8.805200    -1.102400    15.689500
C       9.778100     0.681400    15.360500
H      10.495500     0.182500    14.875000
C      10.298800     0.881900    16.789800
H       9.618400     1.365700    17.322700
H      10.442600    -0.001500    17.214400
C      11.606600     1.669200    16.808300
H      11.875400     1.838400    17.744000
H      12.319500     1.133800    16.375700
C      11.460400     2.999100    16.076800
H      10.820000     3.575000    16.564300
H      12.336200     3.461400    16.054700
C      10.967000     2.784900    14.652300
H      11.645600     2.275200    14.140600
H      10.845000     3.661800    14.208900
C       9.638700     2.019200    14.642600
H       8.941700     2.562400    15.087600
H       9.353800     1.863800    13.707300
C       7.925300    -0.473300    13.949600
H       7.463000     0.360500    13.647100
C       8.975900    -0.855900    12.895900
H       9.636500    -0.122700    12.804400
H       9.458200    -1.669300    13.189600
C       8.316600    -1.116500    11.540400
H       7.903000    -0.279700    11.211400
H       9.008500    -1.389600    10.886400
C       7.252800    -2.203400    11.628700
H       7.681600    -3.069400    11.841400
H       6.800200    -2.293100    10.754000
C       6.219200    -1.867700    12.703300
H       5.703100    -1.069500    12.427200
H       5.587500    -2.623700    12.800400
C       6.889900    -1.595600    14.041900
H       7.333500    -2.421700    14.357300
H       6.200100    -1.347700    14.706400
