111
Refcode: HIPSUV_comp_0 | Dataset: tmCAT | Charge: 0 | Potential Spins: [1, 3, 5]
Rh     15.884600     4.260200     3.259200
Cl     16.176700     4.431400     0.973600
P      16.909000     2.306700     3.608400
P      14.684000     6.110400     3.594700
N      15.745600     4.195200     5.306300
C      17.766200     0.849500     2.917300
C      17.012300    -0.308000     2.546600
C      17.684700    -1.533100     2.511400
C      19.027800    -1.661700     2.785700
C      19.749400    -0.494100     2.984000
C      19.170400     0.775000     3.019200
C      15.524800    -0.311400     2.170300
C      14.682600    -0.568600     3.382500
C      15.064700     0.930700     1.469700
C      15.217500    -1.434900     1.188000
C      19.732500    -3.018800     2.826400
C      18.752700    -4.172800     2.813500
C      20.606900    -3.150800     1.584700
C      20.603500    -3.116900     4.062700
C      20.138300     1.983200     3.150800
C      21.438900     1.675200     2.418700
C      20.501700     2.206600     4.616800
C      19.596600     3.252300     2.537300
C      16.935900     2.118600     5.259900
C      16.319500     3.164300     6.029100
C      16.283800     3.144000     7.426600
C      15.689500     4.186400     8.127200
C      15.103700     5.198300     7.396900
C      15.136000     5.205100     6.016100
C      14.529800     6.257600     5.245100
C      13.874400     7.519900     2.759700
C      14.568800     8.741600     2.594800
C      13.848900     9.855100     2.151800
C      12.504100     9.807700     1.829300
C      11.872400     8.582600     1.922000
C      12.505800     7.425200     2.372400
C      16.066500     9.002200     2.908000
C      16.613200    10.156300     2.066500
C      16.212500     9.364400     4.387000
C      16.981700     7.814300     2.596600
C      11.721300    11.026000     1.349300
C      12.555000    12.278200     1.239900
C      10.558200    11.303600     2.309300
C      11.157600    10.731600    -0.050000
C      11.641500     6.122200     2.394600
C      11.176200     5.844700     3.819900
C      12.383500     4.917400     1.827500
C      10.386700     6.277900     1.532800
H      14.062800     7.032600     5.769600
H      14.633400     6.010500     7.964100
H      15.737100     4.172800     8.983400
H      16.693000     2.385900     7.952900
H      17.278800     1.319900     5.662100
H      10.901200     8.508100     1.612500
H      14.320900    10.765500     2.166600
H      17.227900    -2.385900     2.290800
H      20.737700    -0.568600     3.195300
H      14.884700     0.111700     4.068200
H      13.786100    -0.588900     3.224900
H      14.966200    -1.414600     3.803200
H      15.219200     1.685400     2.066500
H      15.555400     1.072800     0.682100
H      14.140900     0.883300     1.291800
H      14.320900    -1.462000     0.943400
H      15.737100    -1.262300     0.342900
H      15.519700    -2.267500     1.506800
H      18.197500    -4.118700     3.603000
H      18.199200    -4.115300     2.051700
H      19.216300    -4.995200     2.826400
H      21.060300    -3.976600     1.562400
H      20.041500    -3.100000     0.785800
H      21.230100    -2.436700     1.532800
H      20.078900    -3.076300     4.863300
H      21.096000    -3.942700     4.073800
H      21.240300    -2.399500     4.088600
H      21.873600     0.879900     2.767100
H      21.287800     1.512800     1.479000
H      22.077400     2.389300     2.485400
H      20.899000     1.434900     5.004200
H      21.090900     2.947700     4.720600
H      19.695100     2.406200     5.124700
H      20.196000     3.969800     2.609600
H      19.406400     3.103400     1.593900
H      18.761200     3.492600     2.950600
H      17.489400    10.349200     2.240800
H      16.540200     9.899100     1.099100
H      16.052900    10.927900     2.151800
H      15.979900     8.623200     4.950400
H      17.136200     9.591100     4.585300
H      15.674200    10.105500     4.620500
H      16.711700     7.049500     3.130400
H      16.942600     7.577400     1.690300
H      17.881600     8.024200     2.839400
H      12.925200    12.505000     2.112900
H      13.314000    12.136100     0.658000
H      12.062600    13.012600     0.926700
H      10.914700    11.530300     3.182300
H      10.050500    12.051500     2.005400
H      10.002900    10.552200     2.394600
H      10.621000    11.445700    -0.363300
H      11.869000    10.579300    -0.678300
H      10.617600     9.932900    -0.027800
H      10.644800     6.579100     4.155300
H      10.658300     5.056100     3.866200
H      11.926800     5.749900     4.425900
H      11.835100     4.145800     1.849700
H      12.651800     5.086600     0.926700
H      13.183300     4.734600     2.340800
H       9.862000     7.022400     1.745900
H      10.678700     6.436900     0.563400
H       9.865400     5.492700     1.488300
