44
Refcode: HISJIC_comp_0 | Dataset: tmCAT | Charge: unknown | Potential Spins: [1, 3, 5]
Ta     10.351000     0.844100     3.285100
Cl      9.017700     2.420200     2.060700
Cl     12.080000     2.503000     3.499800
C       8.421900     0.339500     4.264200
C       8.688100     1.540100     5.137700
C       9.960800     1.531800     5.739700
C      10.845400     0.380900     5.399500
C       7.822600     2.649600     5.325300
C       8.198600     3.659800     6.133100
C       9.427000     3.676300     6.736400
C      10.326600     2.657900     6.527800
C      11.768000    -1.109500     2.865600
C      10.409700    -1.570700     2.883800
C       9.758500    -0.977000     1.769500
C      10.699900    -0.149000     1.107300
C      11.916300    -0.231800     1.789100
C      12.894800    -1.598000     3.768600
C       9.757200    -2.657900     3.814800
C       8.331500    -1.242000     1.348100
C      10.480600     0.546500    -0.221200
C      13.231800     0.347800     1.362100
H       7.656700     0.408200     3.707000
H       8.408000    -0.495100     4.719100
H      11.759800     0.499300     5.633300
H      10.544400    -0.462900     5.707500
H       6.982800     2.679400     4.882900
H       7.597200     4.381800     6.287100
H       9.662300     4.399200     7.304800
H      11.194600     2.701800     6.911400
H      12.539400    -2.185100     4.428000
H      13.308400    -0.857800     4.194200
H      13.539100    -2.065000     3.246400
H       8.972100    -2.297700     4.213800
H      10.373700    -2.902100     4.493800
H       9.529400    -3.418800     3.299600
H       7.851500    -0.424800     1.324300
H       7.922000    -1.834800     1.966900
H       8.324300    -1.638600     0.483000
H       9.753200     1.155100    -0.142800
H      10.284700    -0.096000    -0.890400
H      11.265800     1.026700    -0.460600
H      13.831500    -0.354400     1.139500
H      13.595500     0.861900     2.073300
H      13.101400     0.904200     0.603400
