49
Refcode: HIWHED_comp_0 | Dataset: tmCAT | Charge: 0 | Potential Spins: [1, 3, 5]
Pd      8.480300     8.480300     6.630700
Cl      9.593000     9.701500     8.211100
C       9.050200     4.930500     5.157500
H       9.385600     5.193800     4.296800
H       9.329200     4.031600     5.347400
H       9.394800     5.521800     5.829800
N       7.657800     7.406700     5.086900
C       4.901600     7.729000     5.163100
H       5.260500     8.246400     5.887100
H       3.950000     7.653400     5.263600
H       5.101700     8.162500     4.329700
C       7.557700     4.998300     5.151900
C       5.520700     6.348400     5.174400
C       6.926700     6.244900     5.167400
C       6.757100     3.882300     5.126500
H       7.154200     3.041900     5.087500
C       4.777800     5.247600     5.154700
H       3.851000     5.324800     5.137700
C       5.354500     3.975600     5.158900
C       4.535300     2.705200     5.086900
H       3.980600     2.638700     5.868300
H       5.122800     1.947500     5.046600
H       3.982500     2.724800     4.303000
C       8.081800     7.893500     3.975000
H       7.864500     7.477800     3.171400
C       7.910500    12.030200     5.157500
H       7.575100    11.766900     4.296800
H       7.631500    12.929100     5.347400
H       7.565900    11.438900     5.829800
N       9.302900     9.554000     5.086900
C      12.059100     9.231700     5.163100
H      11.700200     8.714300     5.887100
H      13.010700     9.307300     5.263600
H      11.859000     8.798200     4.329700
C       9.403000    11.962400     5.151900
C      11.440000    10.612300     5.174400
C      10.034000    10.715800     5.167400
C      10.203600    13.078400     5.126500
H       9.806500    13.918800     5.087500
C      12.182900    11.713100     5.154700
H      13.109700    11.635900     5.137700
C      11.606200    12.985100     5.158900
C      12.425400    14.255500     5.086900
H      12.980100    14.322000     5.868300
H      11.837900    15.013200     5.046600
H      12.978200    14.235900     4.303000
C       8.878900     9.067200     3.975000
H       9.096200     9.482900     3.171400
Cl      7.367700     7.259200     8.211100
