111
Refcode: HIXDIC_comp_0 | Dataset: tmCAT | Charge: 0 | Potential Spins: [1, 3, 5]
Au      1.378800     4.475000     4.089200
Cl     -0.864000     4.809300     4.085700
O       4.454700     4.843800     3.012900
C       4.182300     6.027800     2.307400
O       3.907300     2.639900     3.992600
C       4.679400     6.137900     1.000900
O       4.298000     4.721600     5.415800
C       4.406800     7.353300     0.353700
H       4.726100     7.469400    -0.534200
P       3.551300     4.171100     4.124900
C       3.692600     8.403000     0.936600
C       3.231200     8.231300     2.241500
H       2.739800     8.927100     2.662500
C       3.483000     7.050100     2.933100
H       3.178500     6.943800     3.827600
C       5.472400     5.022200     0.309500
C       6.774800     4.736100     1.077500
H       7.414400     5.460000     0.916400
H       7.156200     3.888100     0.769500
H       6.582000     4.677600     2.036500
C       5.884500     5.412200    -1.128100
H       5.080600     5.586000    -1.662600
H       6.391600     4.677600    -1.532400
H       6.440400     6.218500    -1.101700
C       4.603300     3.761600     0.219800
H       4.328300     3.490900     1.120100
H       5.118900     3.039100    -0.195300
H       3.808900     3.949900    -0.322200
C       3.418700     9.719700     0.196600
C       4.030000     9.743700    -1.198700
H       3.699800     8.979400    -1.714300
H       5.005700     9.692900    -1.128400
H       3.777700    10.575100    -1.650900
C       1.901900     9.929900     0.093500
H       1.500900     9.184000    -0.397300
H       1.719200    10.767700    -0.378900
H       1.516100     9.973500     0.994900
C       4.034200    10.872100     1.004600
H       3.869500    11.718900     0.540800
H       4.999300    10.729700     1.091700
H       3.625300    10.900900     1.894600
C       5.149200     2.041100     3.672200
C       5.125100     0.840900     2.963800
C       6.377200     0.322000     2.592500
H       6.399400    -0.480400     2.083200
C       7.586400     0.920300     2.931100
C       7.540900     2.077200     3.699400
H       8.352700     2.487400     3.974500
C       6.330200     2.643400     4.071700
H       6.311300     3.436300     4.595500
C       3.821000     0.081300     2.680200
C       4.088400    -1.211100     1.888800
H       3.245800    -1.695500     1.759400
H       4.716200    -1.774000     2.387100
H       4.473100    -0.986900     1.016600
C       3.170800    -0.311300     4.010100
H       2.384200    -0.870400     3.836000
H       2.896700     0.497000     4.492000
H       3.814300    -0.813300     4.553800
C       2.849000     0.915100     1.827800
H       3.293700     1.191400     0.999900
H       2.572700     1.709800     2.330300
H       2.059300     0.375700     1.610800
C       8.941100     0.410700     2.436000
C       9.434800     1.357900     1.334100
H       8.786400     1.369700     0.599300
H      10.301600     1.046300     0.999900
H       9.531200     2.261500     1.699300
C       8.862000    -1.022100     1.868700
H       8.541100    -1.631300     2.565700
H       9.750900    -1.305500     1.570800
H       8.242100    -1.039200     1.110100
C       9.967500     0.407600     3.580100
H      10.066000     1.317400     3.932800
H      10.831100     0.092700     3.243400
H       9.658100    -0.187900     4.295000
C       4.033800     4.320400     6.738700
C       4.630800     5.070000     7.769600
C       4.390100     4.607400     9.067500
H       4.781100     5.086600     9.788600
C       3.609900     3.485500     9.371400
C       3.019100     2.817300     8.313600
H       2.456500     2.071300     8.486600
C       3.238900     3.223400     6.995700
H       2.841500     2.744200     6.278100
C       5.493400     6.313900     7.497700
C       6.710400     5.973800     6.609500
H       6.399800     5.697800     5.722200
H       7.219100     5.243600     7.019300
H       7.283400     6.763100     6.523500
C       4.636000     7.399200     6.810600
H       4.322200     7.067500     5.944300
H       5.176400     8.206600     6.675400
H       3.864800     7.614500     7.378200
C       6.024700     6.913900     8.802400
H       5.272500     7.150700     9.384600
H       6.548300     7.719100     8.603400
H       6.594500     6.256600     9.256100
C       3.366600     3.026000    10.813300
C       4.535800     3.385100    11.729100
H       5.355100     2.963000    11.394400
H       4.350500     3.065300    12.636400
H       4.651800     4.358900    11.745000
C       3.207200     1.502000    10.875300
H       3.992800     1.074900    10.473000
H       2.403200     1.236600    10.381200
H       3.125200     1.219900    11.810100
C       2.108100     3.693100    11.341000
H       1.979700     3.450500    12.280800
H       1.335900     3.393400    10.816800
H       2.196900     4.665700    11.262500
