56
Refcode: HOBNOE_comp_0 | Dataset: tmCAT | Charge: 0 | Potential Spins: [1, 3, 5]
Re      2.956200     2.686000     0.955800
Cl      2.144700     5.014600     0.496500
P       2.458600     3.126900     3.306500
P       4.831700     3.680200     2.176800
O       0.240000     1.559500    -0.036100
O       3.917600    -0.089400     1.580100
O       4.415800     2.584400    -1.776900
N       4.004500     3.704400     3.637700
H       4.280800     4.015400     4.238500
C       1.245400     1.976200     0.316700
C       3.567100     0.903500     1.362400
C       3.833100     2.625800    -0.798800
C       2.091800     1.852200     4.540100
C       1.416200     0.690900     4.184900
H       1.179200     0.533400     3.277900
C       1.089600    -0.240100     5.165400
H       0.619800    -1.031400     4.927800
C       1.443000    -0.023600     6.476500
H       1.218000    -0.667300     7.137900
C       2.116500     1.118000     6.839800
H       2.358600     1.257800     7.748100
C       2.444100     2.064800     5.879200
H       2.905300     2.856100     6.129500
C       1.293200     4.456300     3.721500
C       1.645100     5.515300     4.544700
H       2.501100     5.533000     4.957000
C       0.750200     6.542800     4.761300
H       0.993600     7.273100     5.320300
C      -0.502300     6.515200     4.168600
H      -1.112700     7.229700     4.315400
C      -0.863100     5.454300     3.367500
H      -1.727900     5.430700     2.973900
C       0.027700     4.424900     3.135800
H      -0.221200     3.696600     2.579200
C       6.383600     2.769500     2.433600
C       7.206500     3.135600     3.502600
H       6.942000     3.832400     4.090600
C       8.409700     2.478200     3.699400
H       8.966300     2.720300     4.430600
C       8.804400     1.470400     2.836500
H       9.636200     1.031400     2.970400
C       7.990200     1.100300     1.776900
H       8.260000     0.403500     1.190000
C       6.775900     1.753800     1.576600
H       6.215800     1.501900     0.851200
C       5.411000     5.383400     1.896800
C       6.569400     5.615700     1.156300
H       7.075800     4.885400     0.820900
C       6.977300     6.916800     0.911700
H       7.763100     7.076200     0.401700
C       6.250900     7.981700     1.402000
H       6.538100     8.871400     1.233100
C       5.104200     7.749400     2.139000
H       4.613100     8.485600     2.487200
C       4.664300     6.456200     2.375400
H       3.861000     6.302700     2.858700
