56
Refcode: HOBQEV_comp_0 | Dataset: tmCAT | Charge: 0 | Potential Spins: [1, 3, 5]
Fe      4.988400     1.235600     6.390900
Cl      3.098300     1.115200     7.754800
Cl      5.578000    -0.754400     5.434800
N       4.125400     2.394300     4.713700
N       5.852500     3.165200     6.483100
N       6.498800     1.218000     8.039800
N       7.050600    -4.296400    11.923800
C       4.440300     3.631600     4.626900
C       5.424900     4.119200     5.635100
C       5.930800     5.407600     5.683600
H       5.602600     6.068700     5.116900
C       6.937800     5.689700     6.593500
H       7.314000     6.540200     6.621500
C       7.385200     4.703600     7.462700
H       8.060800     4.879700     8.077100
C       6.799300     3.451000     7.392100
C       7.126700     2.307700     8.296700
C       3.950400     4.576200     3.575800
H       3.394000     4.101800     2.953200
H       4.700400     4.954800     3.111600
H       3.442100     5.279000     3.987300
C       8.090500     2.513800     9.420700
H       7.992800     1.804800    10.059100
H       7.910300     3.354800     9.847200
H       8.987000     2.513500     9.078600
C       3.326000     1.779100     3.680800
C       4.005600     1.211400     2.602700
C       3.274000     0.544700     1.625400
H       3.720600     0.168000     0.901300
C       1.881100     0.428200     1.704400
C       1.245500     1.039700     2.770900
H       0.317800     0.996000     2.818100
C       1.929200     1.717600     3.778400
C       5.505700     1.346000     2.488100
H       5.920400     0.981200     3.272300
H       5.738600     2.273400     2.405900
H       5.811500     0.869300     1.714200
C       1.119100    -0.297500     0.633300
H       1.466500    -1.187500     0.540300
H       1.211900     0.170900    -0.200300
H       0.190500    -0.340300     0.873400
C       1.186300     2.403000     4.894900
H       1.609000     2.199700     5.731800
H       0.277800     2.095100     4.911900
H       1.199100     3.353300     4.751200
C       6.689600     0.073800     8.870100
C       7.830300    -0.707900     8.760700
H       8.504300    -0.471500     8.165600
C       7.956800    -1.839900     9.543200
H       8.720400    -2.367700     9.479200
C       6.945000    -2.190300    10.425500
C       5.806700    -1.394200    10.540300
H       5.133500    -1.623600    11.139800
C       5.683400    -0.264200     9.756300
H       4.924600     0.269600     9.823900
C       7.026600    -3.374500    11.246200
