47
Refcode: HOBVOL_comp_0 | Dataset: tmCAT | Charge: unknown | Potential Spins: [1, 3, 5]
Fe      3.527400     6.379600     7.492000
S       4.084800     8.695500     7.524700
O       2.994900     3.501900     7.548800
O       6.111700     5.767600     6.323400
O       3.402600     5.949200     4.649300
O       0.557200     5.792900    11.278200
O       1.207800     7.877000    11.747200
N       1.545200     6.876100     7.872400
N       4.320800     6.922200     9.340800
C       3.174100     4.632600     7.576500
C       5.121600     6.021300     6.836900
C       2.942300     6.460700     5.651100
C       1.762000     7.408500     5.523600
H       2.090100     8.327500     5.360100
H       1.201100     7.139500     4.754000
C       0.937800     7.385700     6.779200
C      -0.375400     7.826900     6.800800
H      -0.777800     8.168800     6.010700
C      -1.088400     7.767500     7.968600
H      -1.975200     8.103400     8.011900
C      -0.495700     7.210500     9.079800
H      -0.978000     7.154400     9.896400
C       0.799600     6.736000     9.007600
C       1.419300     5.902900    10.115200
H       1.610400     4.995000     9.768900
H       2.279100     6.310100    10.387000
C       0.573500     6.919100    12.003400
C      -0.369200     6.779000    13.202400
C      -0.903400     5.607700    13.695400
H      -0.651500     4.774600    13.313000
C      -1.803100     5.637600    14.744100
H      -2.151500     4.826900    15.095300
C      -2.204400     6.870500    15.294900
H      -2.835800     6.896700    16.003300
C      -1.663600     8.052900    14.787400
H      -1.926800     8.893500    15.145800
C      -0.752000     7.989400    13.773600
H      -0.368100     8.796400    13.447700
C       4.541800     8.238600     9.138700
C       5.142200     9.037400    10.115200
H       5.265900     9.969500     9.978100
C       5.551500     8.428400    11.286600
H       5.960200     8.947700    11.969700
C       5.368700     7.068500    11.468200
H       5.667600     6.644500    12.264300
C       4.747700     6.336300    10.479600
H       4.617100     5.404100    10.602300
