26
Refcode: HOFDEN_comp_0 | Dataset: tmCAT | Charge: unknown | Potential Spins: [1, 3, 5]
Fe     -0.496800     2.108300     1.934900
Cl      1.512800     1.008300     1.509200
N      -0.894000     2.701300    -0.130800
C      -0.496800     6.970900     1.934900
H      -0.496800     7.901100     1.934900
N      -1.074600     2.115300    -1.328100
C      -0.735900     6.287200     0.752300
H      -0.899300     6.745600    -0.040200
C      -0.724100     4.901300     0.786400
N      -0.496800     4.234300     1.934900
C      -0.941800     4.020900    -0.360700
C      -1.162700     4.273000    -1.717500
H      -1.240200     5.100000    -2.136200
C      -1.241800     3.038000    -2.293300
H      -1.385200     2.864700    -3.195700
N      -0.099600     2.701300     4.000700
N       0.081000     2.115300     5.198000
C      -0.257700     6.287200     3.117600
H      -0.094300     6.745600     3.910100
C      -0.269500     4.901300     3.083500
C      -0.051900     4.020900     4.230500
C       0.169100     4.273000     5.587300
H       0.246600     5.100000     6.006000
C       0.248100     3.038000     6.163200
H       0.391500     2.864700     7.065600
Cl     -2.506400     1.008300     2.360700
