80
Refcode: HOGFER_comp_0 | Dataset: tmCAT | Charge: 1 | Potential Spins: [1, 3, 5]
Fe     -0.363200    14.486000     6.861500
C      -4.286700     9.851600     6.273000
H      -4.173400     9.208000     6.934700
C      -3.236600    10.720500     5.966800
C      -0.957500     9.716700     5.721600
C      -1.874700    10.506300     6.667300
C      -1.310200    11.894300     7.078500
C      -0.721300    10.151000     4.414900
H      -1.069400    10.965700     4.131100
C       0.029500     9.380000     3.534100
H       0.183500     9.685200     2.668500
C      -3.444000    11.700100     4.999000
H      -2.766400    12.304000     4.800600
C      -0.423400     8.496900     6.121200
H      -0.566100     8.193800     6.987900
C       0.324800     7.722400     5.236000
H       0.676000     6.908800     5.517700
C      -4.664000    11.778200     4.326900
H      -4.789400    12.430500     3.676600
C      -5.501900     9.939700     5.599300
H      -6.192500     9.352300     5.808700
C      -5.684500    10.897600     4.618400
H      -6.491100    10.948000     4.157800
C       0.549500     8.158000     3.938100
H       1.042300     7.636700     3.345600
O      -2.047900     9.746400     7.848600
H      -2.197400    10.251100     8.479100
O      -0.801200    12.622700     6.168600
O      -1.436800    12.238700     8.266500
N      -0.583600    15.444800     8.887100
N       0.311000    16.505600     6.491900
N      -2.409800    15.255500     6.839400
N       1.492800    13.969800     7.858700
C       1.295300    19.084900     6.176200
H       1.620200    19.949600     6.067400
C       0.746000    16.932800     5.292300
C       0.353000    17.354900     7.534800
C      -2.018100    15.327600     9.220900
H      -2.229600    15.919300     9.960800
H      -2.214300    14.419000     9.496700
C       0.240400    14.647100     9.820600
H      -0.270900    13.879700    10.118600
H       0.450100    15.186900    10.599800
C       0.851900    18.647000     7.414200
H       0.886500    19.210500     8.153900
C       1.245400    18.206900     5.100000
H       1.545400    18.473700     4.260500
C       1.523200    14.171300     9.189900
C      -4.395900    16.103700     5.807200
H      -4.910700    16.212200     5.040300
C       2.574600    13.411000     7.276300
H       2.568400    13.284900     6.354600
C       3.709700    13.232300     9.358800
H       4.445300    12.969800     9.863800
C      -2.868400    15.687600     8.026200
C       2.623400    13.840000     9.963000
H       2.631500    14.023900    10.875600
C      -3.170200    15.459400     5.750300
H      -2.861900    15.155800     4.926200
C       0.650900    15.956300     4.156200
H      -0.069300    16.214400     3.558600
H       1.479600    15.952500     3.651800
C       3.685000    13.020400     7.986300
H       4.406800    12.621300     7.554700
C      -4.838600    16.581500     7.024600
H      -5.646900    17.037800     7.083000
C      -4.068500    16.375300     8.157100
H      -4.348800    16.689400     8.986900
C      -0.172400    16.866500     8.849000
H       0.512200    17.004500     9.521400
H      -0.935900    17.412900     9.095400
O       0.401700    14.661300     4.685400
C       0.761500    13.599200     3.762500
H       1.702600    13.682200     3.543400
H       0.637800    12.745600     4.207200
C      -0.002700    13.599800     2.536100
H      -0.929400    13.671100     2.584800
C       0.576200    13.502800     1.332300
H       1.501000    13.431400     1.266700
H       0.053900    13.506800     0.563000
