108
Refcode: HONKIF_comp_0 | Dataset: tmCAT | Charge: -2 | Potential Spins: [1, 3, 5]
Pd      4.707200    -0.058600    14.293200
Br      6.365900     1.727100    14.691000
Br      6.409600    -1.731700    13.634000
P       3.163500    -1.676600    13.984700
C       3.286200     1.267800    14.661300
N       2.693500     1.560100    15.832600
N       2.646000     1.950500    13.690200
C       1.581400     2.388800    15.605700
C       1.549700     2.623500    14.229000
C       0.503600     3.331300    13.636400
H       0.473600     3.485000    12.699700
C      -0.483900     3.797000    14.477900
H      -1.213700     4.280700    14.108700
C      -0.447000     3.579900    15.857200
H      -1.147800     3.921500    16.399000
C       0.585200     2.882000    16.448600
H       0.615600     2.743600    17.387300
C       3.160100     0.994300    17.114700
H       4.142900     0.882300    17.073800
H       2.759200     0.097200    17.232500
C       2.816600     1.840900    18.319900
C       3.435600     3.078400    18.478900
C       3.074000     3.891900    19.562500
C       2.116100     3.457700    20.478600
C       1.509400     2.205400    20.332500
C       1.868000     1.384500    19.249300
C       4.489700     3.531700    17.490500
H       4.858500     2.752600    17.024200
H       5.208500     3.995600    17.968800
H       4.086000     4.141400    16.837600
C       3.696400     5.254800    19.739100
H       2.992500     5.936200    19.749100
H       4.311600     5.432000    18.996900
H       4.188800     5.282100    20.586600
C       1.719700     4.319100    21.654300
H       1.869200     3.825200    22.487800
H       0.770900     4.555800    21.580900
H       2.260100     5.136900    21.658300
C       0.474800     1.742600    21.336800
H      -0.066800     1.029000    20.941800
H      -0.103100     2.495700    21.580900
H       0.927100     1.405300    22.138600
C       1.189100     0.036000    19.090200
H       0.701000     0.014000    18.240700
H       0.561800    -0.104600    19.830400
H       1.865100    -0.672900    19.096100
C       3.020000     1.813500    12.272800
H       2.596800     0.993600    11.911800
H       4.000500     1.694600    12.213400
C       2.623500     2.980400    11.408600
C       3.236800     4.222800    11.618000
C       2.832600     5.319100    10.863900
C       1.877200     5.167200     9.859600
C       1.305800     3.905000     9.607600
C       1.659800     2.814400    10.414300
C       4.312300     4.383700    12.675800
H       5.076700     4.864300    12.292800
H       4.602700     3.500300    12.983500
H       3.953000     4.893100    13.432000
C       3.452300     6.671700    11.133800
H       3.735000     6.720900    12.070500
H       2.792800     7.374100    10.955200
H       4.229800     6.797900    10.550300
C       1.460600     6.347600     9.006300
H       1.840200     6.251600     8.107200
H       1.789000     7.176900     9.413100
H       0.482500     6.378400     8.946700
C       0.324500     3.740200     8.466400
H      -0.591000     3.802700     8.811800
H       0.456400     2.864300     8.045700
H       0.472700     4.446200     7.803600
C       0.959800     1.488000    10.224800
H       1.548000     0.875400     9.736600
H       0.133700     1.625100     9.714800
H       0.744600     1.104800    11.100000
C       1.471200    -1.309100    14.621600
C       0.785500    -0.425800    13.880700
H       1.166800    -0.040000    13.100500
C      -0.443800    -0.106200    14.271500
H      -0.941300     0.508100    13.743600
C      -1.032400    -0.623200    15.404700
H      -1.912000    -0.364500    15.656800
C      -0.320600    -1.519100    16.164800
H      -0.700700    -1.888400    16.952700
C       0.963100    -1.879200    15.765900
H       1.474200    -2.501200    16.268000
C       3.604900    -3.217900    14.851000
C       4.098100    -3.102200    16.131100
H       4.230800    -2.242000    16.512100
C       4.401400    -4.238200    16.867400
H       4.722200    -4.153800    17.758500
C       4.239500    -5.482800    16.313700
H       4.443200    -6.259500    16.821700
C       3.784100    -5.607700    15.025600
H       3.695300    -6.470200    14.638600
C       3.451200    -4.470400    14.277400
H       3.123400    -4.556800    13.390300
C       2.805300    -2.076800    12.247900
C       3.634400    -1.644200    11.227100
H       4.435200    -1.174800    11.431500
C       3.292000    -1.896700     9.903300
H       3.869900    -1.609700     9.206700
C       2.127400    -2.559300     9.591700
H       1.893600    -2.711000     8.682800
C       1.303200    -3.000400    10.601900
H       0.506100    -3.471700    10.389500
C       1.630300    -2.762900    11.933600
H       1.055000    -3.065200    12.628200
