26
Refcode: HOSHEE_comp_0 | Dataset: tmCAT | Charge: unknown | Potential Spins: [1, 3, 5]
Au     -0.492900     0.912400     3.862100
Cl     -1.727000     0.193700     2.044300
Cl     -1.992600    -0.083600     5.365100
N       0.686300     1.604600     5.407100
C       0.142700     2.210600     6.454600
H      -0.783500     2.282300     6.512300
C       0.903000     2.731200     7.440800
H       0.506700     3.124700     8.182300
C       2.271500     2.680000     7.346400
H       2.803400     3.098200     7.982900
C       2.863100     1.980100     6.283200
H       3.786300     1.882800     6.249900
C       2.047500     1.416000     5.246200
C       2.609500     0.793800     4.072800
H       2.300800    -0.119500     3.999300
H       3.578800     0.786100     4.137500
C       2.178600     1.597800     2.839900
C       3.096800     2.159400     1.979600
H       4.003500     2.024500     2.126500
C       2.678600     2.919000     0.888400
H       3.306900     3.291100     0.314800
C       1.342000     3.115300     0.664500
H       1.057100     3.632500    -0.052500
C       0.423800     2.525500     1.528400
H      -0.485200     2.639100     1.376200
C       0.837100     1.789000     2.586400
