90
Refcode: HOZBUT_comp_0 | Dataset: tmCAT | Charge: 1 | Potential Spins: [1, 3, 5]
Pd      2.640400     8.110400     4.194200
O       6.312300     8.121700     6.204100
O       4.441500     5.250000     8.325000
O       5.989300    10.419800     2.921300
O       6.174300     7.377200     2.089900
N       4.151900     7.800900     5.703100
N       4.205500     9.084200     3.112200
C       0.540300     8.369300     4.218000
C       0.799700     7.183600     4.906300
C       0.974000     8.437300     2.867700
C       5.153900     8.582000     5.718600
C       6.099000     6.678000     6.366300
C       4.584900     6.550700     6.403300
C       4.003900     6.510600     7.828800
C       3.759900     4.829800     9.498800
C       5.081500     9.813000     3.689500
C       5.648900    10.065800     1.542400
C       4.531400     9.023100     1.676000
C       5.010600     7.603800     1.322900
C       6.971200     6.311800     1.606800
C       5.185200    10.003000     5.178200
C       3.966000    10.810300     5.670900
C       6.485100    10.733600     5.581400
C       4.435400     7.668400     8.703200
C       3.696000     8.840100     8.734200
C       4.141000     9.936800     9.430800
C       5.320800     9.879200    10.123900
C       6.051500     8.716300    10.139400
C       5.624800     7.610800     9.438000
C       0.558600     6.967400     6.346100
C       0.421100     7.994400     7.233600
C       0.179400     7.745100     8.580300
C       0.084000     6.444300     9.016900
C       0.206100     5.384200     8.130600
C       0.452900     5.651000     6.812500
C       3.940800     6.552400     1.535200
C       3.922100     5.794000     2.685100
C       2.885100     4.862900     2.895100
C       1.911400     4.700700     1.950300
C       1.942800     5.424300     0.800400
C       2.969000     6.350200     0.577300
C       0.984200     9.656100     2.052900
C       0.920500     9.537500     0.676400
C       0.976300    10.644700    -0.144300
C       1.085200    11.891400     0.409200
C       1.154300    12.030800     1.785700
C       1.109200    10.923700     2.607600
H       0.089500     9.106800     4.641500
H       1.165700     6.449600     4.402900
H       1.282800     7.628200     2.457300
H       6.487900     6.364100     7.190600
H       6.470500     6.186300     5.633900
H       4.281200     5.743400     5.982200
H       3.046100     6.561200     7.877700
H       4.096400     3.977200     9.777900
H       3.892000     5.474900    10.196600
H       2.818300     4.754800     9.309200
H       5.346700    10.845200     1.061700
H       6.403800     9.687400     1.091500
H       3.756000     9.253300     1.121300
H       5.274600     7.412000     0.411500
H       7.749000     6.219400     2.153100
H       7.241400     6.507100     0.697800
H       6.465100     5.499300     1.614000
H       4.004000    11.701300     5.316600
H       3.969200    10.843400     6.628800
H       3.156300    10.383100     5.369100
H       6.472100    11.628100     5.218800
H       6.550300    10.775400     6.532200
H       7.241700    10.262800     5.221200
H       2.864100     8.885400     8.261800
H       3.620700    10.745800     9.434400
H       5.633800    10.656900    10.592700
H       6.867600     8.676200    10.642800
H       6.140700     6.800000     9.459500
H       0.493100     8.904600     6.921000
H       0.080500     8.473900     9.205400
H      -0.076200     6.257800     9.945000
H       0.124700     4.477600     8.433600
H       0.556000     4.923900     6.204100
H       4.617700     5.903800     3.344800
H       2.858200     4.341600     3.702700
H       1.199100     4.071300     2.095900
H       1.262100     5.297100     0.134800
H       2.996100     6.845400    -0.246900
H       0.837500     8.667400     0.280300
H       0.938300    10.543500    -1.095100
H       1.108900    12.667300    -0.151500
H       1.261800    12.900900     2.167400
H       1.156100    11.031800     3.560700
