45
Refcode: HUFDER_comp_0 | Dataset: tmCAT | Charge: 0 | Potential Spins: [1, 3, 5]
Fe      5.698200     3.302800     2.734200
Cl      7.104100     4.864500     1.559900
Cl      4.532600     5.039600     3.943500
N       7.186000     2.504000     4.250400
C       6.462100     1.699100     5.272900
H       6.713900     2.018300     6.176300
H       6.738900     0.752300     5.196700
C       4.952300     1.792700     5.113900
H       4.516600     1.096100     5.665900
H       4.638400     2.676200     5.430500
N       4.577600     1.612100     3.702200
C       3.193500     1.961900     3.388800
H       2.963900     2.820500     3.825800
H       2.588500     1.264600     3.744900
C       2.988900     2.089700     1.874200
H       2.873300     1.185100     1.488500
H       2.157500     2.598000     1.704800
N       4.119100     2.768100     1.184700
C       4.730000     1.857800     0.175000
H       4.519800     2.192200    -0.732500
H       4.327300     0.957200     0.266200
C       6.240000     1.744600     0.324000
H       6.577300     1.000400    -0.233900
H       6.670800     2.581800     0.019100
N       6.568500     1.498700     1.732300
C       7.999300     1.622700     2.035700
H       8.360400     2.433500     1.598900
H       8.482400     0.837200     1.675300
C       8.225200     1.713600     3.545400
H       8.241200     0.798100     3.922900
H       9.109300     2.124800     3.712500
C       4.926000     0.260700     3.204300
H       4.122500    -0.132100     2.778500
H       5.157600    -0.307400     3.981700
C       6.051300     0.202100     2.226900
H       6.799600    -0.288500     2.649100
H       5.753300    -0.329000     1.445900
C       7.778500     3.685900     4.884300
H       8.482200     3.405600     5.505600
H       7.086100     4.175400     5.374700
H       8.163700     4.267100     4.196500
C       3.663400     4.015000     0.564800
H       2.958700     3.818100    -0.086800
H       4.416400     4.449100     0.111800
H       3.309600     4.613600     1.256100
