97
Refcode: HUJBIX_comp_0 | Dataset: tmCAT | Charge: unknown | Potential Spins: [1, 3, 5]
C       7.125600    12.289500    28.458800
C       7.131600    11.842100    27.160100
H       7.010200    10.935200    26.988500
C       7.313200    12.703500    26.118100
H       7.301100    12.388300    25.244900
C       7.515800    14.061700    26.373500
H       7.645200    14.656000    25.671200
C       7.522800    14.510400    27.662900
H       7.652200    15.415900    27.834100
C       7.340200    13.634300    28.720200
H       7.360300    13.945500    29.595100
C       6.244900    12.011700    31.218800
C       4.955000    12.503100    31.101800
H       4.491600    12.393600    30.300900
C       4.357200    13.141500    32.142300
H       3.496600    13.479400    32.041000
C       4.998100    13.295100    33.337300
H       4.581900    13.727800    34.046600
C       6.244900    12.806300    33.462700
H       6.686300    12.897100    34.277200
C       6.884900    12.175900    32.421100
H       7.752500    11.860800    32.533700
C       8.674300    10.704200    30.272300
C       9.767600    11.318500    29.682500
H       9.631200    12.007700    29.074500
C      11.054500    10.927200    29.984400
H      11.775700    11.357300    29.584600
C      11.277200     9.904200    30.872200
H      12.145800     9.633100    31.062600
C      10.219000     9.289900    31.471100
H      10.364400     8.620800    32.100400
C       8.942100     9.657100    31.144400
C       7.185800     5.907000    29.753700
C       7.173700     5.760100    28.386100
C       6.319200     4.758500    27.942400
H       6.271000     4.610200    27.026900
C       5.536800     3.966500    28.758600
C       5.667200     4.093400    30.147200
C       6.544800     5.064300    30.653800
C       7.973200     6.548100    27.329500
C       8.970200     7.572400    27.889600
H       8.489700     8.308300    28.274300
H       9.532900     7.891600    27.180700
H       9.510800     7.155700    28.564300
C       6.995200     7.279900    26.401500
H       6.423500     6.640200    25.971700
H       7.488700     7.766000    25.737600
H       6.462600     7.890300    26.915100
C       8.787600     5.559800    26.486400
H       9.415500     5.101700    27.047900
H       9.260100     6.037900    25.800500
H       8.195800     4.921400    26.080000
C       4.589900     2.982200    28.147900
H       3.687200     3.228000    28.365200
H       4.774500     2.104800    28.491000
H       4.699200     2.982200    27.194700
C       4.822600     3.237300    31.072800
H       3.892800     3.372200    30.874000
H       4.994100     3.487000    31.985100
H       5.046300     2.313100    30.947300
C       6.786600     5.196500    32.122400
C       7.354300     4.158800    32.857200
C       7.440600     4.272300    34.237400
C       6.913000     5.402200    34.860400
H       6.914000     5.428900    35.790200
C       6.386400     6.489300    34.179400
C       6.418500     6.369100    32.791900
C       7.894900     2.916800    32.202100
H       7.324200     2.172900    32.407900
H       8.779600     2.740500    32.530200
H       7.927000     3.043700    31.251300
C       8.103600     3.194600    35.076300
H       9.007300     3.067700    34.780400
H       7.617100     2.371900    34.983000
H       8.103600     3.461700    35.999800
C       5.782500     7.683200    34.917000
C       4.400300     8.030500    34.358300
H       3.981100     8.683600    34.923600
H       3.858700     7.238500    34.329600
H       4.493600     8.387100    33.473600
C       6.721400     8.879900    34.852300
H       7.593000     8.619400    35.161200
H       6.382300     9.583700    35.409300
H       6.781600     9.191000    33.945300
C       5.527800     7.364100    36.382800
H       6.365300     7.305300    36.848900
H       5.064300     6.525400    36.450600
H       4.992100     8.058500    36.772000
C       4.371200     7.772700    29.436800
Cl      4.134000    10.449100    28.080800
O       7.886900     8.973400    31.775400
O       7.853800     7.007500    30.376000
O       5.962100     7.432200    31.995900
O       3.624000     6.943400    29.465100
P       6.949100    11.088000    29.810300
P       6.832200     8.150900    30.871500
Rh      5.593000     9.229400    29.487000
