100
Refcode: HUNMEI_comp_0 | Dataset: tmCAT | Charge: 0 | Potential Spins: [1, 3, 5]
Zr      7.590000   -12.968000   -17.369200
N       7.457300   -11.319000   -18.716500
O       6.414600   -13.538800   -19.362300
N       8.114900   -11.827100   -15.657900
N       6.123300   -14.170000   -16.596900
N       9.177000   -14.128600   -17.795600
C       6.118700   -14.860600   -19.792900
C       6.030400   -12.506400   -20.211000
C       5.181700   -12.589200   -21.254100
C       4.858000   -11.450800   -21.969400
C       5.395200   -10.221900   -21.626400
C       4.979200    -8.887700   -22.293100
C       6.295500   -10.139100   -20.572100
C       6.629300   -11.287000   -19.823500
C       8.253000   -10.146700   -18.444200
C       9.273300    -9.774100   -19.302600
C      10.066500    -8.667600   -18.991500
C       9.836200    -7.977000   -17.824700
C       8.842800    -8.308100   -16.948300
C       8.643500    -7.532800   -15.689900
C       8.012600    -9.418400   -17.267800
C       6.866900    -9.806100   -16.384400
C       5.716500    -9.030800   -16.359400
C       5.493800    -7.892300   -17.285800
C       4.710500    -9.392100   -15.451000
C       4.804600   -10.498600   -14.648100
C       5.934800   -11.283300   -14.696800
C       6.979600   -10.957700   -15.557900
C       8.995600   -11.849700   -14.562000
C       8.915300   -10.912600   -13.516100
C       9.780100   -10.944500   -12.453600
C       9.643900    -9.919000   -11.279900
C       9.580500   -10.656600    -9.947800
C       8.423200    -9.008200   -11.392400
C      10.962900    -9.079700   -11.256300
C      10.765900   -11.908000   -12.427200
C      10.908700   -12.848900   -13.437000
C      11.990700   -13.947900   -13.421700
C      12.970800   -13.846300   -12.307700
C      11.343400   -15.299000   -13.396700
C      12.787400   -13.993100   -14.687000
C      10.007900   -12.798100   -14.513400
C       4.703800   -14.286600   -16.874700
C       6.502300   -14.843600   -15.348200
C      10.357600   -13.616700   -18.463700
C       9.334100   -15.555000   -17.488600
H       6.431400   -14.981000   -20.713800
H       5.151300   -15.007400   -19.755400
H       6.571900   -15.504200   -19.208200
H       4.803900   -13.428500   -21.487500
H       4.260200   -11.512900   -22.704200
H       4.058800    -8.667600   -22.034700
H       5.032300    -8.979900   -23.266700
H       5.580500    -8.174500   -21.997200
H       6.688700    -9.301700   -20.354100
H       9.432800   -10.267100   -20.098500
H      10.759500    -8.394700   -19.581800
H      10.392900    -7.235500   -17.619200
H       7.744900    -7.141400   -15.687100
H       9.311900    -6.817800   -15.637100
H       8.741400    -8.129400   -14.919000
H       4.656000    -7.440600   -17.053900
H       5.439800    -8.227200   -18.206700
H       6.238600    -7.260000   -17.212200
H       3.932100    -8.850100   -15.391200
H       4.094000   -10.722500   -14.060600
H       6.001600   -12.049200   -14.139800
H       8.245000   -10.238900   -13.548100
H       9.561500   -10.007400    -9.214500
H      10.368500   -11.232500    -9.853400
H       8.769900   -11.208000    -9.917300
H       7.622500    -9.552000   -11.543800
H       8.545800    -8.390900   -12.143800
H       8.320200    -8.496300   -10.563200
H      10.797700    -8.225300   -10.802100
H      11.257000    -8.908400   -12.174400
H      11.657400    -9.574600   -10.775700
H      11.368100   -11.928700   -11.692400
H      13.675100   -14.516200   -12.430000
H      12.513800   -14.004400   -11.454900
H      13.369600   -12.950500   -12.304900
H      10.720100   -15.376200   -14.149500
H      10.853600   -15.411900   -12.555000
H      12.030200   -15.993400   -13.468900
H      13.349900   -13.193300   -14.746800
H      12.178000   -14.023200   -15.455100
H      13.353400   -14.790900   -14.688400
H      10.093500   -13.424800   -15.223200
H       4.193700   -13.927200   -16.119100
H       4.473600   -15.229400   -17.008000
H       4.487200   -13.780400   -17.685800
H       6.275300   -15.795800   -15.409300
H       6.015600   -14.440900   -14.599500
H       7.435900   -14.745800   -15.202300
H      10.570000   -14.183100   -19.234500
H      11.113700   -13.616700   -17.838600
H      10.188300   -12.700300   -18.769200
H      10.066700   -15.673500   -16.849700
H       9.536200   -16.046100   -18.312300
H       8.502200   -15.899300   -17.101100
