34
Refcode: HUNWET_comp_0 | Dataset: tmCAT | Charge: 0 | Potential Spins: [1, 3, 5]
Pd      5.852500    14.925200     9.744000
Se      4.574100    13.478100    11.087100
Cl      7.269000    16.523100     8.791300
Cl      7.611100    13.488600    10.106300
N       4.126500    16.045900     9.366100
C       4.027400    16.525000     7.950300
H       4.445900    16.134400     7.216000
C       3.130700    17.754600     7.911100
H       2.653200    18.118300     7.202300
C       3.217200    18.204900     9.291700
H       2.769600    18.943700     9.631400
C       4.137500    17.323600    10.088600
H       4.610300    17.539100    10.863100
C       2.894700    15.274300     9.751800
H       2.141900    15.886200     9.784100
H       2.710600    14.616200     9.064500
C       3.008000    14.598900    11.034500
H       2.218200    14.056300    11.184300
H       3.059100    15.258900    11.743300
C       3.972300    12.068600     9.937900
C       3.162100    11.064200    10.486200
H       2.915100    11.125700    11.379100
C       2.729500    10.032800     9.771400
H       2.279600     9.330400    10.182600
C       2.973300    10.017400     8.390900
H       2.618600     9.336200     7.865100
C       3.728500    11.006400     7.805400
H       3.957400    10.969900     6.903600
C       4.129700    12.005100     8.560300
H       4.542600    12.722800     8.140200
H       3.158900    15.886600     7.795000
H       2.373800    17.568500     9.555600
H       3.988400    18.374100     7.653500
H       3.295900    16.989900    10.693800
