93
Refcode: HUVFIO_comp_0 | Dataset: tmCAT | Charge: 0 | Potential Spins: [1, 3, 5]
Pd     -2.117000     6.439400    12.031800
P      -1.276100     8.131400    10.792300
P      -0.071800     5.533100    12.308400
Cl     -4.285600     7.070000    11.388300
Cl     -3.019200     4.970600    13.646800
C      -2.372900     9.584600    10.902800
C      -2.889200     9.936700    12.158400
H      -2.693800     9.409100    12.899300
C      -3.682200    11.055100    12.307800
H      -4.003200    11.284900    13.150800
C      -3.999200    11.821300    11.234100
H      -4.537500    12.571100    11.339100
C      -3.510000    11.476700     9.956200
H      -3.731000    11.994300     9.215300
C      -2.694000    10.358400     9.806900
H      -2.366600    10.131100     8.966800
C      -1.143200     7.725200     9.024500
C      -1.915100     6.764600     8.484700
H      -2.471200     6.257200     9.030400
C      -1.886600     6.524800     7.121100
H      -2.461700     5.892400     6.755800
C      -1.041500     7.188700     6.318000
H      -0.992600     6.974200     5.414400
C      -0.281000     8.149300     6.816400
H       0.263300     8.640400     6.244100
C      -0.272600     8.446000     8.199300
H       0.290900     9.097300     8.548300
C       0.332300     8.774200    11.356800
C       0.394900    10.002400    12.056300
H      -0.382100    10.504800    12.149500
C       1.553400    10.478300    12.600600
H       1.544600    11.274800    13.079800
C       2.727400     9.789100    12.445300
C       2.711700     8.588600    11.736900
H       3.503600     8.116500    11.620100
C       1.536900     8.088800    11.206000
C       5.056200     9.713300    13.097500
H       4.952300     8.793100    12.809100
H       5.364100     9.707000    14.017400
C       6.110900    10.413900    12.208700
H       6.158200    11.345500    12.473400
H       6.975300    10.015000    12.395000
C       5.881000    10.359600    10.759300
H       4.935800    10.484600    10.583300
H       6.359300    11.090500    10.336300
C       6.309200     9.108700    10.164800
H       5.779900     8.394200    10.550800
H       7.233100     8.953400    10.419200
C       6.202500     9.003900     8.549800
H       5.281000     9.150300     8.286500
H       6.738200     9.709500     8.154900
C       6.660900     7.682300     7.996600
H       6.824500     7.788300     7.047200
H       7.505100     7.452600     8.413700
C       5.735300     6.561400     8.184500
H       5.449100     6.547500     9.110300
H       6.212800     5.734600     8.011400
C       4.495100     6.605600     7.289700
H       4.029000     7.446200     7.422800
H       4.764200     6.555100     6.359500
C       2.754000     5.615900     8.638500
C       2.100200     4.467200     8.981600
H       2.251300     3.688400     8.496500
C       1.209000     4.449600    10.052400
H       0.734500     3.673300    10.246100
C       1.021900     5.590700    10.834700
C       1.665100     6.784800    10.478300
C       2.562400     6.778500     9.389800
H       3.029000     7.552300     9.170900
C      -1.103000     2.986600    11.867000
H      -1.535800     3.388000    11.149800
C      -1.323900     1.661200    12.118500
H      -1.877900     1.165100    11.560900
C      -0.726600     1.070400    13.193700
H      -0.900800     0.176700    13.380000
C       0.121200     1.773500    13.995200
H       0.536300     1.353200    14.714000
C       0.367300     3.126700    13.736400
H       0.943300     3.605100    14.289500
C      -0.236200     3.761600    12.667100
C       0.909200     6.306400    13.646200
C       2.259600     5.932800    13.805900
H       2.633700     5.262500    13.282400
C       3.006700     6.582800    14.753900
H       3.909300     6.377100    14.856000
C       2.418400     7.551000    15.564400
H       2.922800     7.970100    16.222500
C       1.110300     7.888100    15.400200
H       0.729500     8.547000    15.935600
C       0.348100     7.258200    14.443400
H      -0.549100     7.480300    14.341300
O       3.820000    10.369700    13.022100
O       3.633200     5.535100     7.589900
