73
Refcode: HUWGIQ_comp_0 | Dataset: tmCAT | Charge: 0 | Potential Spins: [1, 3, 5]
Mo     -1.511700    12.109200     9.489800
O      -2.999500    11.682000    10.221900
O      -0.626800    12.684900    10.824900
O      -2.245900    11.972000     7.616700
O      -0.596700    10.454200     9.134800
N      -2.042500    14.219000     9.162000
N       0.259300    12.980800     8.316100
C      -2.660800    12.729100     6.601200
C      -2.614800    12.257800     5.259200
C      -3.177100    13.079500     4.279900
C      -3.715500    14.310700     4.583900
C      -3.694200    14.798200     5.878600
C      -3.170400    13.997000     6.882300
C      -3.275000    14.425200     8.331800
C      -0.833100    15.054300     8.869500
C       0.079300    14.372300     7.854400
C       1.393000    12.394500     8.268800
C       1.679600    11.042600     8.700300
C       3.022600    10.628400     8.681700
C       3.383800     9.365000     9.061700
C       2.397600     8.442700     9.440200
C       1.043500     8.779100     9.464600
C       0.707700    10.101100     9.126200
C      -2.009300    10.884700     4.940900
C      -2.023600    10.598600     3.426800
C      -2.814400     9.765500     5.643500
C      -0.548600    10.834300     5.416900
C      -0.046400     7.744700     9.761400
C      -0.976400     8.158900    10.904100
C      -0.863500     7.499800     8.492400
C       0.568100     6.396700    10.200100
C      -1.166700    16.494100     8.479500
C       0.126900    17.296200     8.353400
C       1.057200    16.658900     7.344000
C       1.368700    15.205100     7.663700
H      -3.188000    12.781900     3.378000
H      -4.108000    14.834800     3.894200
H      -4.031600    15.663300     6.076500
H      -2.258300    14.601400    10.051000
H      -0.314000    15.107200     9.722600
H      -0.402600    14.345100     6.978300
H       2.120000    12.894100     7.916000
H       3.693800    11.237100     8.397800
H       4.299600     9.113300     9.070300
H       2.659000     7.563900     9.686800
H      -1.556600    11.319500     2.953600
H      -2.950400    10.548200     3.111400
H      -1.571700     9.747200     3.250400
H      -2.443200     8.891300     5.399700
H      -3.752000     9.811300     5.362400
H      -2.758500     9.882300     6.615600
H      -0.037600    11.546100     4.979600
H      -0.159000     9.964700     5.186100
H      -0.516900    10.957900     6.387600
H      -3.511300    15.386400     8.357700
H      -4.020300    13.926300     8.750500
H      -1.344700     9.046900    10.717700
H      -0.471000     8.184100    11.742900
H      -1.707300     7.511300    10.981500
H      -1.257900     8.346600     8.191300
H      -1.577300     6.856700     8.683100
H      -0.279000     7.142800     7.791300
H      -0.149500     5.755900    10.383600
H       1.103200     6.529400    11.010200
H       1.140200     6.051100     9.483200
H      -1.653600    16.503200     7.617800
H      -1.748700    16.901500     9.169200
H      -0.084600    18.222000     8.069500
H       0.576000    17.340900     9.233700
H       1.904400    17.171500     7.316700
H       0.644100    16.709200     6.445000
H       1.911500    15.162100     8.491000
H       1.903300    14.814200     6.926700
