53
Refcode: HUWQEX_comp_0 | Dataset: tmCAT | Charge: unknown | Potential Spins: [1, 3, 5]
Ni     -8.396000    -4.990500   -12.801400
F      -7.413900    -4.164700   -14.121500
O      -9.873800    -8.052000   -15.013300
O      -7.427100    -2.464100    -9.767700
N      -8.944800    -6.216900   -14.113500
N      -9.451100    -5.783900   -11.454400
N      -7.713500    -3.701400   -11.623600
C      -8.617700    -6.149700   -15.566400
H      -7.651600    -5.927900   -15.699400
C      -8.900800    -7.599300   -15.989600
H      -9.272200    -7.636200   -16.905900
H      -8.077800    -8.147300   -15.953600
C      -9.705500    -7.262300   -13.935700
C     -10.367200    -7.626200   -12.753100
H     -10.919200    -8.399900   -12.750400
C     -10.240800    -6.903500   -11.614600
C     -10.953800    -7.267900   -10.346900
H     -10.608700    -8.118700    -9.977100
H     -11.928000    -7.353900   -10.499400
C     -10.650300    -6.109700    -9.417200
H     -11.457100    -5.558600    -9.261600
H     -10.306300    -6.433000    -8.547800
C      -9.598000    -5.329600   -10.157600
C      -8.927200    -4.286200    -9.608700
H      -9.065200    -4.073100    -8.694100
C      -8.028100    -3.512300   -10.371800
C      -6.775800    -1.713400   -10.834300
H      -5.880800    -1.399800   -10.551600
H      -7.321800    -0.931600   -11.101700
C      -6.666200    -2.724100   -11.983800
H      -6.902700    -2.279000   -12.847800
C      -5.294200    -3.346400   -12.089300
C      -4.306800    -2.685900   -12.814400
H      -4.504700    -1.850100   -13.220400
C      -3.037300    -3.229600   -12.952600
H      -2.379700    -2.779300   -13.469300
C      -2.733900    -4.430400   -12.336900
H      -1.864200    -4.804500   -12.424800
C      -3.696900    -5.085700   -11.592300
H      -3.484800    -5.905300   -11.160900
C      -4.976600    -4.552000   -11.472900
H      -5.636200    -5.013000   -10.967700
C      -9.495500    -5.170200   -16.314100
C      -9.048000    -4.666300   -17.537800
H      -8.174200    -4.878400   -17.842500
C      -9.869900    -3.859800   -18.313000
H      -9.549300    -3.513100   -19.137700
C     -11.156700    -3.554800   -17.890900
H     -11.722000    -3.014000   -18.429200
C     -11.609300    -4.050400   -16.672400
H     -12.486100    -3.841900   -16.371400
C     -10.780200    -4.852200   -15.894900
H     -11.096800    -5.188100   -15.064000
