59
Refcode: HUYNOE_comp_0 | Dataset: tmCAT | Charge: unknown | Potential Spins: [1, 3, 5]
C       4.693000     5.657600     2.914800
C       3.600600     4.770300     2.937900
H       3.122500     4.479300     2.183200
C       3.342900     4.389700     4.242600
H       2.672300     3.791400     4.520000
C       4.250700     5.047000     5.078200
H       4.302100     4.975800     6.014600
C       5.065000     5.824500     4.259100
H       5.761900     6.380000     4.561300
C       5.290900     6.325100     1.748900
C       5.223600     5.755300     0.551600
H       5.672500     6.141900    -0.178400
H       4.727200     4.967700     0.434300
C       6.956100     7.920600     1.038800
H       7.236300     7.131000     0.528500
H       6.503700     8.527100     0.416200
C       8.085100     8.551500     1.511100
H       7.829800     9.361500     1.981700
H       8.664400     8.779400     0.767900
H       8.556500     7.959300     2.118800
C       5.186500     8.553500     2.606000
H       5.786600     9.223100     2.997400
H       4.652300     8.177000     3.335900
C       4.247200     9.263800     1.644900
H       4.761600     9.831600     1.050300
H       3.617900     9.803100     2.146900
H       3.762700     8.604400     1.121300
C       7.833600     4.182100     4.706700
C       7.760900     4.690900     3.373900
H       7.721300     5.600600     3.136100
C       7.760400     3.610300     2.482100
H       7.706100     3.667300     1.545800
C       7.853600     2.442100     3.220300
H       7.875700     1.573100     2.865300
C       7.905700     2.757600     4.563000
H       7.977900     2.138900     5.266500
C       7.788700     4.955500     5.963400
C       7.329700     4.424300     7.074800
H       7.241200     4.953400     7.847700
H       7.089600     3.516700     7.096300
C       7.677100     7.188000     6.880000
H       6.817700     6.848100     7.203700
H       8.307500     7.157400     7.629700
C       7.506800     8.535200     6.498500
H       8.374400     8.962600     6.420900
H       6.978500     8.997200     7.169000
H       7.050000     8.573900     5.643000
C       9.559900     6.492000     5.377100
H       9.663100     7.430200     5.109600
H       9.725500     5.938400     4.586100
C      10.609700     6.168400     6.425800
H      10.449000     6.699500     7.220200
H      11.491200     6.369900     6.074100
H      10.559800     5.226100     6.652100
Cl      4.910700     2.083300     1.872400
Cl      5.006200     1.893500     5.487600
N       5.994000     7.493200     2.042900
N       8.171400     6.278300     5.819700
Zr      5.617800     3.469600     3.733900
