78
Refcode: IBECUP_comp_0 | Dataset: tmCAT | Charge: unknown | Potential Spins: [1, 3, 5]
Ir      1.848900    -1.421000     8.882200
P       2.465400     0.670200     9.184500
N       2.321100    -1.001400     6.982200
N       1.444600    -3.366900     7.912300
C       0.508400    -1.849100    10.452600
H       0.009200    -2.674800    10.210700
C       1.827400    -2.054100    10.942700
H       2.138200    -2.998200    10.987100
C       2.376800    -1.218200    12.067500
H       1.989500    -0.308100    12.013300
H       3.357500    -1.137100    11.960500
C       2.069400    -1.812700    13.449900
H       2.660000    -2.594800    13.590700
H       2.301200    -1.138600    14.136600
C       0.620600    -2.255800    13.679800
H       0.547000    -2.625000    14.596300
H       0.413200    -2.988100    13.047300
C      -0.437900    -1.154400    13.512600
H      -1.086000    -1.231100    14.256300
H       0.011100    -0.276200    13.601000
C      -1.216700    -1.165000    12.194600
H      -1.981900    -0.543800    12.282400
H      -1.586700    -2.072900    12.061000
C      -0.428100    -0.779900    10.938300
H      -1.068400    -0.564900    10.214600
H       0.094500     0.038600    11.130000
C       2.329500    -2.078300     6.006800
H       3.108600    -1.987300     5.402800
H       1.503600    -2.052300     5.460700
C       2.409200    -3.373900     6.771000
H       2.201000    -4.129200     6.165000
H       3.328900    -3.499800     7.115300
C       2.393800     0.285700     6.516400
C       2.448200     1.320100     7.485400
C       2.476100     2.651000     7.098200
H       2.527400     3.331300     7.759100
C       2.430500     3.000500     5.752500
H       2.428900     3.913700     5.490300
C       2.387800     1.992900     4.802500
H       2.360400     2.226100     3.882100
C       2.384200     0.658400     5.158300
H       2.374900    -0.011100     4.484700
C       0.027200    -3.296700     7.418900
H      -0.114900    -2.400500     7.022600
H      -0.573700    -3.370200     8.202000
C      -0.406200    -4.339100     6.393000
H       0.124800    -4.233400     5.576600
H      -1.355600    -4.217000     6.184400
H      -0.264500    -5.237400     6.761200
C       1.612300    -4.605000     8.726000
H       1.319600    -5.382400     8.186600
H       1.020200    -4.548000     9.516700
C       3.033200    -4.846800     9.197900
H       3.578000    -5.160600     8.446700
H       3.031700    -5.525800     9.905500
H       3.407600    -4.011400     9.547600
C       4.210600     0.913700     9.705100
C       4.991800    -0.209400     9.979400
H       4.598900    -1.074100     9.951900
C       6.337600    -0.075300    10.292700
H       6.859300    -0.846200    10.482400
C       6.920500     1.180000    10.329700
H       7.842000     1.270900    10.541600
C       6.155500     2.303900    10.056600
H       6.553700     3.166500    10.083200
C       4.808300     2.172700     9.743600
H       4.290500     2.946900     9.554000
C       1.572800     1.954800    10.136800
C       2.011300     2.406400    11.381100
H       2.832300     2.086600    11.735200
C       1.260900     3.317400    12.106200
H       1.566500     3.613700    12.955900
C       0.071900     3.795800    11.600500
H      -0.435800     4.427000    12.097000
C      -0.383300     3.355500    10.367400
H      -1.205400     3.681800    10.020100
C       0.360600     2.438700     9.641700
H       0.042600     2.136600     8.799500
