77
Refcode: IBILOU_comp_0 | Dataset: tmCAT | Charge: unknown | Potential Spins: [1, 3, 5]
Ir     10.529400     3.738100     6.323900
Cl      8.770900     3.538900     4.440400
P      10.555300     6.009400     5.860900
P      12.246900     3.460300     4.777900
C       9.004400     6.883400     6.386100
C       7.866100     6.739100     5.623100
C       6.660300     7.320200     6.045700
C       6.615900     8.068600     7.187300
C       7.725900     8.208600     7.948900
C       8.910500     7.621200     7.549800
C      11.854300     7.054800     6.625300
C      11.882000     8.426000     6.368500
C      12.854500     9.224500     6.910000
C      13.860400     8.662200     7.740500
C      13.838500     7.343200     7.957700
C      12.837900     6.500800     7.447100
C      10.717200     6.446500     4.108700
C      11.995500     5.940600     3.444000
C      12.082000     4.437700     3.222400
C      13.981400     3.750000     5.307600
C      14.332700     3.549300     6.563700
C      15.675000     3.616200     7.045000
C      16.615200     3.950700     6.094100
C      16.285800     4.186900     4.791100
C      14.978500     4.120000     4.416900
C      12.395400     1.751700     4.050000
C      13.546300     1.003300     4.190900
C      13.621700    -0.225800     3.552600
C      12.572200    -0.694000     2.807100
C      11.428400     0.037600     2.691200
C      11.338500     1.262500     3.322200
C      10.373800     4.285100     8.375900
C       9.120100     3.890000     7.954800
C       8.456400     2.581500     8.346600
C       8.774900     1.463200     7.407400
C      10.071800     1.611600     6.689900
C      11.300500     1.904300     7.287100
C      11.440400     2.027600     8.776500
C      11.234200     3.430200     9.297500
H      10.452400     5.219500     8.532900
H       8.508700     4.611200     7.860900
H       8.751400     2.339000     9.216700
H       7.514400     2.709000     8.356900
H       8.082100     1.411000     6.760300
H       8.803700     0.654300     7.904900
H      10.143900     1.068100     5.913600
H      10.797600     1.459000     9.184500
H      12.051700     1.517600     6.851300
H      12.312900     1.741200     9.018600
H      10.811200     3.377900    10.145600
H      12.083400     3.846200     9.389900
H       7.896200     6.243700     4.813100
H       5.870200     7.192700     5.535000
H       5.804900     8.492900     7.447100
H       7.691400     8.710300     8.756000
H       9.682600     7.723700     8.092700
H      11.218000     8.810600     5.809400
H      12.855900    10.158900     6.729500
H      14.531000     9.207800     8.133800
H      14.530900     6.956500     8.480100
H      12.829800     5.574800     7.656900
H      13.646600     3.346600     7.188800
H      15.902000     3.440600     7.950400
H      17.525500     4.021700     6.356800
H      16.959900     4.393800     4.154200
H      14.742100     4.333200     3.521800
H      14.271400     1.323200     4.716200
H      14.410200    -0.746200     3.633300
H      12.643200    -1.536400     2.371300
H      10.698300    -0.292600     2.179100
H      10.538400     1.772600     3.253200
H       9.975500     6.078600     3.642100
H      10.699200     7.393400     4.036800
H      12.067600     6.365000     2.595800
H      12.729000     6.197700     3.988400
H      12.839100     4.257900     2.676500
H      11.294300     4.153400     2.774900
