113
Refcode: ICOLIX_comp_0 | Dataset: tmCAT;tmPHOTO | Charge: unknown | Potential Spins: [1, 3, 5]
Fe      1.789900    -3.542300    16.641400
P       2.254500    -2.227300    14.969700
P      -0.256500    -3.484900    15.905600
C       3.119500    -2.675700    18.042800
C       3.535700    -4.001100    17.705700
C       2.492200    -4.898800    18.132900
C       1.431800    -4.126900    18.675200
C       1.819600    -2.736300    18.627200
C       4.024100    -1.464600    17.985800
H       3.490600    -0.666100    17.794100
H       4.691700    -1.589200    17.279100
H       4.478100    -1.355200    18.847400
C       4.855600    -4.431300    17.140000
H       5.280500    -3.672400    16.690000
H       4.713700    -5.156500    16.494900
H       5.434900    -4.747400    17.864300
C       2.592800    -6.395500    18.083200
H       1.758000    -6.790300    18.410500
H       3.338400    -6.691700    18.646500
H       2.748800    -6.681700    17.158200
C       0.201800    -4.625500    19.377400
H      -0.044400    -5.503900    19.019100
H      -0.534800    -3.995400    19.233700
H       0.383900    -4.703300    20.337800
C       1.050400    -1.641100    19.313500
H       1.011200    -1.823100    20.275300
H       0.140500    -1.604100    18.950800
H       1.498500    -0.783400    19.161500
C       1.140300    -2.698300    13.565600
H       1.102200    -1.960900    12.907600
H       1.496200    -3.502100    13.110500
C      -0.267400    -2.988400    14.102400
H      -0.674800    -3.715100    13.568900
H      -0.829500    -2.180000    13.992200
C       1.963500    -0.408200    15.059000
C       1.532400     0.174000    16.241100
H       1.433300    -0.369900    17.013800
C       1.240900     1.534500    16.329100
H       0.968000     1.917300    17.154300
C       1.354400     2.324400    15.191900
H       1.137500     3.249400    15.230900
C       1.783000     1.761800    14.000000
H       1.862400     2.304600    13.223600
C       2.097700     0.410600    13.932500
H       2.407100     0.039700    13.114400
C       3.951900    -2.273800    14.254800
C       4.857000    -1.217300    14.454300
H       4.580200    -0.444000    14.932400
C       6.149700    -1.292300    13.957100
H       6.747800    -0.569100    14.101400
C       6.580700    -2.399600    13.260900
H       7.466400    -2.440700    12.917400
C       5.701700    -3.452900    13.069300
H       5.987000    -4.219400    12.585800
C       4.415000    -3.402500    13.571300
H       3.836100    -4.146600    13.449900
C      -1.488800    -2.326000    16.657200
C      -2.398300    -2.754000    17.628900
H      -2.418300    -3.672800    17.870200
C      -3.273300    -1.875000    18.249200
H      -3.881200    -2.193100    18.906000
C      -3.258600    -0.531600    17.908000
H      -3.864800     0.075100    18.316900
C      -2.348700    -0.084400    16.963300
H      -2.319100     0.838900    16.740700
C      -1.483800    -0.967800    16.339700
H      -0.875900    -0.644000    15.685400
C      -1.266100    -5.036000    15.911700
C      -0.748500    -6.227200    16.403400
H       0.141600    -6.253200    16.732900
C      -1.523700    -7.384600    16.418300
H      -1.160200    -8.192800    16.760200
C      -2.815100    -7.363800    15.938400
H      -3.341600    -8.153800    15.952600
C      -3.348700    -6.178900    15.430800
H      -4.236700    -6.159400    15.094300
C      -2.566500    -5.023300    15.422800
H      -2.929200    -4.216600    15.078700
C       1.964400    -4.936800    15.360800
C       2.021600    -5.848300    14.562000
C       2.055000    -6.975300    13.655300
C       2.543200    -6.874500    12.349300
H       2.824800    -6.029500    12.020100
C       2.624000    -7.988100    11.526700
H       2.951600    -7.891100    10.640900
C       1.616100    -8.242800    14.100100
H       1.242600    -8.334400    14.969500
C       1.726900    -9.352900    13.280200
H       1.454800   -10.202800    13.607900
C       2.232400    -9.250200    11.978700
C       3.268700   -10.166300     9.521600
C       2.643200    -9.776600     8.326100
H       1.708300    -9.903800     8.220200
C       3.386100    -9.205500     7.294400
H       2.956100    -8.948300     6.486000
C       4.755400    -9.010200     7.445700
H       5.260100    -8.606900     6.747400
C       5.381800    -9.406300     8.622000
H       6.315700    -9.270000     8.729300
P       2.377200   -10.799200    10.995000
C       4.648900   -10.000800     9.638300
H       5.091800   -10.297500    10.424400
C       0.656600   -11.041600    10.401200
C       0.362900   -12.178200     9.644700
H       1.064700   -12.770300     9.402300
C      -0.924000   -12.455900     9.244300
H      -1.100900   -13.231400     8.723400
C      -1.966300   -11.608900     9.597300
H      -2.853400   -11.809100     9.322300
C      -1.717200   -10.472700    10.347600
H      -2.429700    -9.894900    10.596100
C      -0.402600   -10.186200    10.735000
H      -0.225200    -9.397400    11.234000
