59
Refcode: ICUCAN_comp_1 | Dataset: tmCAT | Charge: unknown | Potential Spins: [1, 3, 5]
Rh      8.556300    11.217200     5.420700
Si      7.279400    11.539400     3.641100
S      10.223600    11.325400     8.513900
O       6.998900     9.949200     3.122400
O       5.810900    12.045800     4.334400
O       9.657900    10.522600     7.433200
O       9.271700    11.721400     9.517700
O      11.151700    12.337200     8.078900
N       7.985700     9.150300     5.047700
N       6.710700    11.482800     6.373800
C       7.395300    12.540600     2.104400
H       8.114000    12.188000     1.538700
H       7.590900    13.472200     2.335000
H       6.545100    12.496000     1.619600
C       7.347500     8.901500     3.889700
C       7.055000     7.609100     3.470400
C       7.405100     6.558100     4.287200
C       8.033600     6.808400     5.510600
C       8.313300     8.109100     5.842100
C       5.648800    11.881200     5.650300
C       4.406400    12.127900     6.235700
C       4.261800    11.948000     7.595000
C       5.350900    11.504500     8.339800
C       6.548600    11.287400     7.705000
C      10.560300    11.903400     4.729000
C      10.427500    10.543700     4.488500
C      10.422200     9.946000     3.101000
H      10.063900    10.605500     2.455500
H       9.838000     9.146900     3.084600
C      11.855200     9.549400     2.696300
H      12.126400     8.762000     3.232000
H      11.847300     9.272400     1.745400
C      12.907800    10.642400     2.874100
H      13.771400    10.303600     2.527400
H      13.021700    10.811600     3.843200
C      12.596400    11.982500     2.179700
H      13.424600    12.303200     1.741800
H      11.930400    11.814500     1.466800
C      12.063800    13.104200     3.080100
H      12.097500    13.950400     2.566900
H      12.683000    13.201700     3.846800
C      10.641000    12.941800     3.637200
H      10.331500    13.812100     3.994200
H      10.032000    12.684000     2.899500
C      11.281000    10.119100     9.390800
F      10.604000     9.017200     9.721000
F      11.770900    10.653100    10.498400
F      12.308100     9.727100     8.633500
H       8.668200    12.709600     5.518500
H       6.672200     7.480000     2.658600
H       7.202800     5.707800     4.013900
H       8.720400     8.321800     6.622200
H       8.263900     6.114500     6.077500
H       3.719600    12.466900     5.692900
H       3.467900    12.138100     8.009900
H       5.334500    11.426900     9.203500
H       7.300600    11.025300     8.168100
H      10.952700    12.203800     5.536500
H      10.705400     9.957500     5.106900
