130
Refcode: IDACUN_comp_0 | Dataset: tmCAT | Charge: unknown | Potential Spins: [1, 3, 5]
Br     17.541000    17.324000    18.509400
Pd     15.145900    16.951600    18.188800
C      15.529300    18.093400    16.569800
C      15.536900    19.481700    16.668700
H      15.335300    19.892700    17.501700
C      15.837600    20.280600    15.556000
H      15.806800    21.226600    15.640100
C      16.176500    19.721400    14.339900
C      16.500500    20.581600    13.129000
H      16.028600    21.447800    13.216900
H      16.154500    20.130700    12.317400
C      17.998700    20.848800    12.948400
H      18.470300    19.984600    12.850000
H      18.134600    21.364300    12.113800
C      18.590100    21.596000    14.078400
H      18.588100    21.011600    14.877100
H      18.014700    22.376700    14.275200
C      20.020800    22.090700    13.841200
H      20.372400    22.481100    14.666800
H      20.016800    22.769100    13.134100
H      20.586200    21.337200    13.568200
C      16.240400    18.341400    14.260900
H      16.498100    17.932700    13.442900
C      15.934100    17.536700    15.358400
H      16.002600    16.592600    15.277700
P      12.888200    16.575700    17.718300
C      11.691600    18.090500    17.808500
C      12.528600    19.351700    17.618700
H      11.958500    20.141100    17.727700
H      12.919600    19.352100    16.720800
H      13.245300    19.370900    18.287100
C      10.563600    18.090300    16.760900
H       9.940400    18.821900    16.951300
H      10.086300    17.235500    16.796900
H      10.947500    18.212400    15.868400
C      11.032200    18.200500    19.193700
H      11.726700    18.275000    19.880200
H      10.489900    17.400400    19.363300
H      10.458000    18.995200    19.220100
C      12.711200    15.636600    16.069300
C      13.884300    14.649700    16.050500
H      13.730800    13.947900    16.718600
H      14.713900    15.125200    16.259900
H      13.956600    14.244300    15.161300
C      11.442000    14.796600    15.834300
H      11.497000    14.359100    14.959900
H      10.655800    15.379800    15.859400
H      11.365100    14.117000    16.535100
C      12.843500    16.633900    14.897300
H      13.433100    17.371200    15.161300
H      11.958500    16.989200    14.669100
H      13.221300    16.175100    14.118600
C      12.342700    15.410700    19.038000
C      11.000200    14.969000    19.123200
O      10.144300    15.482300    18.195400
C       8.787200    15.083400    18.204300
H       8.729600    14.117000    18.052200
H       8.304000    15.555200    17.495000
H       8.387900    15.300500    19.072400
C      10.587400    14.109200    20.124100
H       9.688700    13.801800    20.150900
C      11.496000    13.698200    21.090900
H      11.219200    13.102500    21.775400
C      12.806300    14.153500    21.060900
O      13.741000    13.844500    22.018300
C      13.349000    12.911500    23.024300
H      12.573900    13.261100    23.511600
H      14.090500    12.772700    23.648100
H      13.113400    12.058800    22.603200
C      13.254100    15.008100    20.024500
C      14.710300    15.417800    20.149400
C      15.040700    16.494900    21.033800
C      13.938400    17.500000    21.368800
H      13.219300    17.333600    20.694600
C      13.270800    17.267600    22.731700
H      13.081400    16.312900    22.844900
H      12.432100    17.774000    22.775500
H      13.870700    17.567400    23.444500
C      14.317400    18.974500    21.196300
H      14.845700    19.268600    21.967800
H      13.503000    19.517000    21.133200
H      14.845700    19.082800    20.376900
C      16.321100    16.557300    21.613600
C      16.713500    17.651900    22.572100
C      16.391000    17.563400    23.930100
H      15.910700    16.807600    24.247800
C      16.765300    18.570200    24.830000
H      16.510100    18.504600    25.742400
C      17.507000    19.664800    24.396600
C      17.933800    20.715200    25.395200
H      17.243400    20.784000    26.100400
H      17.980700    21.591900    24.936900
C      19.289500    20.428100    26.054800
H      19.347400    20.921800    26.910400
H      19.357400    19.460600    26.257100
C      20.441800    20.834100    25.167200
H      20.398400    21.804800    24.979400
H      20.390400    20.347800    24.306000
C      21.805000    20.485500    25.908000
H      22.554300    20.602400    25.286000
H      21.781100    19.554600    26.216800
H      21.922900    21.082500    26.675500
C      17.862800    19.738500    23.057000
H      18.380300    20.473000    22.750900
C      17.469800    18.743600    22.144100
H      17.721000    18.815600    21.231600
C      17.276000    15.575600    21.312200
C      18.671300    15.587700    21.934700
H      18.716000    16.375500    22.549500
C      18.922800    14.357000    22.762800
H      18.831900    13.559600    22.200500
H      18.272400    14.317300    23.493800
H      19.828900    14.392500    23.133500
C      19.764800    15.761800    20.901800
H      20.636200    15.778500    21.348000
H      19.629100    16.605100    20.421700
H      19.737000    15.014500    20.267300
C      16.949300    14.554000    20.432400
H      17.615100    13.912400    20.211300
C      15.689900    14.429400    19.860700
C      15.390000    13.199100    19.021000
H      14.468100    13.292400    18.645100
C      16.380300    13.082400    17.845600
H      16.388300    13.920700    17.340600
H      16.104500    12.348900    17.257800
H      17.279400    12.902100    18.193100
C      15.438000    11.922100    19.868100
H      16.348300    11.789500    20.206900
H      15.179400    11.155000    19.316300
H      14.817800    12.006600    20.620800
