58
Refcode: IFEFAB_comp_0 | Dataset: tmCAT | Charge: 0 | Potential Spins: [1, 3, 5]
Cu      4.099400     1.215400    11.343200
O       3.027800     3.648900    12.015000
O       2.660500     3.115700    10.034600
O       7.147500    -1.961000    10.950200
N       3.097000     2.800100    11.117200
N       6.156100     1.427800    11.363300
N       8.259300     1.918500    11.378200
N       4.322700    -0.369600    12.595100
N       4.453500    -1.912000    14.093800
N       4.182500    -0.176600     9.790000
N       4.120100    -1.478500     8.079600
C       6.176000    -1.001000    11.062100
C       6.835300     0.300900    11.170900
C       8.145700     0.564300    11.181400
C       7.036200     2.387900    11.490100
C       9.478400     2.654500    11.443800
C       6.728000     3.805900    11.763000
C       6.893600     4.761100    10.626600
C       5.321100    -1.223400    12.289400
C       5.416700    -2.191600    13.197500
C       3.791100    -0.857000    13.703100
C       4.191500    -2.711700    15.294200
C       2.603600    -0.341800    14.384600
C       1.764000     0.433400    13.606100
C       5.222500    -1.030400     9.875000
C       5.191900    -1.849800     8.835600
C       3.555400    -0.479200     8.704400
C       3.680100    -2.105000     6.856800
C       2.273400     0.129200     8.295800
C       1.116600    -0.474300     8.901200
H       8.871500    -0.055600    11.080000
H      10.219200     2.036300    11.324500
H       9.520000     3.310400    10.783200
H       9.569800     3.042100    12.310200
H       5.784100     3.840300    12.038800
H       7.243100     4.092100    12.502600
H       7.814500     4.746400    10.319400
H       6.346400     4.520700     9.873500
H       6.687100     5.659000    10.871200
H       6.035600    -2.934200    13.199000
H       4.267700    -2.186700    16.072700
H       3.307100    -3.084600    15.251000
H       4.814600    -3.439600    15.339000
H       2.109300    -1.095800    14.738000
H       2.889500     0.186500    15.133200
H       2.187600     1.202100    13.246700
H       1.417400    -0.080100    12.838100
H       0.970000     0.729500    14.083300
H       5.813000    -2.562900     8.650700
H       2.791500    -2.477900     6.999900
H       3.619100    -1.470400     6.160300
H       4.256000    -2.811500     6.610700
H       2.301900     1.061500     8.525500
H       2.211900     0.060500     7.342900
H       1.124100    -0.405600     9.851200
H       0.291600    -0.027800     8.598500
H       1.021500    -1.395100     8.659700
H       7.071400    -2.917800    11.039700
