58
Refcode: IGAWAR_comp_0 | Dataset: tmCAT | Charge: unknown | Potential Spins: [1, 3, 5]
V       1.832000     4.296800     9.411300
Cl      2.559200     4.542800     7.290000
Cl      0.006100     5.340800    10.213500
P       0.605100     2.121400     9.050200
P       3.498900     5.957300    10.307600
N       2.838100     3.152800    10.610500
C       1.161800     1.304500    10.604500
H       0.489800     1.451900    11.316500
H       1.246100     0.329800    10.456400
C       2.485500     1.866400    11.035800
C       3.443300     1.379500    11.864500
H       3.440500     0.528900    12.287000
C       4.454900     2.379000    11.986300
H       5.251100     2.317700    12.501100
C       4.061800     3.434200    11.223800
C       4.730700     4.749500    10.940600
H       5.447200     4.620700    10.269400
H       5.144100     5.098000    11.770000
C       1.142800     0.956700     7.720000
H       0.737800     0.062800     7.909600
C       0.668000     1.407300     6.341900
H       1.027100     0.803100     5.659000
H       0.982500     2.319100     6.169700
H      -0.311600     1.388500     6.312100
C       2.661400     0.801600     7.745600
H       3.081700     1.664300     7.548500
H       2.933700     0.143900     7.071600
H       2.943500     0.495500     8.632800
C      -1.234500     2.069700     9.176100
H      -1.461600     2.484300    10.057000
C      -1.937200     2.915200     8.119800
H      -2.885400     3.003900     8.350200
H      -1.852400     2.482000     7.244900
H      -1.524900     3.803800     8.085500
C      -1.807500     0.653900     9.217100
H      -1.720900     0.240000     8.332700
H      -2.754300     0.691500     9.468300
H      -1.316000     0.120700     9.876400
C       4.454000     7.006500     9.143100
H       4.922100     6.376700     8.523100
C       3.545700     7.864800     8.266600
H       4.062300     8.226700     7.516300
H       3.181700     8.603600     8.798200
H       2.810200     7.316700     7.922600
C       5.542400     7.848700     9.786900
H       5.131800     8.550400    10.333800
H       6.093600     8.259500     9.088300
H       6.103900     7.279300    10.353400
C       3.128700     6.977600    11.803400
H       3.995700     7.339900    12.144800
C       2.210500     8.166500    11.513000
H       1.967100     8.604900    12.355300
H       1.399300     7.851400    11.062700
H       2.677100     8.806500    10.935400
C       2.532500     6.096800    12.898600
H       1.653700     5.770000    12.612900
H       2.434800     6.619700    13.721400
H       3.126000     5.334600    13.064400
