122
Refcode: IGITOI_comp_0 | Dataset: tmCAT | Charge: 0 | Potential Spins: [1, 3, 5]
C      11.658000     6.956200     3.065500
H      10.858300     7.365400     2.652300
H      12.058500     7.632900     3.664600
C      12.650000     6.661100     1.967400
H      12.158300     6.122100     1.284000
C      13.147400     7.937900     1.233200
C      11.996300     8.697200     0.623000
H      11.462800     9.108400     1.334900
H      11.435300     8.081500     0.108100
H      12.343400     9.397600     0.030200
C      13.976000     8.793600     2.148500
H      14.457500     9.466400     1.620900
H      14.620900     8.232900     2.626900
H      13.391800     9.242100     2.793700
C      14.075800     7.436200     0.085800
H      14.480600     8.205400    -0.365500
H      13.547900     6.918800    -0.557800
H      14.781400     6.869600     0.460900
C      10.183000     6.320800     5.484200
C       8.845400     6.946400     5.063100
H       8.236600     6.240100     4.761100
H       8.997300     7.581800     4.333600
H       8.450700     7.414600     5.827400
C      11.062200     7.404700     6.107100
H      10.660200     7.707700     6.947800
H      11.137400     8.162100     5.489000
H      11.954400     7.038800     6.286700
C       9.943000     5.258500     6.561600
H       9.551100     5.681400     7.354600
H      10.794700     4.839400     6.801600
H       9.328400     4.577800     6.216800
C      10.099100     4.420400     3.046400
C       9.253200     5.199400     2.016600
H       9.847500     5.655800     1.385700
H       8.699400     5.860400     2.482300
H       8.676200     4.575800     1.530400
C       9.195400     3.505600     3.885500
H       8.755800     2.852500     3.300700
H       8.515700     4.044700     4.340000
H       9.736200     3.033500     4.551400
C      11.096900     3.509600     2.309000
H      10.609600     2.921400     1.694000
H      11.587100     2.966600     2.960600
H      11.728800     4.060400     1.800500
C      14.808900     2.852500     1.082200
H      13.905100     3.224300     1.004300
H      15.040300     2.382300     0.254300
H      15.449500     3.580400     1.234800
C      13.730100     0.228200     2.078600
H      13.788000    -0.464300     2.771500
H      13.999100    -0.151500     1.217300
H      12.807600     0.552800     2.019800
C      16.626600     0.983600     2.514100
H      17.261400     1.729200     2.550600
H      16.775500     0.468200     1.694000
H      16.756700     0.403300     3.292700
N      14.460400     2.425600     3.972900
O      12.281100     4.821100     4.683600
O      13.682900     5.875000     2.402200
Si     14.871500     1.655400     2.520200
P      11.107900     5.561800     4.086000
Y      14.460400     4.722400     3.972900
C      17.262800     6.956200     4.880300
H      18.062500     7.365400     5.293500
H      16.862300     7.632900     4.281200
C      16.270800     6.661100     5.978400
H      16.762500     6.122100     6.661800
C      15.773400     7.937900     6.712600
C      16.924500     8.697200     7.322800
H      17.458000     9.108400     6.610900
H      17.485500     8.081500     7.837700
H      16.577400     9.397600     7.915600
C      14.944800     8.793600     5.797300
H      14.463300     9.466400     6.324900
H      14.299900     8.232900     5.318900
H      15.529000     9.242100     5.152100
C      14.845000     7.436200     7.860000
H      14.440200     8.205400     8.311300
H      15.372900     6.918800     8.503600
H      14.139400     6.869600     7.484900
C      18.737800     6.320800     2.461600
C      20.075400     6.946400     2.882700
H      20.684200     6.240100     3.184700
H      19.923500     7.581800     3.612200
H      20.470100     7.414600     2.118400
C      17.858600     7.404700     1.838700
H      18.260600     7.707700     0.998000
H      17.783400     8.162100     2.456800
H      16.966400     7.038800     1.659100
C      18.977800     5.258500     1.384200
H      19.369700     5.681400     0.591200
H      18.126100     4.839400     1.144200
H      19.592400     4.577800     1.729000
C      18.821700     4.420400     4.899400
C      19.667600     5.199400     5.929200
H      19.073300     5.655800     6.560100
H      20.221400     5.860400     5.463500
H      20.244600     4.575800     6.415400
C      19.725400     3.505600     4.060300
H      20.165000     2.852500     4.645100
H      20.405100     4.044700     3.605800
H      19.184600     3.033500     3.394400
C      17.823900     3.509600     5.636800
H      18.311200     2.921400     6.251800
H      17.333700     2.966600     4.985200
H      17.192000     4.060400     6.145300
C      14.111900     2.852500     6.863600
H      15.015700     3.224300     6.941500
H      13.880500     2.382300     7.691500
H      13.471300     3.580400     6.711000
C      15.190700     0.228200     5.867200
H      15.132800    -0.464300     5.174300
H      14.921700    -0.151500     6.728500
H      16.113200     0.552800     5.926000
C      12.294200     0.983600     5.431700
H      11.659400     1.729200     5.395200
H      12.145300     0.468200     6.251800
H      12.164100     0.403300     4.653100
O      16.639700     4.821100     3.262200
O      15.237900     5.875000     5.543600
Si     14.049300     1.655400     5.425600
P      17.812900     5.561800     3.859800
