83
Refcode: IGOBAH_comp_0 | Dataset: tmCAT | Charge: 2 | Potential Spins: [1, 3, 5]
Pd      5.213700    13.191300     2.305600
O       2.393700    15.526500     3.804300
O       2.490000    12.574300    -0.547400
C       3.135300    13.463400     2.904600
H       3.069700    13.040300     3.751900
C       3.172400    12.651700     1.734400
H       3.029200    11.718100     1.845500
C       2.819200    13.262600     0.469800
C       2.791100    14.700000     0.373300
H       2.785800    15.113200    -0.482400
C       2.772000    15.459000     1.480600
H       2.762100    16.405700     1.396700
C       2.765900    14.851400     2.831200
P       6.695400    12.056000     0.868900
P       6.603900    14.124800     3.974400
C       6.129900    10.264300     0.629200
C       7.163000     9.278000     0.046100
H       6.768900     8.382300     0.000000
H       7.955700     9.258300     0.622900
H       7.419500     9.567800    -0.853600
C       4.876200    10.228100    -0.283100
H       5.139100    10.414100    -1.208000
H       4.233800    10.904800     0.016800
H       4.462300     9.340600    -0.234900
C       5.699000     9.763700     2.055200
H       4.935000    10.292300     2.369800
H       6.447700     9.870800     2.680200
H       5.445300     8.818700     2.009100
C       6.946000    12.877300    -0.834700
C       5.585800    13.394300    -1.350600
H       5.714700    13.858600    -2.204100
H       5.203100    14.015000    -0.696300
H       4.975600    12.638500    -1.478500
C       7.589600    11.986500    -1.906300
H       7.044800    11.183000    -2.034300
H       8.490700    11.729700    -1.619000
H       7.645400    12.480500    -2.751500
C       7.839300    14.097300    -0.645900
H       8.759000    13.805900    -0.471900
H       7.515400    14.625900     0.113200
H       7.819300    14.645600    -1.459600
C       8.472400    11.920700     1.421900
H       8.953100    11.383900     0.742400
H       8.860000    12.831200     1.396700
C       8.796100    11.326300     2.783000
C       9.317200    10.037100     2.845900
H       9.395700     9.531600     2.044800
C       9.728800     9.462400     4.045500
H      10.053600     8.570000     4.064300
C       9.658100    10.201700     5.198900
H       9.922800     9.821400     6.029400
C       9.203300    11.490900     5.146500
H       9.200000    12.004600     5.945500
C       8.744900    12.082000     3.965800
C       8.374000    13.555600     3.944800
H       8.786600    13.944200     3.133200
H       8.823600    13.975500     4.720800
C       5.972500    13.666000     5.716900
C       4.723200    14.479300     6.067200
H       4.076300    14.416800     5.335200
H       4.972200    15.417800     6.205600
H       4.321900    14.125300     6.889300
C       7.007900    13.865200     6.872500
H       6.624400    13.539200     7.713500
H       7.221000    14.818500     6.958500
H       7.824900    13.364600     6.671200
C       5.604900    12.202200     5.654000
H       5.272800    11.909100     6.528500
H       6.396300    11.675300     5.412800
H       4.906500    12.068800     4.978700
C       6.863600    15.995700     3.825300
C       7.564900    16.634600     5.035300
H       8.404000    16.160400     5.213600
H       6.982500    16.572000     5.819700
H       7.756400    17.576400     4.842400
C       5.505900    16.675800     3.607200
H       5.638900    17.639000     3.481300
H       4.935000    16.524300     4.389400
H       5.076200    16.298700     2.810200
C       7.683300    16.282200     2.590000
H       7.595000    17.229000     2.350900
H       7.362600    15.727400     1.849700
H       8.625400    16.076400     2.768300
