31
Refcode: IGUDIX_comp_0 | Dataset: tmCAT | Charge: unknown | Potential Spins: [1, 3, 5]
Zr     -0.140200     8.516400     2.906700
Cl      2.017600     9.634100     2.723800
Cl     -1.498900    10.511800     2.460600
C      -1.665700     7.953500     4.824500
C      -0.977100     9.139500     5.218300
H      -1.377100     9.988700     5.366300
C       0.383700     8.845800     5.351600
H       1.066000     9.457800     5.601100
C       0.566100     7.471100     5.048400
H       1.391900     7.002800     5.040200
C      -0.703400     6.929100     4.762900
H      -0.880400     6.018200     4.561500
C      -3.152700     7.835300     4.572400
H      -3.625300     7.888100     5.440700
H      -3.442800     8.608500     4.026700
C      -3.569100     6.577800     3.876900
H      -3.877200     5.864900     4.424500
C      -1.586900     7.268700     1.292900
C      -0.693200     6.327000     1.847700
H      -0.936500     5.595500     2.404000
C       0.620700     6.648300     1.441500
H       1.415300     6.192200     1.691800
C       0.531000     7.777200     0.592300
H       1.258600     8.205200     0.156500
C      -0.813300     8.153000     0.506400
H      -1.151000     8.883000     0.001300
C      -3.085700     7.337000     1.526000
H      -3.329000     8.255400     1.805300
H      -3.555100     7.144600     0.675700
C      -3.549600     6.365100     2.575300
H      -3.857700     5.519500     2.272300
