63
Refcode: IHEVEY_comp_0 | Dataset: tmCAT | Charge: 0 | Potential Spins: [2, 4, 6]
P       5.815100     5.533600     3.261400
Cr      7.150200     6.689900     4.938900
Cl      6.087100     5.557400     6.645600
Cl      5.795600     8.539800     5.147200
Cl      8.440100     7.639700     3.276400
P       8.942400     7.181400     6.516900
N       6.821700     4.203500     3.045900
N       9.755100     5.714200     6.372600
N       8.301600     4.949400     4.707200
C      10.210200     8.456700     6.208900
C       6.660300     6.205900     0.712300
H       7.516500     5.924900     1.014300
C      11.212100     8.259800     5.269200
H      11.256700     7.445700     4.780700
C      12.150200     9.262900     5.043900
H      12.845000     9.124900     4.411500
C       4.349500     6.563600     1.094900
H       3.587300     6.527800     1.659400
C       4.225500     7.042100    -0.203600
H       3.378900     7.345300    -0.510900
C       5.274300     7.083000    -1.030000
H       5.168300     7.391200    -1.920500
C       6.503800     6.676000    -0.584000
H       7.254000     6.716800    -1.163500
C      12.075500    10.456700     5.735700
H      12.718500    11.137900     5.578700
C      11.071200    10.657700     6.651500
H      11.020700    11.478600     7.126300
C      10.135600     9.667500     6.883100
H       9.437200     9.816400     7.510300
C       5.576600     6.142900     1.563200
C       2.125400     5.163600     4.941000
H       1.540100     5.705200     5.455600
C       9.634600     7.170200     9.220100
H      10.448700     6.769600     8.938600
C       8.637600     7.438600     8.287100
C       1.749700     3.891500     4.594600
H       0.915200     3.550900     4.892500
C       9.444400     7.483200    10.555100
H      10.124700     7.297600    11.190900
C       8.259500     8.067300    10.957500
H       8.129400     8.290400    11.873400
C       4.189300     4.882600     3.745100
C       3.363300     5.667800     4.538300
H       3.637800     6.538000     4.803000
C       7.439400     8.012000     8.701400
H       6.748200     8.183200     8.073400
C       7.940400     3.988900     3.821200
C       9.751400     2.598900     4.477500
H      10.251200     1.795000     4.400300
C       7.263600     8.331300    10.039000
H       6.452000     8.733200    10.325800
C       3.790800     3.593400     3.388200
H       4.354300     3.053600     2.849000
C      10.124700     3.554100     5.412700
H      10.866500     3.409500     5.988900
C       9.385400     4.721500     5.486200
C       8.667700     2.806800     3.663400
H       8.417200     2.164600     3.009400
C       2.568500     3.106400     3.824200
H       2.297600     2.225900     3.587400
H      10.368000     5.551900     6.790600
H       6.596600     3.533600     2.317300
