79
Refcode: IHOMEY_comp_0 | Dataset: tmCAT | Charge: 1 | Potential Spins: [1, 3, 5]
Rh      2.017800     5.743000    15.052200
N       0.899900     7.292700    16.022800
N      -0.396200     7.044400    16.379600
N      -0.228000     4.687200    16.644400
N       1.403400     3.399200    17.144100
C       2.643100     4.166800    13.737200
H       2.118400     3.445400    13.946300
C       3.668900     4.468600    14.620200
H       3.805000     3.923500    15.367800
C       4.880400     5.306400    14.318400
H       5.532800     4.751300    13.821700
H       5.302500     5.569700    15.173100
C       4.596500     6.568500    13.504600
H       5.291300     7.246000    13.702900
H       4.651000     6.352100    12.540400
C       3.230900     7.152500    13.807400
H       3.235800     7.960400    14.281200
C       2.065000     6.845900    13.152200
H       1.354500     7.410500    13.260900
C       1.921500     5.859800    12.020300
H       2.259700     6.274600    11.187000
H       0.960900     5.656600    11.890000
C       2.671600     4.559900    12.265200
H       3.612000     4.664400    11.971800
H       2.261700     3.838500    11.724500
C       1.114300     8.579900    16.362100
C      -0.062000     9.152000    16.878500
H      -0.184000    10.050700    17.163200
C      -0.997700     8.148700    16.885700
C      -0.983800     5.765100    16.021100
H      -0.972700     5.656600    15.036800
H      -1.925700     5.732200    16.325800
C      -0.727700     3.781000    17.571900
H      -1.611900     3.744000    17.918700
C       0.297900     2.968200    17.876800
H       0.274300     2.235800    18.479500
C       1.087400     4.475200    16.365400
C       2.431400     9.224800    16.269600
C       3.568400     8.588800    16.758100
H       3.492700     7.748800    17.196300
C       4.814600     9.185100    16.605300
H       5.592800     8.739100    16.919800
C       4.929900    10.422100    15.998900
H       5.784000    10.823700    15.891600
C       3.793300    11.072400    15.547900
H       3.867900    11.927400    15.138000
C       2.551800    10.484600    15.690100
H       1.775500    10.942800    15.391200
C      -2.379300     8.174700    17.412400
C      -3.351700     8.927100    16.757400
H      -3.153100     9.342000    15.926700
C      -4.611200     9.070200    17.320500
H      -5.275500     9.578200    16.869100
C      -4.906000     8.477900    18.535400
H      -5.769500     8.582200    18.917600
C      -3.946000     7.734800    19.194900
H      -4.147700     7.331100    20.031500
C      -2.683100     7.579000    18.630200
H      -2.025400     7.062700    19.081200
C       2.684700     2.737400    17.237900
C       3.748500     3.369800    17.883600
C       3.624400     4.762300    18.441200
H       3.497200     5.397700    17.706400
H       4.439800     4.991300    18.933200
H       2.855000     4.804200    19.046200
C       4.957200     2.688100    17.957600
H       5.697600     3.110800    18.378300
C       5.119700     1.405900    17.436900
C       6.455200     0.699800    17.528700
H       6.308800    -0.262700    17.636300
H       6.954400     1.043200    18.298400
H       6.966800     0.861800    16.709500
C       4.033000     0.811400    16.801800
H       4.131200    -0.062400    16.442700
C       2.805700     1.457500    16.677700
C       1.667700     0.797700    15.937800
H       2.000500     0.005700    15.465200
H       1.289100     1.428800    15.289900
H       0.973500     0.529200    16.577000
