72
Refcode: IJAZEZ_comp_0 | Dataset: tmCAT | Charge: unknown | Potential Spins: [1, 3, 5]
B       4.448800     7.924300    12.644600
B       5.184100     8.305700     8.466100
C       3.214200     2.619000    11.880300
H       2.543600     2.936300    12.490200
H       3.795600     2.007400    12.337100
H       2.790900     2.170100    11.144500
C       4.018400     3.790200    11.361600
C       5.390600     3.715100    11.572700
H       5.652900     3.102300    12.220300
C       6.439300     4.413300    10.968000
C       7.816800     3.802700    11.115900
H       8.110100     3.464000    10.266000
H       7.780400     3.084200    11.751800
H       8.432100     4.471800    11.423500
C       2.021000     4.553900    10.320500
C       1.770800     3.913800     9.100600
C       0.451300     3.815200     8.660700
H       0.267400     3.386700     7.856200
C      -0.577800     4.341900     9.399100
H      -1.448200     4.305800     9.074700
C      -0.327900     4.925200    10.616300
H      -1.035500     5.262600    11.115900
C       0.969500     5.019300    11.117200
C       1.200200     5.602400    12.481100
H       1.611200     4.943700    13.045600
H       0.359200     5.869300    12.861300
H       1.775100     6.367400    12.409700
C       2.901200     3.358800     8.274000
H       3.449000     4.080500     7.957400
H       2.543200     2.877100     7.525300
H       3.430200     2.766900     8.812600
C       7.424500     5.964000     9.491200
C       7.578700     5.509500     8.183200
C       8.640000     5.994200     7.435700
H       8.752500     5.696600     6.562400
C       9.524100     6.899900     7.952200
H      10.227400     7.217400     7.433100
C       9.364700     7.340700     9.253800
H       9.967800     7.955600     9.605400
C       8.321600     6.882000    10.041500
C       8.161600     7.393300    11.445600
H       7.487900     8.077200    11.462400
H       8.995500     7.759900    11.749200
H       7.900800     6.671600    12.021700
C       6.620500     4.517800     7.592700
H       6.612300     3.722100     8.130000
H       6.896500     4.297500     6.699900
H       5.739500     4.897600     7.572000
C       1.489300     8.690400    10.230900
H       2.099300     9.408900    10.459300
H       0.992400     8.438900    11.026400
C       0.562600     9.117900     9.153800
H      -0.355200     9.076800     9.464000
H       0.756800    10.030300     8.886500
C       0.743800     8.258100     8.080700
H       0.995500     8.769400     7.296900
H      -0.092200     7.804300     7.887300
C       1.734600     7.307800     8.351900
H       2.462600     7.391600     7.716000
H       1.368300     6.411800     8.283100
N       3.398800     4.779300    10.709800
N       6.272800     5.522500    10.250600
O       2.216800     7.552600     9.705800
Y       4.376500     6.877300    10.386200
H       3.404400     7.817500    12.250100
H       4.725500     7.228900     8.227300
H       4.943200     6.885300    12.600500
H       5.563800     8.812100     7.656300
H       4.285100     8.815400     8.954000
H       5.006500     8.483300    11.834900
H       4.462200     8.386300    13.612700
H       5.953300     8.253100     9.330300
