66
Refcode: IJEREV_comp_0 | Dataset: tmCAT | Charge: unknown | Potential Spins: [1, 3, 5]
Ta      5.536300     0.872100     4.744500
Cl      4.081600     0.201900     6.490800
Cl      3.492400     1.503500     3.683800
Cl      6.332600     2.812400     3.571000
Si      9.076000     0.462300     4.239400
O       6.672600     1.538400     6.079600
C       7.365600    -0.302900     3.937100
C       6.475100    -0.241400     2.807300
C       5.316300    -1.011700     3.102700
C       5.476300    -1.586700     4.391400
C       6.733600    -1.159300     4.906200
C       6.677800     0.421300     1.475300
H       5.875400     0.301400     0.926000
H       7.446700     0.015400     1.022700
H       6.843700     1.377600     1.606600
C       4.176400    -1.260700     2.166300
H       4.507300    -1.709700     1.359600
H       3.763200    -0.407400     1.921000
H       3.511800    -1.831200     2.606900
C       4.521300    -2.566100     5.001300
H       3.665700    -2.121700     5.177500
H       4.892600    -2.901300     5.844300
H       4.381000    -3.313300     4.384500
C       7.285000    -1.539000     6.252000
H       8.187800    -1.171600     6.350500
H       7.319400    -2.515300     6.326300
H       6.705700    -1.177700     6.955100
C       9.041400     1.543700     5.780400
C       7.914700     1.954200     6.495600
C       7.990000     2.775200     7.637500
C       9.263300     3.144200     8.043500
H       9.351200     3.688500     8.817400
C      10.417000     2.753700     7.373200
C      10.299600     1.964900     6.243400
H      11.082000     1.702000     5.773500
C      11.783300     3.199500     7.858600
H      12.142000     2.535300     8.482300
H      11.701800     4.063600     8.314700
H      12.387900     3.290300     7.093300
C       6.731300     3.227200     8.414900
C       7.100400     4.125100     9.593100
H       7.248900     3.574700    10.389500
H       6.369500     4.755500     9.764100
H       7.918100     4.621700     9.382300
C       5.989600     2.006400     8.972900
H       5.326800     1.700500     8.318200
H       5.536600     2.252400     9.805600
H       6.630600     1.286900     9.149100
C       5.805100     4.045200     7.494100
H       5.900400     3.730000     6.571600
H       6.050900     4.992300     7.542500
H       4.875700     3.934500     7.784300
C      10.266600    -0.951700     4.569400
H      11.187300    -0.618100     4.427700
H      10.188000    -1.203900     5.524700
C      10.079000    -2.218600     3.722900
H       9.716200    -1.974200     2.847000
H       9.457400    -2.825900     4.177200
H      10.943500    -2.664500     3.607100
C       9.705700     1.494500     2.810700
H       8.969900     2.080200     2.499800
H      10.431200     2.080200     3.144100
C      10.233300     0.708800     1.610100
H      11.188900     0.528900     1.731000
H      10.100900     1.233100     0.791200
H       9.747900    -0.139900     1.535800
