35
Refcode: IJIDIQ_comp_0 | Dataset: tmCAT | Charge: 0 | Potential Spins: [1, 3, 5]
H       9.167400     7.015600    11.775200
H       8.928300     9.136900     8.088100
H      11.860500    10.949400     9.954200
H      13.876400     5.221000    12.771100
H       8.579300     7.803000     9.880100
H      11.653800     9.493800    11.752600
Pd     11.245100     6.402900    12.923400
O       8.240900     7.576700    15.331800
O      13.540200     4.657300    13.241700
N       9.795400     7.594200    12.099100
N       9.986500     6.377500    14.422900
N       9.916700     5.510600    15.439700
N      12.333400     5.007800    13.828200
C       9.265600     8.433700     9.905900
C       9.462900     9.237900     8.847100
C      10.385300    10.185200     8.864800
C      11.203300    10.307700     9.946200
C      11.062700     9.451400    11.035500
C      10.054800     8.533800    11.001700
C       9.123000     8.298600    13.244900
C       9.058600     7.380600    14.447100
C      10.791300     4.575600    15.636300
C      10.500300     3.697200    16.807900
C      12.020900     4.311400    14.862800
C      12.936900     3.215300    15.320500
Cl     10.619500    11.251200     7.525700
Cl     12.781600     6.580300    11.175400
H       9.656000     9.073400    13.472100
H       8.239100     8.559900    12.990300
H      10.456100     2.804400    16.506600
H      11.182500     3.789000    17.460600
H       9.656100     3.954800    17.175300
H      12.917100     3.120100    16.287400
H      13.841700     3.407900    15.083600
H      12.704500     2.369600    14.945000
