55
Refcode: IKEQUM_comp_0 | Dataset: tmCAT | Charge: unknown | Potential Spins: [1, 3, 5]
C       2.915600     7.730000     6.685700
C       2.838000     5.625000     7.616200
C       3.975300     6.403700     8.223300
C       1.190800     5.928700     5.717500
C      -0.012400     5.623400     6.588000
H      -0.369900     6.457000     6.957400
H       0.257100     5.030500     7.320900
H      -0.701600     5.182400     6.048000
C       1.745400     4.663800     5.042200
H       1.071700     4.298700     4.431600
H       1.962000     3.996600     5.726900
H       2.554900     4.890000     4.538700
C       0.789800     6.862500     4.598700
H       0.491700     7.717100     4.977500
H       0.057800     6.461800     4.084600
H       1.557000     7.017600     4.010500
C       5.108000     8.610400     7.879800
C       5.073400     9.870500     7.003300
H       5.169900     9.616800     6.061000
H       5.809800    10.466600     7.257400
H       4.219600    10.334100     7.130400
C       4.990400     9.011000     9.338500
H       4.127200     9.450400     9.487900
H       5.716200     9.626500     9.569100
H       5.050600     8.211400     9.902000
C       6.435000     7.888300     7.565600
H       6.467900     7.038600     8.053900
H       7.187700     8.452100     7.842100
H       6.493700     7.715400     6.603300
C       1.930000    11.416500     5.015100
H       2.638400    11.762200     4.399900
C       1.026600    10.550600     4.428100
H       1.188900    10.384200     3.456400
C      -0.434400    10.429400     4.845700
H      -0.911300    11.256500     4.584600
H      -0.846700     9.676600     4.354000
C      -0.621800    10.204900     6.336300
H      -0.798900    11.075600     6.771600
H      -1.417100     9.631400     6.475100
C       0.560900     9.561900     7.003300
H       0.326800     8.726700     7.502100
C       1.644600    10.259800     7.569200
H       2.017800     9.841400     8.396200
C       1.778300    11.783200     7.518600
H       1.125900    12.183800     8.146800
H       2.685400    12.036800     7.823300
C       1.544900    12.361500     6.133900
H       0.587200    12.595700     6.042200
H       2.069200    13.196700     6.043300
N       2.295600     6.471500     6.633900
N       3.990200     7.637900     7.553900
O       2.521400     4.510400     7.910300
O       4.717300     6.004700     9.076200
Cl      3.671900     8.843000     3.906900
Ir      2.275100     9.344000     5.767800
