83
Refcode: IMACEG_comp_0 | Dataset: tmCAT | Charge: 0 | Potential Spins: [1, 3, 5]
Br     -3.661400     8.808100    15.084500
Br     -1.815800    12.099600    12.958500
Fe     -3.324600    10.186200    13.061000
P      -1.605000     8.341100    12.312300
N      -4.776800     9.164100    11.753600
N      -5.107400    11.400700    13.268400
C      -0.244300     8.000600    13.490700
C      -6.207100    10.975000    12.593600
C      -7.378600    11.741600    12.618300
C      -2.610400     6.820700    12.281700
C      -6.158700     9.626800    11.911100
C      -6.873600    12.746300     8.917100
C      -4.335600     8.872600    10.382500
C      -4.050900     9.457000     8.072500
C       0.568700     6.831700    13.481400
C      -5.157100    12.557400    13.918400
C       0.099300     9.010800    14.366200
C      -0.114900     7.245100    10.192500
C      -6.287000    13.356800    13.941600
C       0.572500     7.405200     8.955700
C      -3.259000     7.313500     8.836800
C      -3.601900     6.683900    11.281100
C      -4.490400     9.867700     9.346400
C      -5.109500    13.418300    10.388600
C      -2.551300     5.899500    13.357900
C      -4.520400     4.695000    12.502500
C      -0.028600     9.640500     8.776600
C      -3.715400     7.637900    10.161600
C      -6.263000    11.485600     8.796700
C       0.577500     8.548200     8.256200
C       1.606800     6.745400    14.327600
C      -5.089200    11.180400     9.490000
C      -0.661200     9.602100    10.010300
C      -4.585200     5.573800    11.396900
C       1.224000     8.873900    15.217000
C      -6.270100    13.700300     9.738600
C      -2.959900     7.933600     6.494400
C      -7.430400    12.931100    13.288400
C       1.960900     7.751500    15.212400
C      -3.475500     4.908500    13.467500
C      -0.722900     8.374300    10.702100
C      -3.453000     8.284000     7.800700
C      -2.162900     5.809200     7.286600
C      -5.633400     5.408100    10.438000
C      -5.500900     3.687500    12.670800
C      -2.620400     6.084300     8.555800
C      -4.536100    12.144000    10.308300
C      -6.545500     4.480100    10.603300
C      -6.497800     3.602700    11.722700
C      -2.338900     6.755000     6.262800
H      -4.812300     8.314100    12.130400
H      -8.150400    11.429500    12.159700
H      -6.667300     8.967000    12.448400
H      -6.587500     9.692500    11.021700
H      -7.677800    12.943400     8.452300
H      -4.188900    10.056600     7.348300
H       0.378900     6.119900    12.880800
H      -4.384200    12.848900    14.387800
H      -0.421000     9.804700    14.397100
H      -0.151600     6.408700    10.641900
H      -6.277900    14.187600    14.401700
H       1.052500     6.663300     8.608300
H      -4.684300    14.094500    10.904400
H      -1.862400     5.976200    14.008000
H      -0.019800    10.452200     8.284000
H      -6.657000    10.828600     8.234600
H       1.000900     8.590600     7.407000
H       2.127500     5.950200    14.321400
H      -1.045400    10.387800    10.380900
H       1.459500     9.587100    15.799100
H      -6.673600    14.554500     9.842000
H      -3.074800     8.545400     5.776400
H      -8.226100    13.449800    13.305400
H       2.701700     7.651600    15.799100
H      -3.428900     4.328100    14.218000
H      -1.730200     4.982400     7.104400
H      -5.668800     5.973400     9.675300
H      -5.472700     3.092100    13.410400
H      -2.505700     5.443700     9.247500
H      -3.763100    11.940000    10.822500
H      -7.247300     4.392500     9.968600
H      -7.171000     2.940200    11.818500
H      -2.015000     6.563400     5.390400
