75
Refcode: IMAWIE_comp_0 | Dataset: tmCAT | Charge: unknown | Potential Spins: [1, 3, 5]
Ru      4.053600     1.590800    10.903600
Cl      3.336400     2.158900     8.623300
P       5.204600     3.574000    11.084900
P       4.729100     0.548900    12.825100
N       5.860600     0.970100    10.057600
H       5.938300     0.142600     9.771000
N       3.279800    -0.389600    10.438600
H       2.463100    -0.326500    10.172400
H       3.704500    -0.655000     9.765700
O       1.579000     2.889000    12.032200
C       2.494700     2.337400    11.604000
C       6.914100     1.811600     9.940600
C       8.180400     1.413700     9.431500
H       8.332000     0.501100     9.215900
C       9.191900     2.330700     9.245800
H      10.032600     2.038100     8.913900
C       9.003900     3.682400     9.535300
H       9.700200     4.310800     9.381700
C       7.797400     4.091400    10.044500
H       7.661200     5.012600    10.237000
C       6.765700     3.181200    10.285700
C       4.577400     5.086200    10.251100
C       3.961500     6.107900    10.946200
H       3.853000     6.039200    11.888200
C       3.498000     7.234600    10.278900
H       3.068200     7.925300    10.767600
C       3.653900     7.359100     8.926200
H       3.371000     8.150500     8.481100
C       4.219800     6.341000     8.221900
H       4.286000     6.403300     7.276700
C       4.699400     5.211900     8.870300
H       5.114300     4.520900     8.367600
C       5.558300     4.185400    12.768900
C       6.819300     4.617400    13.179600
H       7.536900     4.633500    12.556700
C       7.035900     5.025600    14.491000
H       7.900800     5.309200    14.762900
C       5.990200     5.019400    15.403000
H       6.139300     5.296000    16.298900
C       4.733500     4.611000    15.007100
H       4.014000     4.620400    15.626900
C       4.521400     4.186100    13.704100
H       3.656100     3.890400    13.443400
C       3.302900    -1.403000    11.482700
C       2.696100    -2.639900    11.291600
H       2.247400    -2.833800    10.477900
C       2.753400    -3.584300    12.299400
H       2.346200    -4.432700    12.172700
C       3.400300    -3.304900    13.492600
H       3.429100    -3.956100    14.183400
C       3.999700    -2.078400    13.674600
H       4.442300    -1.889800    14.494100
C       3.964700    -1.108400    12.666800
C       4.177200     1.019800    14.506200
C       5.012400     1.206300    15.592000
H       5.948500     1.082900    15.489000
C       4.500100     1.572100    16.832600
H       5.089700     1.707800    17.566100
C       3.156700     1.737600    17.003500
H       2.810900     1.993000    17.850600
C       2.299500     1.533100    15.938800
H       1.362900     1.634600    16.056300
C       2.809000     1.179100    14.697500
H       2.214300     1.043400    13.968700
C       6.518300     0.216200    12.944900
C       7.401600     1.219300    13.354000
H       7.059400     2.040000    13.687700
C       8.768600     1.028400    13.277400
H       9.358500     1.713400    13.567300
C       9.281900    -0.155200    12.779400
H      10.221900    -0.285300    12.729500
C       8.425200    -1.142300    12.356500
H       8.777800    -1.951800    12.003400
C       7.051200    -0.972900    12.437600
H       6.471000    -1.666500    12.148200
