103
Refcode: IMELOC_comp_0 | Dataset: tmCAT | Charge: unknown | Potential Spins: [1, 3, 5]
Hf      6.130200    14.849900     2.356200
N       6.481400    14.144600     0.238900
N       5.459100    14.451000    -0.616800
N       5.717100    16.802500     1.155400
N       4.676000    16.619600     0.282600
C       4.620700    15.555100     3.811400
C       3.192500    15.934200     3.588100
C       2.838200    17.104500     2.924500
C       1.511900    17.439500     2.690300
C       0.500200    16.613000     3.129000
C       0.821300    15.451500     3.789500
C       2.147800    15.116600     4.019000
C       5.893900    12.661400     2.821500
C       5.253800    12.123700     4.050300
C       3.922700    11.722500     4.058100
C       3.312400    11.226700     5.201000
C       4.026800    11.120900     6.375200
C       5.354600    11.515400     6.389300
C       5.947600    12.017900     5.257200
C       8.106700    15.411900     3.213400
C       8.454700    14.726500     4.487500
C       8.008800    15.226700     5.708500
C       8.281400    14.603000     6.903000
C       9.012200    13.446000     6.921700
C       9.486500    12.912700     5.735000
C       9.205200    13.547400     4.521800
C       5.802600    14.118200    -1.850300
C       7.066600    13.554000    -1.831500
C       7.471300    13.589200    -0.499600
C       8.724300    13.102200     0.134300
C       8.828900    11.773200     0.552700
C      10.006400    11.350100     1.175700
C      11.074200    12.205200     1.372500
C      10.973900    13.505500     0.910300
C       9.822700    13.972700     0.285700
C       9.754400    15.394200    -0.188900
C       7.714500    10.777100     0.323200
C      12.316700    11.740200     2.101600
C       4.333200    17.781100    -0.265400
C       5.155900    18.768400     0.240500
C       6.014800    18.124900     1.122600
C       7.213100    18.713300     1.787800
C       8.378400    18.847800     1.008700
C       9.506100    19.409700     1.589500
C       9.523000    19.846100     2.907300
C       8.354600    19.722700     3.645900
C       7.193700    19.173900     3.104100
C       8.379900    18.457700    -0.452800
C      10.747400    20.472000     3.511600
C       5.942800    19.145300     3.947200
C       2.881100    15.052600    -0.808800
B       4.225500    15.162800     0.035900
H       5.031400    16.346300     4.240800
H       4.593100    14.852100     4.509300
H       3.522300    17.690700     2.624700
H       1.300400    18.241700     2.228100
H      -0.408800    16.840000     2.974500
H       0.129800    14.874100     4.092400
H       2.348900    14.309900     4.481200
H       6.804200    12.273500     2.791800
H       5.398700    12.269100     2.059500
H       3.415400    11.788700     3.257100
H       2.401400    10.957800     5.174500
H       3.614600    10.785900     7.163700
H       5.860400    11.433800     7.188700
H       6.853200    12.302200     5.296300
H       8.116300    16.390400     3.367900
H       8.809600    15.209100     2.545100
H       7.499000    16.026800     5.714700
H       7.960400    14.975500     7.716400
H       9.194300    13.009600     7.746100
H      10.003500    12.114800     5.746000
H       9.528000    13.172700     3.711500
H       5.268700    14.248200    -2.624700
H       7.555500    13.212400    -2.571600
H      10.075800    10.448700     1.470800
H      11.710200    14.096100     1.022700
H      10.658000    15.771100    -0.228000
H       9.350100    15.420700    -1.080500
H       9.208200    15.921000     0.432500
H       6.959500    11.224500    -0.112400
H       8.038800    10.049800    -0.248300
H       7.423900    10.409000     1.185100
H      12.115800    11.636600     3.055700
H      12.610200    10.882900     1.733200
H      13.028800    12.405800     1.987700
H       3.636600    17.908900    -0.899400
H       5.139400    19.694100     0.028100
H      10.294200    19.500100     1.066400
H       8.345200    20.020200     4.548400
H       9.303200    18.329800    -0.755700
H       7.879300    17.622400    -0.568400
H       7.958000    19.167300    -0.980600
H      11.509200    20.350800     2.905800
H      10.590200    21.428500     3.650600
H      10.942900    20.044500     4.370400
H       6.039800    19.771200     4.695100
H       5.173500    19.407500     3.399200
H       5.803300    18.239500     4.293900
H       3.011800    15.467000    -1.686300
H       2.644800    14.109400    -0.924400
H       2.158900    15.515500    -0.334100
H       4.228300    14.700000     1.041500
