69
Refcode: INUHUU_comp_0 | Dataset: tmCAT | Charge: 0 | Potential Spins: [1, 3, 5]
Ti      7.698200     4.966800     0.711700
Cl      9.062900     6.708600     1.491700
Cl      7.085400     2.819400     0.054700
P       9.976400     4.431100    -0.582900
P       9.173500     3.497500     2.428900
O       7.115100     5.791900    -0.780500
O       6.428900     5.287400     1.968900
C      11.170100     3.752600     0.595500
C      10.503700     2.729400     1.436300
C      10.780000     5.838700    -1.351900
C       9.982600     3.173000    -1.865600
C       8.400300     2.081800     3.238000
C      10.133600     4.272700     3.756800
C       5.365800     7.768800     0.217200
C       4.404200     6.643600     0.603100
C       6.602600     6.671900    -1.681600
C       6.938600     6.555700    -3.048900
C       6.434600     7.495300    -3.910100
C       5.625800     8.517100    -3.534400
C       5.269900     8.610600    -2.177400
C       5.754900     7.702200    -1.234400
C       7.738700     5.383800    -3.544700
C       5.137000     9.565800    -4.431500
C       5.188300     9.564300    -5.709300
C       5.482500     5.884000     2.729400
C       5.580300     5.888300     4.117100
C       4.552300     6.472100     4.837800
C       3.446500     7.053200     4.257700
C       3.402800     7.046100     2.870000
C       4.405200     6.475000     2.098200
C       6.800000     5.317100     4.784100
C       2.399600     7.679500     5.101000
C       1.277600     8.168500     4.730500
H      11.532700     4.464000     1.124500
H      11.874400     3.330300     0.102200
H      10.137300     2.026500     0.894500
H      11.153000     2.366600     2.044500
H      10.830300     6.575600    -0.741100
H      11.665500     5.569400    -1.610000
H      10.298700     6.093700    -2.146700
H       9.548900     2.366600    -1.558900
H       9.520400     3.500400    -2.632300
H      10.896700     2.976000    -2.095600
H       7.859300     1.601400     2.606700
H       9.083700     1.502200     3.577900
H       7.849800     2.395000     3.961200
H      10.583500     5.045100     3.424500
H       9.548900     4.534900     4.472400
H      10.782800     3.642100     4.089000
H       4.954800     8.616300     0.383300
H       6.150800     7.695100     0.766700
H       3.521500     6.887300     0.306700
H       4.660500     5.824500     0.178900
H       6.634800     7.411700    -4.855700
H       4.698500     9.324800    -1.891200
H       8.020700     4.846700    -2.811200
H       7.204400     4.846700    -4.140100
H       8.514200     5.711100    -4.012300
H       4.717500    10.316900    -4.012300
H       4.793400    10.359400    -6.056800
H       5.590700     8.857200    -6.235700
H       4.594100     6.448000     5.801300
H       2.648200     7.440000     2.427800
H       7.394200     4.960000     4.114600
H       7.242300     6.008700     5.264600
H       6.549400     4.619900     5.392400
H       2.543800     7.681000     6.056800
H       0.778300     8.488700     5.494600
H       1.006100     8.247800     3.807900
