69
Refcode: IPIRAB_comp_0 | Dataset: tmCAT | Charge: -2 | Potential Spins: [1, 3, 5]
Pd     -0.987000     7.201800     8.422600
O       0.756200     7.858200     7.459700
N      -1.155400     9.972800     7.482900
N      -3.065300     9.036400     7.156600
N      -0.072200     5.424600     9.170100
C       1.154100     9.115800     7.582400
C       2.545500     9.462800     7.553600
C       2.911000    10.791200     7.727700
H       3.817100    10.999000     7.699000
C       2.008700    11.840200     7.941800
C       0.665300    11.510200     7.916400
H       0.027900    12.176000     8.044500
C       0.250300    10.193600     7.700100
C       3.615200     8.373600     7.363500
C       3.345300     7.584400     6.075600
H       3.437000     8.166000     5.318500
H       2.453800     7.229500     6.098700
H       3.975100     6.864800     6.003800
C       3.597700     7.437300     8.584100
H       4.218900     6.718900     8.444000
H       2.714700     7.079700     8.701100
H       3.850500     7.929400     9.368800
C       5.037500     8.930300     7.267500
H       5.079700     9.577500     6.560100
H       5.649900     8.213300     7.082100
H       5.274300     9.348900     8.098500
C       2.521100    13.271500     8.117300
C       1.406300    14.248200     8.491400
H       0.744700    14.259900     7.796100
H       1.773500    15.129300     8.599600
H       0.998600    13.968100     9.315900
C       3.574700    13.319700     9.228700
H       3.188200    13.009900    10.050900
H       3.881600    14.222400     9.340100
H       4.316800    12.757600     8.991400
C       3.140900    13.740800     6.799500
H       3.846300    13.140000     6.545700
H       3.498500    14.624600     6.909900
H       2.468800    13.751200     6.114200
C      -1.967200    10.897300     6.834900
H      -1.728200    11.760000     6.583200
C      -3.152500    10.317500     6.640600
H      -3.896700    10.701300     6.234500
C      -1.839200     8.811200     7.687400
C      -4.132300     8.053200     7.008100
H      -3.803700     7.184100     7.253100
H      -4.427700     8.037800     6.094300
H      -4.867500     8.290200     7.577600
C      -2.484700     6.587400     9.594000
C      -3.523500     7.332600    10.145800
H      -3.651700     8.211300     9.867700
C      -4.376200     6.791400    11.107100
H      -5.070800     7.306400    11.448100
C      -4.199300     5.492000    11.559600
H      -4.771400     5.133800    12.199700
C      -3.166100     4.739100    11.048600
H      -3.029700     3.872000    11.356500
C      -2.322600     5.267800    10.073000
C      -1.181500     4.485400     9.498000
H      -0.877100     3.824700    10.140300
H      -1.469100     4.019900     8.696700
C       0.652700     5.787900    10.412900
H       1.075600     5.005600    10.776000
H       0.032600     6.143200    11.053000
H       1.320000     6.448800    10.212000
C       0.854100     4.775800     8.217700
H       1.265300     4.017900     8.638200
H       1.531600     5.401900     7.952900
H       0.365200     4.487100     7.443000
