67
Refcode: IQETIH_comp_0 | Dataset: tmCAT | Charge: unknown | Potential Spins: [1, 3, 5]
Co      2.138300    -0.261400   -10.078400
P       2.120300    -1.841100    -8.476500
C       2.305100     1.105200    -8.930800
O       2.427200     1.980100    -8.208100
C       0.518500    -0.684800   -10.682400
O      -0.533700    -0.931600   -11.043700
C       3.678100    -0.954500   -10.649900
O       4.670300    -1.421300   -10.962100
C       2.116500     1.124600   -11.562300
O       1.598500     2.184700   -11.385900
C       2.696600     0.761200   -12.916500
H       2.767300     1.560800   -13.459200
H       3.588900     0.398800   -12.797700
C       1.835500    -0.256300   -13.626100
C       2.237600    -1.590100   -13.646500
H       3.052800    -1.826200   -13.267100
C       1.452800    -2.563900   -14.207100
H       1.745500    -3.446500   -14.227500
C       0.234800    -2.229000   -14.743800
H      -0.309800    -2.889900   -15.107500
C      -0.177700    -0.923800   -14.745000
H      -1.001300    -0.708700   -15.119500
C       0.606400     0.094400   -14.195100
C       0.091300     1.499400   -14.247900
C      -1.152500     1.812100   -13.748500
H      -1.654600     1.148400   -13.334300
C      -1.674200     3.093400   -13.845800
H      -2.513000     3.284500   -13.494000
C      -0.951500     4.067500   -14.458000
H      -1.304400     4.924900   -14.532500
C       0.290900     3.791500   -14.968300
H       0.781700     4.468000   -15.375200
C       0.823900     2.507000   -14.877000
H       1.661700     2.320500   -15.234800
C       2.348600    -3.541500    -9.106400
C       1.785800    -3.854000   -10.338800
C       1.926500    -5.133500   -10.862300
C       2.630200    -6.101200   -10.154100
C       3.191700    -5.788600    -8.921200
C       3.051000    -4.508700    -8.397600
H       1.298200    -3.186500   -10.826400
H       1.534400    -5.349000   -11.713600
H       2.725100    -6.986300   -10.517900
H       3.678200    -6.458800    -8.435000
H       3.442100    -4.294800    -7.549000
C       0.623000    -1.950900    -7.417300
C       0.363200    -3.097200    -6.675200
C      -0.731800    -3.138600    -5.819900
C      -1.567300    -2.032900    -5.706700
C      -1.306400    -0.886400    -6.449300
C      -0.212500    -0.845500    -7.304000
H       0.938700    -3.860600    -6.750600
H      -0.915600    -3.928500    -5.307600
H      -2.326800    -2.059700    -5.117900
H      -1.884700    -0.121600    -6.372400
H      -0.032100    -0.052900    -7.814300
C       3.468200    -1.573600    -7.264600
C       3.210500    -0.884600    -6.085400
C       4.254200    -0.564500    -5.225100
C       5.555700    -0.933400    -5.543800
C       5.813600    -1.623600    -6.723000
C       4.769700    -1.942500    -7.583400
H       2.313600    -0.625600    -5.864600
H       4.078700    -0.077500    -4.414400
H       6.279200    -0.703600    -4.952200
H       6.713500    -1.876600    -6.940300
H       4.949000    -2.425600    -8.391700
