59
Refcode: ISAQEY_comp_0 | Dataset: tmCAT | Charge: unknown | Potential Spins: [1, 3, 5]
Ti      7.114500     3.817600    10.043200
O       6.748200     2.585500     8.642300
O       5.460900     3.471300    10.837600
C       7.914500     6.105300    10.021700
C       6.500900     6.063700     9.899700
H       5.857300     6.523300    10.512600
C       6.158100     5.460300     8.661900
H       5.235700     5.421500     8.276400
C       7.353200     5.201400     7.945100
C       7.607600     4.645000     6.669600
H       6.889400     4.355800     6.119900
C       8.885700     4.528800     6.241900
H       9.060100     4.149500     5.388100
C       9.971300     4.964800     7.046000
H      10.857100     4.894200     6.708700
C       9.773400     5.483800     8.297400
H      10.510800     5.756500     8.829000
C       8.438200     5.605600     8.791400
C       8.730800     6.571700    11.211300
H       9.679400     6.649200    10.938800
H       8.420600     7.472800    11.479400
C       8.534400     4.204900    11.953700
C       9.286200     3.573700    10.934200
H      10.114400     3.953000    10.523100
C       8.841700     2.250500    10.759600
H       9.278800     1.559900    10.182800
C       7.852200     1.997300    11.748900
C       7.100900     0.848500    12.090800
H       7.196100     0.045700    11.592300
C       6.243500     0.913500    13.138900
H       5.738000     0.145300    13.375300
C       6.087800     2.106600    13.888800
H       5.485900     2.113500    14.623700
C       6.770600     3.236000    13.590600
H       6.640200     4.031900    14.095100
C       7.689300     3.202800    12.500400
C       8.638200     5.647100    12.408500
H       9.440500     5.757900    12.977700
H       7.843600     5.882400    12.949100
C       6.311100     1.308000     8.801900
C       7.177800     0.283700     8.485700
H       8.061500     0.495500     8.208600
C       6.792600    -1.051900     8.561000
H       7.403800    -1.746700     8.339600
C       5.508500    -1.346700     8.960000
H       5.222000    -2.251900     9.014200
C       4.633800    -0.322500     9.283800
H       3.753400    -0.546700     9.560900
C       4.993800     1.028400     9.217500
C       3.980300     2.077500     9.509700
C       4.237500     3.248500    10.261100
C       3.225000     4.156500    10.482500
H       3.414700     4.948200    10.971900
C       1.941800     3.947500    10.014100
H       1.256700     4.581400    10.194900
C       1.662600     2.809700     9.279300
H       0.785800     2.656100     8.946500
C       2.671300     1.899000     9.035300
H       2.473200     1.121100     8.524800
