91
Refcode: ITOQEP_comp_0 | Dataset: tmCAT | Charge: 1 | Potential Spins: [1, 3, 5]
C       1.242400     5.261600     3.988500
C      -0.283400     4.807200     4.207400
C      -1.197100     5.658200     4.726700
C      -2.515500     5.210100     4.940200
H      -3.161200     5.781500     5.288200
C      -2.819800     3.936000     4.629100
H      -3.691400     3.636300     4.750400
C      -1.831500     3.028900     4.117700
H      -2.057900     2.151500     3.912100
C      -0.583300     3.464500     3.938500
C       0.704300     2.672900     3.540400
H       0.537200     1.719000     3.398000
C       1.226400     3.338100     2.359400
C       1.554600     2.827500     1.130900
H       1.375500     1.932900     0.946400
C       2.146600     3.608200     0.158200
H       2.268000     3.255300    -0.693300
C       2.560600     4.885300     0.411200
H       3.039800     5.369300    -0.221400
C       2.241500     5.431800     1.639700
C       1.568500     4.698000     2.586100
C       1.989900     4.271700     4.948100
C       2.916200     4.630800     5.865500
C       3.509800     3.650300     6.643200
H       4.102700     3.875100     7.323300
C       3.202400     2.332600     6.379600
H       3.633200     1.667500     6.867300
C       2.310500     1.971900     5.451600
C       1.668700     2.944600     4.695000
C      -1.635600     8.588700     4.911200
C      -1.593300     9.728500     5.636200
H      -1.037800     9.778400     6.379600
C      -2.364500    10.826100     5.288200
H      -2.352700    11.609800     5.789100
C      -3.149200    10.698000     4.162500
H      -3.657400    11.428700     3.891000
C      -3.216700     9.561400     3.434900
H      -3.786500     9.491100     2.704700
C      -2.432800     8.535600     3.809300
H      -2.433600     7.761200     3.292600
C      -0.550600     7.080500     7.091300
C       0.594500     6.868200     7.813700
H       1.418400     6.847900     7.381300
C       0.530900     6.683900     9.173900
H       1.315100     6.527800     9.648400
C      -0.631500     6.724500     9.838200
H      -0.635800     6.613700    10.760900
C      -1.833600     6.930600     9.155500
H      -2.649900     6.943100     9.601000
C      -1.753300     7.113300     7.826800
H      -2.541600     7.269400     7.360200
C       2.510700     8.334200     0.980700
C       3.189100     9.545800     1.157300
H       3.780700     9.650400     1.869100
C       2.981500    10.552800     0.300500
H       3.429200    11.358500     0.419200
C       2.122400    10.409200    -0.738100
H       1.989200    11.105500    -1.339200
C       1.454200     9.208500    -0.888400
H       0.857600     9.107100    -1.594900
C       1.648800     8.157800    -0.018500
H       1.193200     7.353700    -0.123900
C       4.616700     6.960300     2.398900
C       5.433300     6.718300     1.291700
H       5.035800     6.616800     0.456100
C       6.755200     6.627700     1.378700
H       7.283400     6.507500     0.624800
C       7.293500     6.716700     2.594000
H       8.217800     6.655800     2.670500
C       6.559300     6.894700     3.746000
H       6.971600     6.929000     4.579100
C       5.196200     7.019600     3.627400
H       4.670000     7.142900     4.384000
C       2.532500     9.806500     5.380500
H       2.988100     9.247600     5.968300
C       2.615500    11.202300     5.530700
H       3.151000    11.544300     6.213500
C       1.987500    12.031400     4.750400
H       2.086100    12.944700     4.905900
C       1.183200    11.614500     3.695900
H       0.784600    12.209400     3.100200
C       1.017300    10.257700     3.611600
H       0.388200     9.909600     3.021100
N       1.846000     9.314700     4.463100
O       3.184000     5.967300     6.076400
H       3.935900     6.048500     6.392700
O       2.020800     0.640100     5.164300
H       2.577100     0.156100     5.522800
P      -0.490700     7.205400     5.317400
P       2.790600     7.041500     2.313000
Pt      1.456200     7.264900     4.144900
