53
Refcode: ITOZOH_comp_0 | Dataset: tmCAT | Charge: unknown | Potential Spins: [1, 3, 5]
Pd      4.138200    13.741000    11.317300
Cl      3.412900    11.972600    12.732300
P       2.678700    13.636200     9.486200
C       2.259000    15.283800     8.728100
H       1.739800    15.093700     7.871600
H       3.149400    15.590400     8.446900
C       1.573800    16.479500     9.446500
C       2.098400    16.703000    10.857400
H       1.918200    15.912200    11.469500
H       1.579200    17.474300    11.336000
H       3.078100    16.900000    10.916900
C       1.958400    17.714300     8.607900
H       2.810400    17.840500     8.683800
H       1.507800    18.506400     8.990400
H       1.677300    17.549200     7.712200
C       0.054400    16.404700     9.435200
H      -0.374700    17.244000     9.734300
H      -0.285500    16.217400     8.592700
H      -0.232000    15.759600     9.989400
C       1.062600    12.702600     9.806100
C       0.526400    13.194500    11.159800
H       1.133100    12.998900    11.840000
H       0.365800    14.108700    11.188700
H      -0.312300    12.721400    11.249400
C       0.000900    12.906000     8.724800
H      -0.740500    12.402400     8.987400
H      -0.178400    13.720300     8.621500
H       0.249800    12.527200     7.864000
C       1.349900    11.194000     9.962000
H       1.989600    10.973500    10.719600
H       0.526400    10.779200    10.177600
H       1.650600    10.826400     9.177200
C       3.604400    12.808000     8.048400
C       4.606400    13.788300     7.436900
H       4.211100    14.386200     6.968300
H       5.192500    14.144800     8.056800
H       5.174700    13.290200     6.846800
C       4.411900    11.631000     8.620000
H       4.951700    11.250900     7.894300
H       5.005200    11.944600     9.271300
H       3.881000    10.918000     8.850800
C       2.713100    12.316400     6.896900
H       2.150200    11.570000     7.162600
H       3.310000    11.916800     6.230400
H       2.194800    12.929500     6.596300
C       5.806400    14.173900    12.682500
H       5.647600    14.150400    13.610100
H       6.316700    13.484500    12.296900
C       5.493200    15.278200    11.950800
H       5.076600    16.064800    12.372800
C       5.454000    15.221300    10.558700
H       5.255000    15.912200    10.106300
H       6.075800    14.663700    10.323400
