89
Refcode: ITOZIB_comp_0 | Dataset: tmCAT | Charge: 0 | Potential Spins: [1, 3, 5]
Pd      3.080500     9.509800     8.883200
Cl      1.184200     8.641100     7.905300
P       2.046900     9.400000    11.062900
C       2.750800    10.637400    12.247800
H       3.655600    10.403700    12.209100
H       2.457800    10.386500    13.100900
C       2.659800    12.196800    12.121700
C       2.607500    12.708800    10.683100
H       2.474100    13.703500    10.709600
H       3.456100    12.562400    10.245900
H       1.864700    12.294200    10.167700
C       3.949200    12.736600    12.769600
H       3.955600    13.711200    12.791800
H       4.761800    12.436900    12.294300
H       4.038300    12.398800    13.678300
C       1.484000    12.774400    12.909400
H       1.471300    12.414000    13.836500
H       0.623400    12.589000    12.496900
H       1.580800    13.735900    12.960600
C       2.658900     7.772100    11.835800
C       1.990300     7.438300    13.177900
H       1.057300     7.252100    13.058300
H       2.094300     8.146100    13.811600
H       2.418200     6.660600    13.548700
C       2.416600     6.629600    10.839600
H       1.509200     6.531300    10.624300
H       2.925800     6.791900    10.052200
H       2.743700     5.770500    11.278100
C       4.172100     7.846300    12.083100
H       4.661800     8.121300    11.336700
H       4.464600     6.957300    12.338800
H       4.386000     8.433200    12.786500
C       0.148400     9.492800    11.229300
C      -0.305200     9.791600    12.670800
H      -0.145700     9.053300    13.266200
H       0.075200    10.597700    13.051200
H      -1.278700     9.911100    12.656800
C      -0.338300    10.635700    10.323200
H      -0.056700    11.518200    10.640300
H      -0.066900    10.496900     9.437500
H      -1.302900    10.631900    10.363100
C      -0.560300     8.202000    10.790100
H      -1.519600     8.370500    10.802000
H      -0.413200     7.482300    11.407800
H      -0.329600     7.925400     9.908300
Cl      4.976700    10.378400     9.861100
P       4.114100     9.619500     6.703500
C       3.410200     8.382100     5.518600
H       2.505400     8.615800     5.557300
H       3.703200     8.633000     4.665500
C       3.501200     6.822700     5.644700
C       3.553500     6.310700     7.083300
H       3.686900     5.316000     7.056800
H       2.704900     6.457100     7.520500
H       4.296200     6.725300     7.598700
C       2.211700     6.282900     4.996800
H       2.205400     5.308300     4.974600
H       1.399100     6.582600     5.472100
H       2.122700     6.620700     4.088000
C       4.677000     6.245100     4.857000
H       4.689700     6.605500     3.929900
H       5.537600     6.430500     5.269500
H       4.580200     5.283600     4.805800
C       3.502100    11.247400     5.930600
C       4.170700    11.581200     4.588500
H       5.103700    11.767400     4.708100
H       4.066700    10.873400     3.954800
H       3.742800    12.358900     4.217700
C       3.744400    12.389900     6.926800
H       4.651800    12.488200     7.142100
H       3.235200    12.227600     7.714200
H       3.417300    13.249000     6.488300
C       1.988900    11.173200     5.683300
H       1.499200    10.898200     6.429700
H       1.696400    12.062200     5.427600
H       1.775000    10.586300     4.979900
C       6.012500     9.526700     6.537100
C       6.466200     9.227900     5.095600
H       6.306700     9.966200     4.500200
H       6.085800     8.421800     4.715200
H       7.439700     9.108400     5.109600
C       6.499300     8.383800     7.443200
H       6.217700     7.501300     7.126100
H       6.227900     8.522600     8.328900
H       7.463900     8.387600     7.403300
C       6.721300    10.817500     6.976300
H       7.680500    10.649000     6.964400
H       6.574100    11.537200     6.358600
H       6.490600    11.094100     7.858100
