51
Refcode: IVEMOL_comp_0 | Dataset: tmCAT | Charge: 1 | Potential Spins: [1, 3, 5]
Ru      5.072500    12.132600     9.611000
Cl      2.697000    11.867100     9.318200
N       5.024300    10.389000    11.004100
N       4.520900    13.067200    11.416400
H       4.933600    13.876200    11.473100
H       3.622300    13.210000    11.417200
C       4.681900     8.626700     9.221100
H       4.122800     7.869800     8.988500
H       5.605400     8.336700     9.289400
H       4.607200     9.306300     8.532800
C       4.236900     9.193300    10.539000
H       4.301300     8.491400    11.219500
H       3.293000     9.449100    10.467200
C       6.400100     9.925000    11.441700
H       7.011800    10.687900    11.511800
H       6.768900     9.288500    10.793900
C       6.217100     9.252800    12.814300
H       6.978200     9.449100    13.398900
H       6.139600     8.280200    12.715400
C       4.914600     9.849100    13.389900
H       4.248700     9.147200    13.540800
H       5.088700    10.311600    14.237200
C       4.430100    10.836600    12.319500
H       3.440800    10.811300    12.264100
C       4.886800    12.247800    12.584800
H       4.452100    12.597300    13.390300
H       5.857100    12.268700    12.719700
C       7.115700    12.936400     9.507300
C       7.073300    11.679800     8.841500
H       7.568000    10.919800     9.242100
C       6.170300    11.410600     7.788700
H       6.044400    10.475200     7.488300
C       5.224800    12.405500     7.384700
C       5.264400    13.647200     8.066900
H       4.515000    14.282200     7.935300
C       6.161500    13.897000     9.086900
H       6.035600    14.709000     9.637600
C       8.109500    13.213000    10.587200
H       8.917300    13.581800    10.196400
H       8.323200    12.387600    11.047600
H       7.734800    13.848000    11.215200
C       4.251600    12.194300     6.258800
H       3.410000    12.656800     6.499600
C       4.816500    12.887300     5.008400
H       5.000900    13.818200     5.210000
H       4.168200    12.835200     4.290100
H       5.636100    12.447100     4.737100
C       3.906200    10.744400     5.968700
H       3.546200    10.331000     6.770400
H       4.706700    10.270000     5.691400
H       3.247600    10.704200     5.257300
