107
Refcode: IWIFIE_comp_0 | Dataset: tmCAT | Charge: unknown | Potential Spins: [1, 3, 5]
Ni      6.576800     9.752400     8.949800
O       7.802100    11.076800     8.411100
N       8.968500     8.584900     7.975100
N       7.272900     7.380100     7.387300
C       9.097700    10.906600     8.686100
C       9.906600    11.976900     9.149100
C      11.243200    11.715800     9.457000
H      11.772800    12.439600     9.769600
C      11.854000    10.476400     9.338800
C      11.063000     9.443400     8.856700
H      11.437300     8.577300     8.750500
C       9.736400     9.659300     8.528600
C       9.309300    13.375400     9.318500
C       8.130400    13.331300    10.314900
H       7.465600    12.680900    10.005900
H       7.718200    14.218000    10.372200
H       8.459700    13.067000    11.199200
C       8.800900    13.894800     7.957000
H       9.555100    13.980300     7.337600
H       8.377600    14.770200     8.079900
H       8.146800    13.263600     7.590600
C      10.314800    14.393700     9.854300
H      10.624200    14.112500    10.741000
H       9.885700    15.272500     9.922300
H      11.080000    14.450300     9.244500
C      13.309500    10.201900     9.738600
C      14.059500     9.678200     8.519000
H      14.212200    10.412800     7.887800
H      13.528000     8.979400     8.083500
H      14.921200     9.306500     8.800600
C      13.355800     9.126000    10.777900
H      14.263900     8.764900    10.834000
H      12.731700     8.411000    10.534500
H      13.099300     9.501300    11.646700
C      14.038200    11.424400    10.231400
H      13.599000    11.762200    11.040500
H      14.020500    12.116100     9.538100
H      14.967800    11.190300    10.435500
C       9.458200     7.519000     7.227900
H      10.367800     7.351200     7.014300
C       8.414000     6.780800     6.868700
H       8.443000     5.985700     6.349600
C       7.619600     8.502700     8.097800
C       5.938500     6.913100     7.183700
C       5.665400     5.565500     7.347200
H       6.350000     4.949000     7.581100
C       4.349300     5.147400     7.156300
H       4.132700     4.230500     7.273200
C       3.367300     6.023200     6.805400
H       2.479600     5.714000     6.670600
C       3.660400     7.344000     6.647900
H       2.975100     7.955300     6.410400
C       4.955600     7.797500     6.830500
H       5.160000     8.716700     6.712300
O       5.351400    11.076800     9.488500
N       4.185100     8.584900     9.924500
N       5.880700     7.380100    10.512300
C       4.055900    10.906600     9.213500
C       3.247000    11.976900     8.750500
C       1.910400    11.715800     8.442600
H       1.380800    12.439600     8.130000
C       1.299600    10.476400     8.560800
C       2.090600     9.443400     9.042900
H       1.716300     8.577300     9.149100
C       3.417200     9.659300     9.371000
C       3.844300    13.375400     8.581100
C       5.023200    13.331300     7.584700
H       5.688000    12.680900     7.893700
H       5.435300    14.218000     7.527400
H       4.693900    13.067000     6.700400
C       4.352700    13.894800     9.942600
H       3.598500    13.980300    10.562000
H       4.776000    14.770200     9.819700
H       5.006800    13.263600    10.309000
C       2.838800    14.393700     8.045300
H       2.529400    14.112500     7.158600
H       3.267900    15.272500     7.977300
H       2.073600    14.450300     8.655100
C      -0.155900    10.201900     8.161000
C      -0.905900     9.678200     9.380600
H      -1.058600    10.412800    10.011800
H      -0.374400     8.979400     9.816100
H      -1.767600     9.306500     9.099000
C      -0.202200     9.126000     7.121700
H      -1.110300     8.764900     7.065600
H       0.421900     8.411000     7.365100
H       0.054300     9.501300     6.252900
C      -0.884600    11.424400     7.668200
H      -0.445400    11.762200     6.859100
H      -0.866900    12.116100     8.361500
H      -1.814200    11.190300     7.464100
C       3.695400     7.519000    10.671700
H       2.785800     7.351200    10.885300
C       4.739500     6.780800    11.030900
H       4.710600     5.985700    11.550000
C       5.534000     8.502700     9.801800
C       7.215100     6.913100    10.715900
C       7.488200     5.565500    10.552400
H       6.803600     4.949000    10.318500
C       8.804300     5.147400    10.743300
H       9.020900     4.230500    10.626400
C       9.786300     6.023200    11.094200
H      10.673900     5.714000    11.229000
C       9.493200     7.344000    11.251700
H      10.178500     7.955300    11.489200
C       8.198000     7.797500    11.069100
H       7.993600     8.716700    11.187200
