71
Refcode: IZIYAS_comp_0 | Dataset: tmCAT | Charge: 0 | Potential Spins: [1, 3, 5]
Ni      4.568200     5.444000     1.819700
Cl      4.021600     4.896900    -0.413600
N       6.439100     4.369500     1.673600
N       4.834100     5.009300     3.728200
N       2.603000     6.185900     2.105500
N       5.308400     7.332700     1.472000
C       7.027100     4.360200     3.020700
C       8.343400     3.987700     3.270600
H       8.929100     3.804600     2.544400
C       8.808100     3.881300     4.583900
H       9.715700     3.657500     4.755500
C       7.929000     4.105500     5.639300
H       8.234400     4.005100     6.532600
C       6.603700     4.476200     5.400200
H       6.017400     4.616000     6.134200
C       6.118000     4.647200     4.077500
C       3.922100     5.331600     4.771200
C       4.066200     6.526200     5.516200
H       4.830100     7.071800     5.374800
C       3.116000     6.918200     6.450300
H       3.232900     7.725500     6.938900
C       1.991600     6.126900     6.670900
H       1.336100     6.392700     7.303800
C       1.837800     4.949200     5.958400
H       1.067000     4.414200     6.110500
C       2.792600     4.522200     5.014800
C       2.571200     3.226000     4.299600
C       1.298500     2.936200     3.775600
H       0.606200     3.582700     3.842200
C       1.038700     1.717800     3.161000
H       0.175900     1.538700     2.806700
C       2.041000     0.761500     3.063700
H       1.862800    -0.074900     2.648900
C       3.308600     1.032700     3.575600
H       3.995700     0.379700     3.512800
C       3.569500     2.261000     4.179100
H       4.439600     2.443700     4.512900
C       6.059500     2.959700     1.338100
H       6.866500     2.404900     1.297800
H       5.607600     2.941000     0.469400
H       5.456700     2.610800     2.027600
C       7.357000     4.894800     0.625400
H       7.686100     5.777700     0.891500
H       6.874500     4.969000    -0.224900
H       8.115200     4.281800     0.518700
C       2.341400     7.288500     2.827400
H       3.075100     7.793700     3.157800
C       1.054000     7.731600     3.116000
H       0.921700     8.519600     3.631200
C      -0.044700     7.005200     2.641200
C       0.223600     5.867400     1.888200
H      -0.490400     5.347300     1.540400
C       1.543500     5.492100     1.646600
H       1.703900     4.709600     1.134100
C      -1.467000     7.452100     2.929200
H      -1.449600     8.285600     3.443800
H      -1.928600     6.759000     3.445800
H      -1.940000     7.601200     2.084800
C       4.848200     8.060400     0.429400
H       4.208000     7.669300    -0.153800
C       5.276200     9.354300     0.180300
H       4.922000     9.832300    -0.560200
C       6.225200     9.963200     1.013000
C       6.689800     9.202400     2.087400
H       7.330800     9.566300     2.686400
C       6.211000     7.909400     2.279500
H       6.539600     7.411300     3.017800
C       6.700800    11.372500     0.776900
H       5.936800    11.984600     0.808700
H       7.128700    11.429800    -0.102600
H       7.347800    11.619600     1.471400
