44
Refcode: JAPMUJ_comp_0 | Dataset: tmCAT | Charge: unknown | Potential Spins: [1, 3, 5]
Rh      0.473500     2.926100     1.738300
Cl      1.644300     2.067900     3.628200
Cl      2.286900     4.586600     1.296200
P      -0.598200     4.348600     3.291400
P       1.760200     1.427500     0.433500
F      -1.247100     1.431700    -0.930600
F      -3.566000     1.673900    -2.244600
F      -5.901100     2.031300    -0.900900
F      -5.888700     1.981400     1.812000
F      -3.594400     1.733500     3.154000
O      -0.973200     0.686100     2.789200
O      -0.618000     4.418200    -0.601400
C      -1.009000     1.558600     1.984200
C      -2.319000     1.666200     1.162200
C      -2.370800     1.627800    -0.216300
C      -3.550000     1.725800    -0.932300
C      -4.724300     1.879500    -0.246900
C      -4.744000     1.871800     1.145200
C      -3.547500     1.739200     1.836600
C      -0.261500     3.810900     0.269800
C      -1.321100     3.520700     4.693600
C       0.520500     5.559800     4.020900
C      -1.923000     5.365700     2.604300
C       3.530300     1.458600     0.890700
C       1.787300     1.773800    -1.322500
C       1.285300    -0.309400     0.593800
H      -0.648800     2.946100     5.115200
H      -2.078400     2.974900     4.395900
H      -1.633200     4.187600     5.340900
H       1.284100     5.096600     4.428100
H       0.044400     6.067100     4.714000
H       0.840000     6.170900     3.329600
H      -1.587500     5.855700     1.827200
H      -2.231400     6.001800     3.284600
H      -2.668100     4.791000     2.333700
H       3.622800     1.283800     1.849300
H       3.906500     2.338800     0.680300
H       4.010100     0.770600     0.384300
H       2.035300     2.709700    -1.467600
H       0.898000     1.608500    -1.700800
H       2.441100     1.189600    -1.760200
H       1.261900    -0.557300     1.541400
H       1.937800    -0.870600     0.125500
H       0.397200    -0.443900     0.199400
