87
Refcode: JAVTUW_comp_0 | Dataset: tmCAT | Charge: unknown | Potential Spins: [1, 3, 5]
Rh      6.770000    13.918900     2.760400
Cl      7.867200    12.657600     4.466800
C       6.080300    14.938300     1.429900
O       5.650100    15.593600     0.629600
P       7.208700    12.109000     1.397000
C       6.177800    15.365900     4.090300
N       5.227000    15.167800     5.023900
C       4.912000    16.395800     5.787300
C       6.015800    17.347900     5.342900
N       6.604000    16.628600     4.189900
C       4.358800    14.027900     5.109700
C       3.272900    13.912800     4.220200
C       2.392500    12.851900     4.385400
C       2.569300    11.904600     5.383900
C       3.663600    12.035000     6.234100
C       4.549200    13.098300     6.136000
C       3.062900    14.889200     3.095100
C       1.573600    10.786700     5.562200
C       5.668900    13.248000     7.132900
C       7.594300    17.231100     3.341800
C       7.173600    18.152000     2.373500
C       8.134400    18.715400     1.546700
C       9.489600    18.402000     1.666200
C       9.863400    17.494800     2.636200
C       8.941400    16.898800     3.498500
C       5.717900    18.533600     2.228700
C      10.526400    19.053400     0.784800
C       9.400900    15.932700     4.550200
C       6.254400    10.638000     1.920600
C       5.399300    10.727000     3.010100
C       4.614700     9.633100     3.362600
C       4.681100     8.459300     2.642800
C       5.537800     8.363100     1.567300
C       6.317800     9.445600     1.198400
C       6.714800    12.217100    -0.364400
C       5.407800    12.646800    -0.618800
C       4.951400    12.789300    -1.922300
C       5.783800    12.510200    -2.990800
C       7.065400    12.057400    -2.752300
C       7.534600    11.905600    -1.445000
C       8.958800    11.595500     1.319700
C       9.433400    10.369900     1.766200
C      10.798600    10.072800     1.689400
C      11.677800    10.978200     1.160900
C      11.232700    12.197800     0.726800
C       9.870700    12.514900     0.820300
H       4.007400    16.689500     5.578100
H       4.954400    16.215500     6.716300
H       5.743400    18.149800     5.011200
H       6.687800    17.464200     6.043200
H       1.684900    12.770200     3.870900
H       3.754200    11.395600     6.971100
H       3.301900    15.722300     3.371900
H       2.219600    14.868900     2.845300
H       3.621800    14.680000     2.274200
H       2.017100    10.091000     5.508100
H       1.085700    10.720600     4.862600
H       1.292300    10.855200     6.376500
H       5.768700    12.539400     7.548700
H       5.531000    13.816100     7.680300
H       6.518700    13.413800     6.586800
H       7.840700    19.353000     0.811100
H      10.799600    17.271800     2.711600
H       5.462200    19.214800     2.885700
H       5.174400    17.849000     2.323000
H       5.590900    18.833600     1.352600
H      11.440500    18.538000     0.789900
H      10.828700    19.921400     1.095700
H      10.211400    19.186900    -0.121000
H      10.279100    16.157800     4.837100
H       8.869400    15.939200     5.229900
H       9.498400    14.954600     4.221300
H       5.340000    11.546000     3.588500
H       4.058700     9.694000     4.062000
H       4.182900     7.731800     2.889900
H       5.553700     7.514900     1.044700
H       6.797000     9.513900     0.422600
H       4.797300    12.822700     0.057300
H       4.055600    13.043100    -2.032100
H       5.500500    12.541100    -3.841200
H       7.643200    11.873100    -3.473900
H       8.367200    11.617700    -1.259200
H       8.898200     9.788400     2.157400
H      11.076700     9.253300     1.976900
H      12.669100    10.818500     1.123300
H      11.870200    12.775500     0.348200
H       9.540000    13.268700     0.513900
