80
Refcode: JEDLEM_comp_0 | Dataset: tmCAT | Charge: 0 | Potential Spins: [1, 3, 5]
C       3.840500     3.255600     9.880300
C       3.251400     4.471800    10.211500
H       3.301900     4.773300    11.089500
C       2.567200     5.275600     9.234500
H       2.176400     6.082200     9.487000
C       2.486700     4.850300     7.909800
C       3.069300     3.584900     7.576100
H       3.005700     3.270300     6.703200
C       3.726200     2.821500     8.525200
H       4.100200     2.006600     8.275200
C       4.540800     2.423500    10.892800
H       4.878900     1.628100    10.475400
H       5.271000     2.922200    11.267100
H       3.926500     2.183400    11.590700
C       1.787600     5.643300     6.836400
H       2.301500     5.535400     6.009100
C       1.681200     7.127500     7.119300
H       1.225900     7.559000     6.393600
H       1.187300     7.262200     7.932700
H       2.560300     7.499000     7.213200
C       0.403300     5.017400     6.608000
H      -0.060400     5.508700     5.926700
H       0.506400     4.104400     6.331400
H      -0.100800     5.049600     7.425100
C       4.396000     8.016100     9.889200
C       4.384100     8.997700     8.903300
H       5.062900     9.014900     8.267600
C       3.383800     9.948800     8.850000
H       3.397200    10.608800     8.195300
C       2.367800     9.911600     9.773700
C       2.337400     8.957500    10.762100
H       1.642300     8.939500    11.378800
C       3.365000     8.016700    10.824300
H       3.361500     7.380300    11.500600
C       0.812300    11.537500    10.602300
C      -0.244000    12.454500    10.084600
C      -0.427100    12.641800     8.723100
H       0.099400    12.166800     8.123000
C      -1.366800    13.510200     8.248600
H      -1.450100    13.641600     7.331200
C      -2.188200    14.190200     9.108900
H      -2.845500    14.759900     8.777700
C      -2.032400    14.023700    10.464000
H      -2.590200    14.480600    11.051400
C      -1.054000    13.182600    10.962600
C      -1.282500    12.023200    13.000300
C      -1.017600    12.143900    14.468300
H      -0.620200    12.998900    14.652300
H      -1.844100    12.064400    14.950500
H      -0.417600    11.446500    14.743700
C       7.109000     7.530200     9.182400
C       7.521000     8.672000     9.860000
H       7.041500     8.962800    10.602300
C       8.629200     9.381600     9.446400
H       8.882200    10.153300     9.899300
C       9.362500     8.951300     8.366600
H      10.112500     9.425100     8.084900
C       8.967200     7.809800     7.706800
H       9.458200     7.514200     6.974700
C       7.855600     7.093400     8.109000
H       7.610600     6.319300     7.656100
C       6.112100     6.260800    11.500600
C       5.978900     7.136800    12.572700
H       5.538200     7.947500    12.454700
C       6.501600     6.809000    13.814900
H       6.405400     7.399200    14.526700
C       7.155000     5.626300    14.001400
H       7.500100     5.412500    14.837600
C       7.303800     4.748700    12.948300
H       7.753900     3.945200    13.071400
C       6.781200     5.067600    11.715000
H       6.880000     4.467900    11.010800
Cl      5.102900     6.121300     6.584700
Cl      6.791000     3.801100     8.394800
O       1.338100    10.825000     9.570700
O       1.195500    11.428700    11.712500
O      -0.888100    13.145400    12.352000
O      -1.769200    11.082000    12.459800
P       5.609200     6.654700     9.779300
Ru      4.621300     4.862900     8.575300
