73
Refcode: JELWED_comp_1 | Dataset: tmCAT | Charge: 1 | Potential Spins: [1, 3, 5]
Ru      8.425000     5.074100     8.990200
Cl      6.142600     4.765100     9.650400
P       8.593200     6.170500    11.073700
O       9.982500     6.963700    11.071000
C       9.832900     6.171100     7.670000
C       8.710600     7.027100     7.851300
C       7.579400     6.384100     7.311400
C       7.979200     5.117000     6.800400
C       9.363600     5.005200     6.963200
C      11.249900     6.531700     7.935800
H      11.282500     7.358100     8.422200
H      11.717800     6.630800     7.103300
H      11.664500     5.838000     8.455100
C       8.811300     8.465000     8.277900
H       9.690800     8.633700     8.624100
H       8.158300     8.642100     8.957900
H       8.649900     9.034300     7.521600
C       6.217200     6.961800     7.142500
H       6.183200     7.826200     7.554600
H       5.571600     6.384100     7.554600
H       6.020300     7.046100     6.204800
C       7.073000     4.174500     6.064700
H       6.169800     4.497100     6.112100
H       7.123400     3.303800     6.466500
H       7.344000     4.119700     5.145600
C      10.254900     3.982700     6.320200
H      11.161100     4.126000     6.602500
H      10.200100     4.064900     5.366100
H       9.975100     3.103500     6.581900
C      10.191200     4.031200     9.732800
H      10.469600     4.168200     8.857000
H      10.651700     4.431800    10.435500
C       9.083700     3.220500     9.998600
H       8.803900     3.080300    10.874400
C       8.401200     2.622800     8.937300
H       8.728400     2.776700     8.080100
C       7.218100     1.779400     9.054800
C       6.819800     1.050000     7.931700
H       7.262500     1.170100     7.123900
C       5.762700     0.147600     8.016200
H       5.490200    -0.322600     7.262000
C       5.130400    -0.042200     9.215500
H       4.431600    -0.653600     9.273200
C       5.516900     0.662000    10.340700
H       5.084500     0.518700    11.150600
C       6.540000     1.574900    10.262400
H       6.784300     2.062000    11.016600
C      10.420700     7.891600    12.108800
H      11.288400     8.235200    11.884200
H      10.465200     7.431900    12.949600
H       9.795900     8.616800    12.172700
C       8.685400     5.055000    12.504400
C       7.535000     4.414900    12.931000
H       6.714700     4.651000    12.562100
C       7.589800     3.434500    13.897500
H       6.809500     3.006500    14.167500
C       8.781700     3.086600    14.460100
H       8.814200     2.420400    15.109200
C       9.933600     3.719100    14.070600
H      10.742000     3.495600    14.470400
C       9.895100     4.697400    13.079400
H      10.681300     5.110600    12.803300
C       7.304000     7.349700    11.583300
C       7.213700     7.746100    12.912500
H       7.801500     7.396100    13.541000
C       6.257200     8.656900    13.304000
H       6.205400     8.918300    14.194200
C       5.389500     9.171300    12.399400
H       4.736600     9.774300    12.673400
C       5.472400     8.804500    11.068100
H       4.893500     9.177600    10.443700
C       6.428900     7.872600    10.664200
H       6.473400     7.606900     9.774000
