66
Refcode: JELWIH_comp_1 | Dataset: tmCAT | Charge: 1 | Potential Spins: [1, 3, 5]
Ru     10.232400     3.420900     0.634700
P      12.318200     2.987600     1.473200
O      12.581100     1.503400     2.097200
N       9.446900     4.033100     2.455800
N      10.750800     5.392100     0.288500
C       9.989500     1.432400    -0.274500
C      10.316900     2.396200    -1.291000
C       9.237000     3.341600    -1.339400
C       8.280000     3.009900    -0.335200
C       8.766300     1.827400     0.344800
C      10.718700     0.142800    -0.053300
H      11.511600     0.126700    -0.592300
H      10.149900    -0.591900    -0.297000
H      10.958800     0.065600     0.872200
C      11.440700     2.294900    -2.277600
H      11.443300     3.072100    -2.840200
H      11.323300     1.509600    -2.816300
H      12.275000     2.237300    -1.807500
C       9.142100     4.475800    -2.317400
H       9.915900     4.473500    -2.886300
H       9.100000     5.307100    -1.840000
H       8.351100     4.372100    -2.852100
C       6.975400     3.685900    -0.100700
H       6.528000     3.270200     0.640100
H       6.431200     3.611000    -0.887600
H       7.127000     4.613900     0.095600
C       8.025400     1.100800     1.430500
H       7.232400     1.590200     1.659000
H       8.587400     1.022500     2.205200
H       7.782500     0.224500     1.121400
C      10.986700     6.457400    -0.039900
C      11.309800     7.803500    -0.489900
H      10.737300     8.014200    -1.211900
H      12.245000     7.783900    -0.733900
H      11.130600     8.486300     0.204800
C       8.933500     4.428600     3.399000
C       8.325500     4.969700     4.607100
H       8.251000     4.248900     5.240000
H       8.800100     5.688300     4.932700
H       7.485100     5.296800     4.386600
C      13.078700     4.075100     2.737400
C      12.423000     5.193100     3.255300
H      11.569600     5.407300     2.956200
C      13.040200     5.992200     4.218800
H      12.592600     6.726900     4.570900
C      14.320900     5.686000     4.648900
H      14.734300     6.221400     5.287800
C      14.992900     4.586300     4.133100
H      15.854300     4.388300     4.422400
C      14.374300     3.781400     3.184800
H      14.823700     3.042200     2.843600
C      13.660100     2.970800     0.244800
C      14.459500     1.861900    -0.017800
H      14.319400     1.068600     0.445500
C      15.467400     1.941400    -0.974800
H      15.997800     1.197500    -1.148700
C      15.689500     3.125100    -1.673400
H      16.362700     3.173500    -2.312800
C      14.897100     4.230500    -1.405700
H      15.038900     5.025000    -1.867300
C      13.896400     4.155700    -0.454700
H      13.373800     4.905300    -0.278200
C      11.754200     1.092700     3.202700
H      12.005400     0.208400     3.478500
H      10.832600     1.093900     2.930600
H      11.873100     1.703000     3.934200
