108
Refcode: JEPQUT_comp_0 | Dataset: tmCAT | Charge: unknown | Potential Spins: [1, 3, 5]
Cl     -1.674100     8.796400     7.009200
Cl      1.589800    10.001000    10.308400
Ru     -0.221800     9.395200     8.853900
C       0.446600     7.430500     8.990800
N       1.492700     6.874600     8.330800
C       2.380300     7.435800     7.356000
C       2.076000     7.267500     5.994400
C       0.802700     6.602700     5.554500
H       0.708500     5.741900     6.013300
H       0.829100     6.455600     4.586000
H       0.040500     7.176800     5.777200
C       2.999800     7.737500     5.060300
H       2.810900     7.639000     4.134600
C       4.190300     8.345700     5.444900
C       5.158000     8.883400     4.415300
H       5.226300     9.856700     4.507500
H       4.836000     8.662400     3.516300
H       6.040500     8.479700     4.554000
C       4.474300     8.445300     6.786800
H       5.291800     8.847000     7.056100
C       3.598100     7.974400     7.763700
C       4.022300     8.019700     9.209500
H       3.271000     7.750500     9.778900
H       4.296800     8.931400     9.440800
H       4.773500     7.406500     9.348800
C       1.821900     5.509100     8.768900
H       2.674100     5.488900     9.272300
H       1.884200     4.890000     7.998900
C       0.649800     5.160700     9.659900
H       0.067500     4.480300     9.237500
H       0.954900     4.825800    10.540100
N      -0.050400     6.457100     9.792800
C      -1.077900     6.537100    10.785200
C      -2.380000     6.182700    10.464100
C      -2.750900     5.839900     9.055000
H      -2.540500     6.596400     8.468500
H      -3.710300     5.646800     9.007800
H      -2.244400     5.052100     8.766200
C      -3.327600     6.165800    11.490100
H      -4.225300     5.932600    11.285400
C      -2.997900     6.478100    12.795200
C      -4.043500     6.480900    13.884700
H      -4.897500     6.168000    13.519500
H      -4.151200     7.391000    14.232600
H      -3.761400     5.885600    14.610700
C      -1.691400     6.802000    13.078500
H      -1.458200     7.014700    13.974400
C      -0.696600     6.829900    12.100500
C       0.709500     7.171100    12.422700
H       0.755800     7.543300    13.328200
H       1.040500     7.832800    11.780200
H       1.261200     6.362800    12.373100
C      -0.566600    11.535300     8.440000
C      -0.191600    12.168000     7.305100
N       0.613600    11.603200     6.312300
C       1.341600    10.373700     6.478300
H       0.791200     9.623500     6.171100
H       1.563300    10.250200     7.425100
H       2.167900    10.409500     5.951900
C       0.656200    12.405600     5.197200
C       1.192400    12.194500     3.946000
H       1.662200    11.395300     3.738700
C       1.017500    13.204300     2.991100
H       1.370600    13.087600     2.117200
C       0.336500    14.368600     3.300100
H       0.237600    15.038100     2.633500
C      -0.206000    14.583400     4.566600
H      -0.667000    15.387000     4.777000
C      -0.045800    13.578100     5.504800
N      -0.509200    13.447700     6.803700
C      -1.212700    14.493900     7.513200
H      -1.074100    15.349200     7.055300
H      -0.870100    14.554500     8.429400
H      -2.170200    14.286600     7.535500
C      -1.399000    12.207900     9.387000
N      -2.748400    12.241200     9.375700
C      -3.593900    11.606700     8.377100
H      -3.994700    12.293600     7.804400
H      -4.303300    11.099600     8.824300
H      -3.053600    10.999500     7.829700
C      -3.212000    12.938200    10.491300
C      -4.490600    13.244300    10.922200
H      -5.261100    12.981700    10.432300
C      -4.585800    13.959200    12.115500
H      -5.444900    14.198000    12.442500
C      -3.468200    14.330300    12.835700
H      -3.581000    14.808300    13.648900
C      -2.189000    14.025800    12.407400
H      -1.420300    14.280000    12.903500
C      -2.092900    13.324500    11.206200
N      -0.992400    12.861700    10.508400
C       0.383200    13.130500    10.866000
H       0.976000    12.549600    10.344500
H       0.512900    12.955700    11.821500
H       0.593800    14.068300    10.674000
C      -1.686800     9.220400     9.947100
H      -2.366200     8.681500     9.559100
C      -2.056200     9.714900    11.275500
C      -3.420600     9.709300    11.605600
H      -4.050100     9.351500    10.990100
C      -3.863500    10.218600    12.816600
H      -4.792700    10.225100    13.019400
C      -2.958300    10.713700    13.725200
H      -3.261800    11.053900    14.558900
C      -1.612100    10.718600    13.430100
H      -0.990500    11.057400    14.063400
C      -1.161200    10.230100    12.211400
H      -0.232200    10.247500    12.013200
