104
Refcode: JEWTIP_comp_0 | Dataset: tmCAT | Charge: 0 | Potential Spins: [1, 3, 5]
Fe      6.250400    10.650000     8.649700
N       7.486000    10.125800     7.127500
N       7.894400    11.242300     9.904500
N       6.176600     8.758100     9.373600
C       9.280900     8.763500     6.098600
H       8.995300     9.188000     5.261700
H       9.348400     7.794300     5.967100
H      10.155200     9.119300     6.363500
C       7.537100    11.018700     5.998000
C       5.026400     8.331700    10.133500
C       4.578000    11.839600     8.615900
H       4.082600    11.618700     7.788100
H       4.006900    11.556600     9.373500
C       8.892800    11.109400    10.442100
C       8.263900     9.057600     7.187900
C       8.567300    11.966300     5.861600
C       3.942100     7.758500     9.452200
C       4.681100    13.370800     8.680200
C      10.182500    10.891600    11.139500
C       8.184400     8.099300     8.214000
H       8.925500     7.508100     8.276300
C       8.512800    12.852700     4.785200
H       9.203000    13.496600     4.679300
C       2.826800     7.341100    10.184600
H       2.094800     6.929000     9.738800
C       5.579500    13.878700     7.562900
H       6.481000    13.511300     7.675500
H       5.618300    14.857500     7.595100
H       5.217100    13.594700     6.697800
C      11.241100    10.593100    10.072000
H      11.337700    11.370100     9.481500
H      10.963500     9.816100     9.544700
H      12.098700    10.405000    10.506300
C       7.168800     7.890000     9.157600
C       7.489000    12.816600     3.879700
H       7.478300    13.426200     3.150200
C       2.784300     7.526600    11.555200
H       2.022900     7.241500    12.045700
C       5.237600    13.795100    10.037200
H       6.161200    13.478600    10.124800
H       4.690000    13.406600    10.751000
H       5.220200    14.772500    10.106500
C      10.027200     9.686900    12.065200
H       9.328300     9.871800    12.728100
H      10.875000     9.515200    12.524800
H       9.776300     8.898500    11.537900
C       7.213600     6.590900     9.932200
H       7.220800     6.783500    10.893400
H       8.024300     6.094800     9.691700
H       6.424600     6.052300     9.713500
C       6.468700    11.894200     4.024100
H       5.759500    11.880500     3.392600
C       3.823500     8.112000    12.202700
H       3.767200     8.239300    13.142900
C       3.299200    14.016600     8.521000
H       2.936600    13.799200     7.637600
H       3.381600    14.988400     8.610600
H       2.697200    13.674900     9.214900
C      10.504500    12.165100    11.912500
H       9.823300    12.310700    12.601800
H      10.513000    12.927300    11.296700
H      11.384700    12.076700    12.335200
C       6.461400    10.985700     5.077500
C       4.985800     8.538800    11.521200
C       9.720100    12.067700     6.857000
H       9.634900    11.312800     7.507800
C       3.945500     7.547200     7.954200
H       4.739800     8.028300     7.582400
C       9.657000    13.379000     7.642200
H       8.810300    13.426200     8.131600
H       9.718200    14.134500     7.021800
H      10.404000    13.416400     8.276300
C       2.699400     8.129800     7.288300
H       2.772300     8.033200     6.316400
H       2.620000     9.080000     7.518100
H       1.905500     7.650400     7.605400
C      11.090000    11.940200     6.152100
H      11.097900    11.131300     5.597200
H      11.800200    11.882100     6.824200
H      11.240000    12.726100     5.585700
C       4.090100     6.078300     7.596200
H       4.900200     5.718600     8.015500
H       4.158200     5.983600     6.623100
H       3.308500     5.584500     7.917900
C       5.340800     9.970700     5.228700
H       5.146100     9.896300     6.207200
C       6.117800     9.204900    12.265600
H       6.916800     9.207600    11.664300
C       5.775800     8.585600     4.755100
H       6.566400     8.301400     5.259400
H       5.993600     8.620400     3.800400
H       5.047600     7.946500     4.902200
C       5.775600    10.660200    12.589100
H       5.674600    11.165600    11.756200
H       6.496200    11.054400    13.124500
H       4.936700    10.692900    13.095800
C       4.037500    10.400300     4.548300
H       3.764100    11.276900     4.889500
H       3.337200     9.742500     4.739000
H       4.177900    10.455700     3.579800
C       6.502100     8.440500    13.549600
H       6.659200     7.496600    13.333600
H       5.773300     8.509200    14.201000
H       7.317300     8.828100    13.929800
