93
Refcode: JIFWAX_comp_0 | Dataset: tmCAT | Charge: 0 | Potential Spins: [1, 3, 5]
Pt      3.975300     3.198800    10.195500
Cl      3.801000     6.988300    14.028300
Cl      4.725100    -0.261700     6.102900
S       3.951700     5.135400    11.507200
S       4.444700     1.363800     8.808600
P       3.912500     4.726800     8.457800
P       4.046800     1.631700    11.909200
C       2.499700     5.145500    12.504500
C       2.444600     5.966400    13.638500
C       1.329600     5.958100    14.473400
C       0.253400     5.196900    14.166100
C       0.256400     4.396600    13.045700
C       1.377300     4.386300    12.202600
C       3.040800     1.063700     7.794200
C       3.170500     0.382700     6.573200
C       2.109200     0.172800     5.730100
C       0.854100     0.625400     6.075500
C       0.670800     1.244700     7.299300
C       1.744000     1.462800     8.145100
C       5.424300     5.742100     8.460500
C       6.476700     5.410900     9.298100
C       7.660200     6.139200     9.290000
C       7.800300     7.196700     8.441500
C       6.768800     7.542300     7.590300
C       5.586800     6.809900     7.582100
C       2.468400     5.830600     8.661800
C       2.577200     7.202900     8.824900
C       1.456300     7.968200     9.118700
C       0.219100     7.359200     9.251900
C       0.096900     5.999300     9.058800
C       1.220800     5.229800     8.784100
C       3.863600     4.129100     6.722700
C       2.693500     4.129100     5.974900
C       2.714400     3.610700     4.693900
C       3.863600     3.129300     4.144600
C       5.035200     3.127200     4.895200
C       5.021800     3.610700     6.173400
C       2.690500     0.430000    11.707700
C       1.399700     0.839400    12.053000
C       0.319000     0.000000    11.884400
C       0.515700    -1.265300    11.370400
C       1.776800    -1.656200    11.008700
C       2.854500    -0.818800    11.163800
C       5.624000     0.716000    11.851800
C       5.788000    -0.518500    12.463700
C       7.007300    -1.164500    12.393000
C       8.094000    -0.565800    11.756600
C       7.941900     0.670700    11.188200
C       6.707700     1.318800    11.220900
C       3.953100     2.100600    13.687500
C       3.248000     1.339300    14.598500
C       3.239100     1.711700    15.961000
C       3.912800     2.812400    16.382600
C       4.640200     3.569500    15.477000
C       4.665600     3.205400    14.138900
H       1.310200     6.521900    15.270300
H      -0.506800     5.201000    14.753600
H      -0.538100     3.787600    12.822700
H       1.380300     3.820500    11.384000
H       2.240400    -0.283900     4.887000
H       0.099900     0.473200     5.498900
H      -0.201200     1.553300     7.557600
H       1.596400     1.890700     8.999000
H       6.379800     4.657900     9.910000
H       8.386100     5.896400     9.910000
H       8.617200     7.725400     8.444200
H       6.864200     8.305600     6.994700
H       4.890700     7.015600     6.945700
H       3.444800     7.643100     8.735200
H       1.535300     8.933100     9.213800
H      -0.569400     7.896200     9.485800
H      -0.773600     5.579600     9.118700
H       1.128400     4.262900     8.686200
H       1.870700     4.499500     6.361000
H       1.893100     3.581900     4.177200
H       3.851700     2.798000     3.255300
H       5.844600     2.777400     4.503600
H       5.843200     3.600400     6.709100
H       1.274500     1.738500    12.425600
H      -0.570900     0.304500    12.129200
H      -0.244500    -1.855700    11.242600
H       1.921400    -2.565500    10.644300
H       3.741400    -1.108900    10.891800
H       5.050200    -0.923800    12.953200
H       7.095300    -2.061500    12.776400
H       8.948100    -1.030700    11.715800
H       8.705100     1.104800    10.764000
H       6.616800     2.193200    10.799300
H       2.751600     0.569900    14.288500
H       2.766600     1.139800    16.613700
H       3.880000     3.088100    17.290900
H       5.163400     4.357500    15.776100
H       5.167900     3.742400    13.497100
