99
Refcode: JIKVIL_comp_0 | Dataset: tmCAT | Charge: unknown | Potential Spins: [1, 3, 5]
Y       5.396000     9.167800     7.533200
Si      7.110200    12.194900     9.555200
Si      2.408000    11.133500     6.247000
Si      7.370300     8.271400     4.474600
O       6.355200     7.803500     9.330300
O       0.653900     5.947400     8.656000
O       1.547200     7.433700    11.633000
N       3.029200     8.144500    10.046300
N       2.465400     7.270600     8.232700
C       3.823900    10.021900     5.863300
H       4.369500    10.491800     5.183300
H       3.439000     9.228500     5.412900
C       3.408300     8.117200     8.736400
C       3.477300     8.831300    11.268200
H       4.457500     8.685000    11.395800
C       1.919900     7.376500    10.327900
C       6.683300    11.059000     8.175900
H       7.586700    10.768900     7.894600
H       6.408200    11.710100     7.483000
C       0.811200     6.034500     7.200600
H       0.068400     6.557800     6.808400
H       0.800800     5.128900     6.801900
C       1.566900     6.809400     9.165100
C       7.896600     7.036500    10.894700
H       8.849500     6.806200    11.035900
H       7.524200     7.409000    11.732000
C       1.698400    10.645300    11.073600
H       1.358400    10.207400    10.265400
H       1.211000    10.311800    11.856000
H       1.572200    11.614700    10.999300
C       6.949200     7.886100     6.207100
H       7.804200     7.880500     6.707100
H       6.616300     6.953700     6.211400
C       3.180700    10.337400    11.232000
H       3.656700    10.722100    10.441000
C       8.957500     7.459400     3.855700
H       9.112300     7.715000     2.922500
H       9.712300     7.758200     4.405300
H       8.872600     6.485800     3.918200
C       7.614300    10.115700     4.256600
H       7.839600    10.308200     3.323400
H       6.787800    10.585400     4.496900
H       8.342600    10.419800     4.837400
C       3.266500     5.841700     6.357900
H       4.105400     6.386900     6.325600
C       8.641400    13.220900     9.221200
H       8.818000    13.804900     9.988400
H       9.408600    12.626100     9.078900
H       8.500100    13.767100     8.420500
C       0.957300    10.182100     6.979700
H       0.224100    10.803100     7.172600
H       0.654300     9.505600     6.339600
H       1.241000     9.743100     7.809500
C       2.929300     5.423000     4.919300
H       3.643600     4.850000     4.569100
H       2.082400     4.929200     4.911800
H       2.847000     6.221300     4.356800
C       5.692600    13.379300     9.906500
H       5.939100    13.975800    10.643600
H       5.504900    13.911100     9.104800
H       4.892900    12.869100    10.153300
C       3.746600    11.004000    12.484200
H       4.699500    10.792300    12.565000
H       3.631800    11.974700    12.417400
H       3.270600    10.671700    13.274100
C       2.164300     6.729500     6.906500
H       2.010800     7.488200     6.272800
C       2.905900    12.424400     7.504500
H       2.139900    13.005900     7.695300
H       3.194400    11.981900     8.330000
H       3.642500    12.962700     7.145700
C       2.693600     8.024900    12.319300
H       3.265700     7.315500    12.707300
H       2.388400     8.618400    13.051000
C       7.733500     8.004000     9.744900
H       7.883400     8.936900    10.041200
H       8.361000     7.792400     9.010000
C       3.541800     4.625000     7.236200
H       4.258800     4.088700     6.836400
H       3.814900     4.922000     8.129600
H       2.729400     4.081500     7.306300
C       5.968600     7.734800     3.352500
H       6.196700     7.941700     2.422500
H       5.826300     6.770200     3.446200
H       5.149600     8.211700     3.602500
C       6.044400     6.399800     9.541200
H       6.039900     5.910000     8.681300
H       5.157100     6.298700     9.970100
C       1.705200    12.095200     4.779200
H       0.960700    12.654900     5.082000
H       2.405600    12.663900     4.395600
H       1.385500    11.467200     4.099300
C       7.473600    11.314200    11.178100
H       7.691900    11.976500    11.866700
H       6.685100    10.803100    11.455100
H       8.231800    10.705900    11.056400
C       7.136400     5.879400    10.446400
H       6.744600     5.404300    11.222300
H       7.721600     5.251300     9.955000
