67
Refcode: JINMUP_comp_0 | Dataset: tmCAT | Charge: unknown | Potential Spins: [1, 3, 5]
Sc      2.050200     8.311300    11.142100
N       1.751700     5.980700    10.417400
N       3.517300    10.119000    10.392600
C       3.943500     7.128300    11.678600
H       4.707000     7.724600    11.878100
H       3.792100     6.514700    12.440300
C       4.135700     6.394900    10.410100
C       3.027800     5.845400     9.754700
C       3.150100     5.200800     8.532800
H       2.385900     4.820400     8.117800
C       4.370300     5.112800     7.927000
H       4.453700     4.665400     7.092500
C       5.481200     5.671100     8.516800
H       6.326500     5.627000     8.085700
C       5.356800     6.294500     9.743100
H       6.130900     6.667900    10.146500
C       0.574700     5.866600     9.518800
H       0.709900     6.431900     8.729500
H      -0.230300     6.157200     9.996500
H       0.467800     4.933100     9.237700
C       1.637600     4.906700    11.439700
H       1.663900     4.031400    10.999900
H       0.789800     5.003600    11.921800
H       2.382600     4.975400    12.073300
C       1.435600     8.906700     9.044000
H       2.037000     8.496000     8.372600
H       0.506500     8.622800     8.856200
C       1.549400    10.385800     9.017800
C       2.583000    11.007500     9.711000
C       2.732600    12.395300     9.753300
H       3.474100    12.788100    10.198900
C       1.782900    13.184300     9.138700
H       1.860600    14.130100     9.173600
C       0.740500    12.615500     8.483300
H       0.093200    13.168500     8.062400
C       0.609500    11.232900     8.423600
H      -0.135600    10.856000     7.970700
C       4.225100    10.732800    11.538800
H       4.832600    11.428400    11.212600
H       4.738900    10.045900    12.010600
H       3.571500    11.130800    12.150500
C       4.554100     9.644300     9.430000
H       4.117300     9.230400     8.656600
H       5.130600     8.985600     9.869800
H       5.095200    10.405200     9.131400
C      -0.216600     9.033200    11.924700
C       0.672800     9.959600    12.495600
C       1.479700     9.272700    13.423300
C       1.105300     7.916600    13.433500
C       0.051700     7.788000    12.502900
H      -0.404100     6.979600    12.300500
C      -1.327800     9.341400    10.985400
H      -1.549600     8.540100    10.468400
H      -1.051200    10.058200    10.376600
H      -2.113800     9.630200    11.493600
C       0.590400    11.458400    12.341200
H       0.012800    11.828200    13.040300
H       0.217800    11.675000    11.460100
H       1.487800    11.845800    12.419900
C       2.425900     9.889100    14.415100
H       2.065900     9.783500    15.319500
H       2.532900    10.843700    14.215600
H       3.297400     9.443600    14.355400
C       1.562100     6.886300    14.415100
H       2.541200     6.861600    14.432600
H       1.218300     6.007500    14.150000
H       1.225200     7.113500    15.307900
