59
Refcode: JISVIT_comp_0 | Dataset: tmCAT | Charge: 0 | Potential Spins: [1, 3, 5]
Pd      0.792300     1.084300     8.027000
P      -0.361300     1.915400     9.695600
Cl      1.178600     3.221900     7.238800
C       2.696600     0.399700     5.492200
C       3.376900     1.581100     5.214900
H       3.259100     2.341400     5.738600
C       4.236400     1.579500     4.126100
H       4.698600     2.357900     3.910600
C       4.424500     0.438000     3.347400
H       5.004000     0.476300     2.621000
C       3.777200    -0.741700     3.622300
H       3.908500    -1.509600     3.114400
C       2.922600    -0.712500     4.697700
C       1.483600    -1.227300     6.262500
C       0.547900    -2.105300     6.933400
C       0.219400    -3.311100     6.286700
H       0.622300    -3.518600     5.475000
C      -0.685800    -4.186200     6.832900
H      -0.862400    -4.998400     6.416100
C      -1.328900    -3.850800     7.997900
H      -1.983200    -4.414900     8.343700
C      -1.008200    -2.675200     8.664000
H      -1.460300    -2.463500     9.448800
C      -0.025300    -1.801400     8.190500
C       0.130700    -0.644600    10.308600
C       0.291400    -1.742600    11.169700
H       0.531500    -2.569500    10.817100
C       0.099500    -1.614600    12.527300
H       0.202800    -2.361000    13.073200
C      -0.244300    -0.399800    13.101400
H      -0.368000    -0.325000    14.019900
C      -0.399900     0.701800    12.270600
H      -0.624600     1.527200    12.636700
C      -0.223600     0.582400    10.896000
C      -2.116200     2.124100     9.279200
C      -3.081400     1.310200     9.850900
H      -2.833900     0.658100    10.466000
C      -4.414700     1.468200     9.508100
H      -5.058100     0.919900     9.895700
C      -4.793100     2.427200     8.601000
H      -5.691000     2.539300     8.385100
C      -3.832800     3.222100     8.012500
H      -4.083400     3.861700     7.385300
C      -2.501200     3.075300     8.345500
H      -1.860200     3.616100     7.942500
C       0.171200     3.444000    10.510900
C      -0.706700     4.476000    10.771300
H      -1.596800     4.410500    10.510500
C      -0.248500     5.618400    11.428900
H      -0.839200     6.315000    11.603700
C       1.047100     5.726700    11.816400
H       1.337100     6.491800    12.257800
C       1.928800     4.709500    11.558500
H       2.817800     4.785900    11.821800
C       1.490400     3.558600    10.899700
H       2.088200     2.867900    10.723700
N       1.769700     0.036300     6.479200
N       0.384800    -0.692900     8.928000
O       2.150000    -1.746800     5.190700
