75
Refcode: JIYQOY_comp_0 | Dataset: tmCAT | Charge: unknown | Potential Spins: [1, 3, 5]
Fe      8.070200     7.246900     1.596100
Cl      8.483000     8.643500     3.358200
Cl      6.399700     5.732700     2.083700
O       2.205800     7.003900     1.758200
O       0.935700     8.847200     2.051600
N       9.886400     5.907000     1.708300
N       8.987500     7.316200    -0.299700
N       6.884100     8.701300     0.315700
C      10.581600     5.818000     0.647000
C      10.063100     6.545800    -0.545600
C      10.615600     6.453200    -1.812700
H      11.349500     5.901700    -1.971100
C      10.057600     7.196100    -2.841200
H      10.399900     7.136500    -3.703000
C       8.981400     8.028700    -2.570500
H       8.609500     8.551800    -3.243300
C       8.466400     8.071400    -1.289400
C       7.292100     8.872100    -0.895900
C      11.867400     5.065400     0.501900
H      12.103500     4.667800     1.344200
H      12.563800     5.668600     0.227500
H      11.762800     4.376900    -0.157900
C       6.677900     9.773300    -1.927900
H       5.836400    10.105100    -1.604300
H       6.537000     9.279500    -2.739500
H       7.267300    10.509900    -2.101100
C      10.288000     5.151700     2.882500
C       9.818900     3.853800     3.015600
C      10.169900     3.144800     4.169700
H       9.857100     2.274700     4.274100
C      10.960800     3.687400     5.158200
C      11.420100     4.977400     4.969000
H      11.961000     5.351900     5.625300
C      11.115800     5.747800     3.847600
C       8.995300     3.209700     1.931800
H       8.717700     2.336100     2.217200
H       9.520500     3.134100     1.133000
H       8.221500     3.748800     1.755200
C      11.305700     2.897500     6.409100
H      11.585100     3.500600     7.101900
H      12.018700     2.283600     6.215000
H      10.531800     2.409100     6.702600
C      11.701200     7.119500     3.651700
H      11.007700     7.726300     3.380300
H      12.380100     7.084000     2.974000
H      12.088300     7.422900     4.476100
C       5.710500     9.384500     0.780100
C       4.612800     8.635400     1.141300
H       4.662400     7.707600     1.116700
C       3.422000     9.253700     1.544600
C       3.378800    10.642400     1.608700
H       2.592200    11.067600     1.864300
C       4.495300    11.395000     1.296900
H       4.463600    12.322000     1.367400
C       5.657300    10.773200     0.879900
H       6.404900    11.282900     0.666300
C       0.829500     6.536900     1.757500
C       0.059600     7.723600     2.372200
C       0.474100     6.281500     0.299500
H       1.078100     5.631200    -0.067300
H       0.548500     7.100000    -0.197300
H      -0.424700     5.951500     0.241500
C       0.775700     5.233600     2.535200
H       1.338000     4.583300     2.110400
H      -0.128900     4.910600     2.556100
H       1.080700     5.383900     3.433700
C      -0.029100     7.657800     3.867800
H       0.839100     7.479000     4.234700
H      -0.635700     6.956800     4.123200
H      -0.351600     8.496700     4.206800
C      -1.285400     7.974500     1.743500
H      -1.687300     8.748400     2.145200
H      -1.852000     7.211200     1.882800
H      -1.177000     8.123900     0.803300
B       2.178500     8.360600     1.823400
