50
Refcode: JOCJOB_comp_0 | Dataset: tmCAT | Charge: unknown | Potential Spins: [1, 3, 5]
C      -2.734600     1.291300     3.439500
C      -3.973700     1.482700     4.102600
H      -4.661500     1.779700     3.535100
C      -4.370200     1.320700     5.411500
H      -5.231600     1.641700     5.605500
C      -3.701700     0.759100     6.489800
C      -2.407400     0.250200     6.445900
H      -2.138900    -0.225100     7.211500
C      -1.456700     0.338000     5.446100
H      -0.643700    -0.082200     5.660500
C      -1.465600     0.938000     4.158000
C      -3.761900     1.631300     1.260400
H      -4.509300     1.101000     1.634100
C      -4.201100     3.088000     1.165600
H      -4.999100     3.149500     0.617100
H      -3.491700     3.613800     0.764600
H      -4.392200     3.427100     2.053800
C      -3.422100     1.083800    -0.116800
H      -3.147000     0.157000    -0.037400
H      -2.699500     1.603300    -0.501800
H      -4.203100     1.141600    -0.689800
C       0.957400     0.845900     4.001700
H       0.928600     0.978000     4.982200
C       1.966500     1.831100     3.401100
H       1.659400     2.738700     3.550700
H       2.048000     1.669100     2.448500
H       2.830300     1.707300     3.824900
C       1.347100    -0.579800     3.715900
H       1.387500    -0.718500     2.757000
H       0.687600    -1.178300     4.101300
H       2.216100    -0.761800     4.106500
C       0.270500     1.972300    -0.098200
H      -0.061000     2.765500    -0.549500
H       0.137800     1.198200    -0.666900
H       1.215300     2.078000     0.090400
C      -6.033100    -0.106700     7.785100
C      -6.103000    -1.217500     6.963000
H      -5.345100    -1.491900     6.480200
C      -7.285400    -1.922600     6.849000
H      -7.328600    -2.674700     6.287000
C      -8.409300    -1.529300     7.559500
H      -9.208800    -2.018700     7.491000
C      -8.344500    -0.418000     8.365600
H      -9.106700    -0.143500     8.843500
C      -7.164300     0.302900     8.478300
H      -7.130800     1.067000     9.024300
N      -2.588900     1.469400     2.137200
N      -0.369700     1.135900     3.444700
S      -4.508500     0.760800     8.077500
Zn     -0.700200     1.723600     1.572000
