38
Refcode: JOHLEY_comp_0 | Dataset: tmCAT | Charge: unknown | Potential Spins: [1, 3, 5]
Ag     -4.395000     9.663500    11.884900
Cl     -2.924400     8.215500    12.940900
N      -6.771700    10.764700    10.234500
N      -5.050100    12.017100    10.018900
N      -7.173400     8.784700    11.402300
N      -8.955100    10.138600    10.601600
C      -5.500700    10.945700    10.690100
C      -6.023200    12.488400     9.138600
H      -5.938600    13.210900     8.559800
C      -7.080800    11.724200     9.278400
H      -7.886200    11.808800     8.821600
C      -7.688100     9.818300    10.777400
C      -9.817700     9.293700    11.166200
H     -10.727000     9.473300    11.091800
C      -9.433700     8.183200    11.846400
H     -10.050500     7.602600    12.228800
C      -8.086000     7.968400    11.933600
H      -7.789200     7.213400    12.387900
C      -3.745200    12.587300    10.249900
C      -3.652800    13.708200    11.072500
C      -2.381900    14.182000    11.351000
H      -2.293200    14.930600    11.895100
C      -1.241400    13.588400    10.850500
C      -1.388600    12.502700    10.031800
H      -0.627200    12.100400     9.678800
C      -2.637100    11.978000     9.707100
C      -4.885400    14.344800    11.682100
H      -5.296800    13.727700    12.291700
H      -5.506400    14.570000    10.985300
H      -4.632600    15.141500    12.154400
C       0.123700    14.109100    11.222700
H       0.238900    14.051800    12.173600
H       0.203200    15.024300    10.945500
H       0.796600    13.583200    10.786400
C      -2.736800    10.780400     8.798500
H      -2.961400    10.003200     9.316900
H      -1.895000    10.641100     8.359600
H      -3.419900    10.934000     8.141400
