110
Refcode: JOJFEW_comp_0 | Dataset: tmCAT | Charge: unknown | Potential Spins: [1, 3, 5]
Zr      1.833300     7.314800     4.489600
Cl      3.214300     6.718100     2.612300
Cl     -0.040600     8.234500     3.261100
Si      2.385600     7.004300     7.718000
N       6.717300     9.009000     2.502900
N      -3.481700     5.991100     3.905400
C       3.847500     8.381200     5.582600
C       2.738400     8.399600     6.509900
C       1.800600     9.351800     5.967200
C       2.291100     9.846400     4.753500
H       1.864300    10.568800     4.210000
C       3.579400     9.292200     4.511800
C       4.537700     9.549100     3.487100
C       5.738200     8.861700     3.520800
C       6.010900     7.906900     4.578200
C       5.096700     7.691200     5.568500
H       5.295800     7.071300     6.260700
C       0.507500     9.849900     6.551100
H       0.611300    10.783600     6.827700
H       0.268700     9.303600     7.328900
H      -0.201400     9.785000     5.877500
C       4.199100    10.576700     2.463800
C       3.015600    10.461000     1.735500
H       2.460600     9.698200     1.854400
C       2.640300    11.457000     0.833600
H       1.830600    11.372800     0.343300
C       3.442400    12.565300     0.652300
H       3.186200    13.245700     0.041400
C       4.619700    12.679300     1.362800
H       5.175600    13.437700     1.230700
C       4.999900    11.701600     2.266300
H       5.809100    11.797200     2.754100
C       7.284700     7.081800     4.532200
H       7.934300     7.568500     3.948000
C       7.946100     6.891600     5.885200
H       8.776400     6.382200     5.774800
H       7.338900     6.403200     6.479800
H       8.150400     7.767500     6.274500
C       7.005700     5.744700     3.880500
H       6.578800     5.889400     3.010000
H       6.409600     5.219500     4.453700
H       7.848100     5.260700     3.754900
C       6.425700     8.739800     1.106200
H       5.531900     9.083500     0.855200
H       6.463400     7.769200     0.915000
C       7.520400     9.482500     0.373600
H       7.824900     8.966900    -0.415300
H       7.196500    10.367200     0.069000
C       8.633800     9.641200     1.360200
H       9.182800    10.438200     1.151000
H       9.216800     8.841600     1.370100
C       7.920800     9.805100     2.675100
H       8.470000     9.463200     3.423800
H       7.699100    10.754700     2.844500
C       0.238800     6.038500     5.970800
C       1.592600     5.861300     6.464200
C       2.249400     5.031000     5.495400
C       1.368200     4.760100     4.428700
H       1.562900     4.155100     3.656800
C       0.107100     5.324700     4.726700
C      -1.133900     5.252000     4.053600
C      -2.214000     5.958700     4.564500
C      -2.093000     6.691700     5.803900
C      -0.902900     6.703900     6.480400
H      -0.841100     7.167800     7.307400
C       3.629400     4.450600     5.566200
H       3.626500     3.672000     6.161000
H       4.250200     5.124800     5.914300
H       3.914000     4.176200     4.669800
C      -1.208400     4.387500     2.842800
C      -0.767200     4.851300     1.608900
H      -0.410200     5.728100     1.534100
C      -0.845300     4.038500     0.482000
H      -0.558900     4.368200    -0.361700
C      -1.339400     2.751400     0.587100
H      -1.418500     2.206000    -0.187000
C      -1.716700     2.265600     1.815400
H      -2.032300     1.373100     1.892800
C      -1.641000     3.067900     2.944400
H      -1.884700     2.714500     3.791600
C      -3.306800     7.426400     6.346600
H      -4.101400     6.832800     6.219300
C      -3.561100     8.713500     5.562300
H      -3.731200     8.495200     4.622300
H      -2.775000     9.295700     5.626200
H      -4.340600     9.175600     5.937300
C      -3.209600     7.753500     7.835900
H      -3.033600     6.931900     8.340400
H      -4.053800     8.148900     8.139600
H      -2.479900     8.390000     7.983300
C      -4.348700     4.804800     3.975600
H      -5.092700     4.946800     4.614700
H      -3.833800     4.006100     4.253000
C       3.914800     6.366400     8.554500
H       3.667300     5.682500     9.210900
H       4.371300     7.104600     9.008600
H       4.513300     5.974400     7.885200
C      -4.876900     4.645200     2.547200
H      -4.285800     4.061300     2.010800
H      -5.792700     4.269100     2.545600
C       1.242300     7.426400     9.125900
H       0.923600     6.600500     9.546500
H       0.478000     7.935800     8.784800
H       1.724900     7.964800     9.787200
C      -4.867600     6.056900     2.026400
H      -5.640900     6.571500     2.369400
H      -4.878600     6.073500     1.036000
C      -3.563700     6.602200     2.568500
H      -2.798700     6.328700     2.003100
H      -3.586300     7.590400     2.626900
