41
Refcode: JOJPEE_comp_0 | Dataset: tmCAT | Charge: 0 | Potential Spins: [1, 3, 5]
Pd      0.000000     4.531600     0.000000
Cl      1.430300     6.019700    -1.038800
N       1.111700     4.647800     1.671600
N       2.803400     4.711800     3.056600
H       3.558700     4.527900     3.380900
C       2.353100     4.216200     1.878700
C       0.762700     5.405200     2.764400
H      -0.079700     5.824900     2.896200
C       1.805300     5.457800     3.622500
H       1.839300     5.920000     4.451600
C       3.140100     3.314400     1.028100
C       4.538000     3.384200     1.029500
H       4.984300     4.023100     1.573400
C       4.639800     1.576100    -0.549600
H       5.151400     0.989700    -1.092800
C       3.250600     1.490000    -0.542400
H       2.811100     0.838300    -1.076200
C       2.509600     2.356400     0.244500
H       1.561100     2.294800     0.247900
C       5.266600     2.515000     0.233900
H       6.215200     2.569400     0.229900
Cl     -1.430300     3.043400     1.038800
N      -1.111700     4.415300    -1.671600
N      -2.803400     4.351300    -3.056600
H      -3.558700     4.535200    -3.380900
C      -2.353100     4.846900    -1.878700
C      -0.762700     3.657900    -2.764400
H       0.079700     3.238200    -2.896200
C      -1.805300     3.605300    -3.622500
H      -1.839300     3.143100    -4.451600
C      -3.140100     5.748700    -1.028100
C      -4.538000     5.678900    -1.029500
H      -4.984300     5.040000    -1.573400
C      -4.639800     7.487000     0.549600
H      -5.151400     8.073400     1.092800
C      -3.250600     7.573100     0.542400
H      -2.811100     8.224800     1.076200
C      -2.509600     6.706700    -0.244500
H      -1.561100     6.768300    -0.247900
C      -5.266600     6.548100    -0.233900
H      -6.215200     6.493700    -0.229900
