86
Refcode: JOKBOB_comp_0 | Dataset: tmCAT | Charge: 0 | Potential Spins: [1, 3, 5]
Mn      1.193200     6.152800     3.398900
O       2.156900     7.529800     4.182400
O       1.237900     5.111600     4.936100
N       0.489500     7.415200     2.063500
N      -0.147700     4.988100     2.628800
N       2.694200     5.375200     2.124500
N       2.557400     4.239300     1.712500
N       2.466600     3.198200     1.230300
C       0.999100     8.554300     1.771600
H       0.596000     9.038600     1.060400
C       2.121000     9.160300     2.420000
C       2.649500     8.639100     3.633700
C       3.717800     9.312500     4.248900
C       4.200500    10.472600     3.631900
H       4.907700    10.937200     4.062300
C       3.715100    11.002000     2.414500
C       2.651900    10.337100     1.858400
H       2.259300    10.681900     1.065900
C      -0.594100     3.873100     3.118300
H      -1.206000     3.381900     2.584400
C      -0.249100     3.317600     4.389300
C       0.630900     3.976800     5.289000
C       0.856500     3.407600     6.559900
C       0.265400     2.182900     6.827800
H       0.458900     1.780400     7.666500
C      -0.587400     1.496300     5.972500
C      -0.849400     2.082400     4.775400
H      -1.450700     1.655800     4.176900
C      -0.675200     6.916500     1.315300
H      -0.687600     7.291200     0.399000
H      -1.516700     7.167500     1.773500
C      -0.524800     5.410900     1.271000
H      -1.376400     4.986800     1.001300
H       0.176900     5.153700     0.622600
C       4.309400     8.776500     5.560500
C       5.430500     9.671500     6.072200
H       6.102500     9.789100     5.370300
H       5.847200     9.256400     6.857400
H       5.062500    10.545000     6.323500
C       3.227500     8.720900     6.661600
H       3.630700     8.414900     7.500200
H       2.519900     8.096900     6.393700
H       2.844100     9.613200     6.790900
C       4.894100     7.375100     5.335200
H       5.608900     7.422500     4.666400
H       4.188200     6.774400     5.015600
H       5.257700     7.033300     6.177500
C       4.314200    12.291800     1.815900
C       5.850100    12.275500     1.904600
H       6.205900    11.589700     1.302400
H       6.122300    12.075900     2.824600
H       6.201800    13.152800     1.644100
C       3.964700    12.442600     0.336200
H       4.337300    11.688300    -0.166300
H       4.342600    13.281000    -0.003700
H       2.990500    12.457400     0.230900
C       3.742900    13.489600     2.595500
H       4.111800    14.322400     2.231600
H       3.986400    13.410000     3.541400
H       2.766700    13.500300     2.508700
C       1.742600     4.115400     7.588900
C       3.183800     4.268000     7.036600
H       3.731900     4.758200     7.685000
H       3.158300     4.762800     6.190500
H       3.571400     3.381100     6.885100
C       1.160900     5.492200     7.866000
H       0.248800     5.396800     8.211500
H       1.143000     6.011900     7.034700
H       1.715400     5.953400     8.527400
C       1.821100     3.350600     8.895000
H       2.433500     3.810300     9.506500
H       2.151100     2.444300     8.723200
H       0.930400     3.303700     9.299600
C      -1.181400     0.153700     6.414000
C      -0.031000    -0.850200     6.724400
H      -0.409300    -1.678900     7.084600
H       0.578300    -0.455200     7.382000
H       0.461500    -1.047400     5.900400
C      -2.016600     0.323400     7.707200
H      -2.714400     0.995700     7.557500
H      -1.432700     0.615300     8.436900
H      -2.432200    -0.531900     7.941800
C      -2.051800    -0.468800     5.357300
H      -2.315100    -1.369400     5.640000
H      -1.554300    -0.522600     4.514900
H      -2.852900     0.080800     5.229900
