111
Refcode: JOMMEF_comp_0 | Dataset: tmCAT | Charge: unknown | Potential Spins: [1, 3, 5]
Ni      0.037400     5.713600     4.357500
Cl      0.776600     7.750500     3.839400
P       2.059500     4.845500     4.021400
P      -2.033800     6.362000     4.782100
O       6.133200     7.799300     7.243200
O       3.686900     5.258300    -1.711200
O       2.569800    -0.914800     5.549700
O      -2.109900     8.053400    10.508600
O      -6.230500     2.348300     3.373700
O      -4.848200    10.515800     1.571500
C      -0.492700     4.065800     5.207300
C      -0.387700     3.869500     6.536400
H      -0.086200     4.592000     7.074000
C      -0.702200     2.639300     7.176800
H      -0.620700     2.566000     8.119500
C      -1.127600     1.550400     6.436700
H      -1.341600     0.722100     6.849600
C      -1.229700     1.730100     5.003200
C      -0.921300     2.986600     4.447000
C      -1.101500     3.137200     2.985400
H      -0.916900     3.965000     2.558500
C      -1.536100     2.067200     2.267100
H      -1.658300     2.162800     1.329100
C      -1.813700     0.820700     2.870100
H      -2.108300     0.090500     2.338800
C      -1.657800     0.669600     4.197700
H      -1.841300    -0.172700     4.595000
C       3.305000     5.725300     5.004800
C       4.658500     5.729000     4.694700
H       4.961000     5.249400     3.932800
C       5.570600     6.410800     5.462900
H       6.493000     6.381500     5.238500
C       5.148800     7.138400     6.562900
C       3.820700     7.140900     6.919700
H       3.529000     7.614700     7.689500
C       2.911800     6.436900     6.134400
H       1.992200     6.444400     6.377500
C       5.757700     8.508500     8.412400
H       5.151000     9.238000     8.170900
H       6.558300     8.878100     8.840900
H       5.307300     7.899700     9.032600
C       2.607400     4.933600     2.288900
C       3.702200     4.227300     1.807500
H       4.187700     3.670800     2.402700
C       4.103900     4.309100     0.493900
H       4.861000     3.822500     0.191700
C       3.387100     5.117200    -0.389500
C       2.295900     5.814100     0.065400
H       1.807500     6.361800    -0.536000
C       1.901200     5.731700     1.371200
H       1.139000     6.220400     1.662500
C       4.730900     4.449800    -2.250000
H       4.809600     4.615400    -3.212900
H       4.523000     3.504000    -2.097300
H       5.578100     4.673700    -1.810600
C       2.350500     3.087700     4.432900
C       2.018800     2.094500     3.519900
H       1.735400     2.343600     2.647300
C       2.092000     0.751000     3.850200
H       1.872100     0.087600     3.206700
C       2.485500     0.379500     5.120100
C       2.828900     1.363100     6.037800
H       3.119000     1.111600     6.907300
C       2.757100     2.695300     5.704400
H       2.986200     3.354200     6.349500
C       2.118300    -1.932500     4.658900
H       2.677200    -1.934300     3.854900
H       1.187200    -1.759400     4.409600
H       2.182200    -2.804900     5.101400
C      -2.107200     6.846700     6.530200
C      -1.006600     7.524200     7.056900
H      -0.262300     7.700300     6.492800
C      -0.961300     7.944100     8.375000
H      -0.196500     8.398800     8.708500
C      -2.040500     7.697200     9.199300
C      -3.147200     7.020900     8.700700
H      -3.887800     6.839600     9.267900
C      -3.172000     6.614900     7.395000
H      -3.941000     6.162700     7.067800
C      -0.973100     8.720100    11.058200
H      -0.867600     9.595500    10.629700
H      -0.169700     8.181100    10.900800
H      -1.100800     8.842500    12.022700
C      -3.386600     5.163500     4.493700
C      -3.651100     4.083000     5.325800
H      -3.171500     4.000800     6.142200
C      -4.591500     3.125900     5.004800
H      -4.764300     2.405300     5.600000
C      -5.282600     3.223500     3.803400
C      -5.033200     4.290800     2.957400
H      -5.501600     4.364800     2.133100
C      -4.110200     5.247100     3.311100
H      -3.962200     5.984200     2.731400
C      -6.428700     1.160800     4.141600
H      -7.152900     0.633300     3.744200
H      -6.666900     1.402300     5.060900
H      -5.603800     0.633000     4.144700
C      -2.710600     7.798200     3.879800
C      -2.265100     8.104200     2.608300
H      -1.483900     7.679400     2.273300
C      -2.941000     9.025700     1.807500
H      -2.628000     9.224500     0.933300
C      -4.071100     9.645400     2.304500
C      -4.509100     9.384500     3.590000
H      -5.271600     9.835900     3.931200
C      -3.835000     8.464400     4.378400
H      -4.139200     8.287100     5.261900
C      -4.442200    10.792000     0.236800
H      -4.420700     9.958800    -0.278900
H      -3.549200    11.195200     0.243100
H      -5.078900    11.415000    -0.174500
