59
Refcode: JOPFEC_comp_0 | Dataset: tmCAT | Charge: 0 | Potential Spins: [1, 3, 5]
Pd     -4.884100     1.606600     8.772400
S      -4.297900     2.911500    10.567800
N      -3.676900     1.815700    12.906100
H      -3.557200     2.643300    13.106000
N      -4.573400     0.101100    10.013500
N      -4.205700     0.258400    11.324000
C      -4.538900    -2.338100    10.273300
C      -2.258400     0.843500    14.611400
H      -1.599800     1.463600    14.393800
C      -3.665500    -3.329600     9.848700
H      -3.188800    -3.220600     9.057800
C      -3.460400     0.847400    13.929200
C      -3.505400    -4.476600    10.600600
H      -2.908700    -5.134200    10.322200
C      -4.709300    -1.094800     9.495500
C      -5.253200    -2.518200    11.450700
H      -5.834300    -1.855400    11.748000
C      -4.058900     1.520300    11.639600
C      -5.101500    -3.678700    12.179600
H      -5.594500    -3.803600    12.958600
C      -2.032300    -0.078900    15.616100
H      -1.223400    -0.076200    16.073400
C      -4.441400    -0.065800    14.269700
H      -5.259000    -0.058200    13.826500
C      -4.229000    -4.648300    11.762100
H      -4.123200    -5.425000    12.262700
C      -4.204600    -0.988600    15.268700
H      -4.861700    -1.608900    15.490900
C      -3.000200    -0.996900    15.940100
H      -2.843200    -1.622800    16.610300
S      -5.470300     2.911500     6.977000
N      -6.091200     1.815700     4.638700
H      -6.210900     2.643300     4.438800
C      -7.509700     0.843500     2.933500
H      -8.168400     1.463600     3.151100
C      -6.307700     0.847400     3.615600
C      -5.709300     1.520300     5.905200
C      -7.735800    -0.078900     1.928800
H      -8.544700    -0.076200     1.471400
C      -5.326800    -0.065800     3.275200
H      -4.509200    -0.058200     3.718300
C      -5.563500    -0.988600     2.276200
H      -4.906500    -1.608900     2.053900
C      -6.767900    -0.996900     1.604800
H      -6.925000    -1.622800     0.934600
N      -5.194700     0.101100     7.531300
N      -5.562500     0.258400     6.220800
C      -5.229300    -2.338100     7.271500
C      -6.102700    -3.329600     7.696100
H      -6.579400    -3.220600     8.487000
C      -6.262800    -4.476600     6.944300
H      -6.859400    -5.134200     7.222600
C      -5.058800    -1.094800     8.049300
C      -4.515000    -2.518200     6.094100
H      -3.933800    -1.855400     5.796800
C      -4.666600    -3.678700     5.365200
H      -4.173700    -3.803600     4.586200
C      -5.539100    -4.648300     5.782800
H      -5.644900    -5.425000     5.282200
