67
Refcode: JOZQAQ_comp_0 | Dataset: tmCAT | Charge: 0 | Potential Spins: [1, 3, 5]
Pt      5.765100     3.067600     2.205500
Cl      4.162400     2.554100     0.478800
P       7.418900     2.548600     0.692200
P       4.048400     3.229200     3.732300
C       7.146500     3.475700     3.620800
C       7.492000     2.447200     4.549500
C       8.483400     2.615700     5.497500
C       9.152100     3.812600     5.593600
C       8.848100     4.841100     4.722600
C       7.863000     4.683600     3.726500
C       7.639700     5.825700     2.797800
C       8.718900     6.509100     2.240100
C       8.532500     7.584100     1.397900
C       7.268700     8.025100     1.103700
C       6.187500     7.370500     1.628700
C       6.376100     6.277700     2.469000
C       9.151300     2.934800     1.132600
C      10.194500     2.436300     0.136500
C       7.202800     3.264800    -0.978700
C       7.297100     4.768500    -1.011400
C       7.386300     0.753200     0.392300
C       7.703300    -0.060300     1.626700
C       3.496000     1.596800     4.330300
C       2.947600     0.676500     3.293900
C       2.541700     4.059100     3.124700
C       2.734800     5.486100     2.722800
C       4.447900     4.107000     5.286000
C       3.282900     4.312500     6.257000
H       7.025500     1.621500     4.513000
H       8.703700     1.900800     6.084000
H       9.821300     3.933100     6.258900
H       9.312500     5.666900     4.793700
H       9.603200     6.228300     2.445900
H       9.284700     8.023700     1.019100
H       7.143600     8.779700     0.540300
H       5.308400     7.660800     1.419100
H       5.617800     5.832600     2.826600
H       9.242800     3.916700     1.219100
H       9.346800     2.536300     2.017100
H      11.089000     2.682800     0.450000
H      10.031000     2.843000    -0.740300
H      10.132800     1.461200     0.059600
H       7.894500     2.889600    -1.578700
H       6.318800     2.992300    -1.332500
H       7.114600     5.087600    -1.919000
H       8.197600     5.045100    -0.742200
H       6.639500     5.149200    -0.392300
H       6.488600     0.498500     0.059600
H       8.043000     0.534100    -0.315400
H       7.605500    -1.014800     1.422900
H       7.086200     0.184900     2.347800
H       8.624500     0.120500     1.909400
H       4.263000     1.150400     4.768700
H       2.800100     1.736500     5.020600
H       2.756300    -0.195800     3.697700
H       3.605300     0.565600     2.574700
H       2.121600     1.054500     2.924700
H       2.196600     3.555100     2.345900
H       1.852100     4.020800     3.834200
H       1.899200     5.836700     2.349700
H       3.442900     5.543600     2.049800
H       2.987800     6.014700     3.509200
H       5.158600     3.601700     5.755200
H       4.819500     4.994500     5.053300
H       3.611200     4.732900     7.078100
H       2.881100     3.444200     6.472400
H       2.608200     4.889000     5.839800
