41
Refcode: JUKHOO_comp_0 | Dataset: tmCAT | Charge: unknown | Potential Spins: [1, 3, 5]
Zr      3.036600     0.231200     2.827000
Cl      3.533700     2.498100     2.078900
P       3.828500    -1.594200     4.703000
C       2.805500    -0.301300     5.318800
C       3.446700     0.941700     5.272500
C       4.750700     0.860300     4.721700
C       5.105500    -0.432000     4.354900
C       1.441000    -0.558900     5.910700
H       1.518000    -0.649000     6.882600
H       1.072300    -1.386200     5.534700
H       0.845500     0.189900     5.697500
C       2.863000     2.230300     5.796800
H       1.913600     2.099800     6.004700
H       2.954800     2.931400     5.117600
H       3.340500     2.498400     6.609800
C       5.680700     2.047100     4.652800
H       6.414700     1.851000     4.034500
H       6.044300     2.228700     5.543900
H       5.186500     2.831100     4.335000
C       6.444500    -0.808700     3.775000
H       6.605000    -0.289300     2.959300
H       6.450300    -1.765000     3.559100
H       7.149500    -0.616600     4.427700
N       1.033200     0.139500     2.584600
C       0.195300     1.198600     3.122200
H      -0.352500     1.578600     2.404500
H       0.762400     1.899500     3.507500
H      -0.387700     0.831000     3.818700
C       0.218000    -0.904500     1.992700
H      -0.384400    -1.273200     2.672000
H       0.798000    -1.616800     1.649800
H      -0.308600    -0.530400     1.256600
N       3.664900    -1.046900     1.415400
C       3.190200    -0.604400     0.108600
H       2.550000    -1.273300    -0.291300
H       3.916800    -0.351700    -0.489900
H       2.696800     0.268600     0.158900
C       4.407000    -2.305500     1.261900
H       3.840200    -2.967900     0.814300
H       4.666100    -2.641500     2.146300
H       5.211600    -2.147700     0.724300
