113
Refcode: KADWUJ_comp_0 | Dataset: tmCAT | Charge: 1 | Potential Spins: [1, 3, 5]
Ni     15.416100    16.790900     8.931700
O      14.604200    16.239500     7.399700
O      16.866900    17.508400     8.095900
C      15.083700    16.245100     6.217700
C      16.311800    16.790200     5.905500
H      16.597900    16.756000     5.011000
C      17.145900    17.385400     6.834300
C      14.229400    15.587600     5.182700
H      14.421300    14.635800     5.162400
H      14.418400    15.973700     4.313200
H      13.294400    15.723400     5.401200
C      18.473200    17.946500     6.437800
H      18.421600    18.914300     6.414400
H      18.713800    17.613400     5.558900
H      19.145100    17.673800     7.082500
N      14.078300    15.932000     9.947000
N      16.067000    17.248100    10.644800
C      14.220400    15.970900    11.219300
C      15.397300    16.783600    11.645400
C      13.372100    15.262700    12.209000
H      12.592000    14.894300    11.761000
H      13.085500    15.884300    12.895800
H      13.880400    14.543400    12.614900
C      15.754300    16.965500    13.078500
H      16.692500    17.203700    13.150300
H      15.594400    16.139100    13.559300
H      15.210800    17.671900    13.459400
C      13.053900    15.135300     9.317900
C      13.227800    13.754400     9.205500
C      12.210700    13.058400     8.538900
H      12.264100    12.121800     8.473400
C      11.138100    13.706600     7.978500
H      10.481000    13.204100     7.530500
C      10.998600    15.091600     8.058100
C      11.966400    15.778700     8.776200
H      11.876300    16.706500     8.896400
C      14.431000    13.020700     9.677000
C      15.701800    13.404300     9.252300
H      15.796300    14.158800     8.699700
C      16.836400    12.689000     9.631700
C      16.659500    11.535700    10.388800
H      17.417500    11.037800    10.640100
C      15.410300    11.092900    10.785300
C      14.311300    11.865000    10.435600
H      13.457200    11.596400    10.722900
C      18.205800    13.117500     9.157100
H      18.768000    13.311500     9.923600
H      18.123000    13.913500     8.607600
H      18.604900    12.403900     8.634200
C      15.244800     9.825300    11.606400
H      16.095100     9.360200    11.656400
H      14.585500     9.250000    11.184900
H      14.949200    10.056100    12.500900
C       9.894300    15.804600     7.371300
C       9.501200    15.383600     6.102100
H       9.935000    14.648500     5.711900
C       8.498400    16.011900     5.405900
C       7.853100    17.064300     6.016300
H       7.140400    17.479900     5.566700
C       8.213700    17.532400     7.268300
C       9.247500    16.893700     7.931700
H       9.516300    17.203600     8.777800
C       8.128500    15.578200     3.990000
H       8.920600    15.591100     3.431200
H       7.466200    16.188000     3.629400
H       7.764300    14.680700     4.013500
C       7.515200    18.711000     7.888000
H       6.990800    19.169100     7.212100
H       8.175200    19.321500     8.253300
H       6.931400    18.404800     8.598300
C      17.303500    17.958500    10.886800
C      18.457300    17.202500    10.774400
H      18.394400    16.303500    10.504300
C      19.697200    17.741900    11.050700
C      19.736500    19.083600    11.445600
H      20.564600    19.485600    11.637600
C      18.584400    19.827600    11.559600
H      18.645300    20.725000    11.829600
C      17.331400    19.289800    11.286400
C      20.903300    16.875600    10.991400
C      20.955600    15.851200    10.036000
H      20.267500    15.777800     9.399100
C      21.998000    14.948200    10.014100
C      23.002100    15.090300    10.957000
H      23.714000    14.477300    10.952300
C      22.997700    16.094700    11.907700
C      21.931100    16.983300    11.898300
H      21.910400    17.679300    12.530600
C      22.013400    13.838300     9.007300
H      21.408500    13.135800     9.289800
H      22.913400    13.480300     8.935500
H      21.731900    14.179700     8.144000
C      24.080000    16.174400    12.938000
H      23.902800    15.533400    13.643600
H      24.103800    17.069400    13.312600
H      24.934200    15.973100    12.525900
C      16.097000    20.101700    11.451900
C      15.856200    20.773600    12.633600
H      16.483500    20.715200    13.331400
C      14.704800    21.540800    12.814700
C      13.817700    21.637700    11.754700
H      13.043700    22.160300    11.857700
C      14.033800    20.993800    10.549600
C      15.164400    20.212200    10.421600
H      15.309500    19.742400     9.619200
C      14.440000    22.231000    14.141600
H      15.024400    22.999800    14.225900
H      14.610900    21.611600    14.867500
H      13.515500    22.521900    14.175900
C      13.075300    21.170600     9.396000
H      12.162400    21.118600     9.722200
H      13.224400    20.469000     8.740300
H      13.221800    22.034500     8.982300
