162
Refcode: KADYAS_comp_0 | Dataset: tmCAT | Charge: unknown | Potential Spins: [1, 3, 5]
C       6.977700     9.524300    15.449500
C       8.174900     9.217100    14.806700
H       8.489500     8.327800    14.916700
C       8.976300    10.056000    14.017100
C       6.097800     8.320200    15.708100
H       5.393000     8.560700    16.344900
H       6.640900     7.594100    16.080500
H       5.692400     8.025300    14.866000
C       9.837800     9.314800    13.006100
H       9.296700     9.081800    12.223300
H      10.189900     8.495300    13.414500
H      10.582800     9.887000    12.728900
C       5.199300    10.891500    16.159400
C       4.861900    10.765800    17.527300
C       3.512600    10.780100    17.868300
H       3.262800    10.684000    18.780300
C       2.531600    10.929300    16.912000
H       1.616500    10.912900    17.163800
C       2.879500    11.100900    15.581100
H       2.196200    11.219500    14.931500
C       4.208900    11.104200    15.185200
C       4.553200    11.338000    13.710700
H       5.438700    11.801900    13.685300
C       4.703600    10.038300    12.927800
H       5.474700     9.539600    13.268500
H       4.840600    10.242600    11.979900
H       3.893200     9.498700    13.031500
C       3.552100    12.231100    12.978600
H       3.873500    12.406800    12.068800
H       3.459000    13.079200    13.461000
H       2.682400    11.781500    12.936300
C       5.936400    10.618200    18.604700
H       6.727700    11.158200    18.319000
C       6.414000     9.167700    18.822600
H       5.637100     8.573000    18.873400
H       6.922900     9.112500    19.658400
H       6.984100     8.895900    18.073600
C       5.469500    11.158200    19.965400
H       5.039000    12.030800    19.840300
H       6.241800    11.258300    20.559700
H       4.828600    10.532800    20.362900
C       9.656200    12.074300    12.997900
C       9.072800    12.176300    11.722900
C       9.776100    12.829800    10.710400
H       9.385200    12.913600     9.849300
C      11.033800    13.357100    10.943200
H      11.500600    13.806700    10.249200
C      11.602300    13.226300    12.189400
H      12.467500    13.588000    12.339600
C      10.949200    12.584600    13.236800
C       7.715100    11.593500    11.387900
H       7.390100    11.082600    12.185200
C       6.697200    12.690900    11.080500
H       6.537900    13.224300    11.886800
H       5.856000    12.282200    10.786600
H       7.044500    13.269200    10.369800
C       7.796500    10.618600    10.195600
H       8.027700    11.115200     9.383800
H       6.930500    10.177200    10.073600
H       8.484600     9.942200    10.371900
C      11.644600    12.402700    14.576100
H      10.961200    12.547800    15.291200
C      12.185800    10.974200    14.741100
H      11.437700    10.346800    14.804600
H      12.728000    10.923100    15.555700
H      12.739500    10.745400    13.964600
C      12.786900    13.404100    14.821500
H      13.529100    13.207900    14.212200
H      13.095800    13.328500    15.748300
H      12.462600    14.315600    14.658600
C       9.857700    12.130900    18.343800
C       9.772300    10.655400    18.746400
H       8.839200    10.422500    18.934700
H      10.314200    10.504200    19.550400
H      10.107900    10.097500    18.016500
C      11.286100    12.494700    18.092600
H      11.634500    11.957200    17.352100
H      11.814400    12.323000    18.898800
H      11.344700    13.445000    17.859900
C       9.275300    12.987200    19.459500
H       9.325200    13.931400    19.205600
H       9.786900    12.842100    20.282500
H       8.338900    12.737900    19.607600
C       7.152400    14.738400    14.552400
C       6.127000    14.415100    15.453300
C       5.191800    15.605900    13.793200
C       6.544100    15.475500    13.487300
C       9.489900    15.341500    14.898800
H       9.229100    16.085300    14.301000
H      10.329500    14.951100    14.546500
C       9.744000    15.885100    16.281500
H      10.029100    15.139100    16.869700
H       8.893200    16.242700    16.643300
C      10.795300    16.980400    16.338600
H      10.471700    17.767200    15.832900
H      11.623700    16.657500    15.902700
C      11.116100    17.401400    17.764700
H      10.294500    17.695700    18.211100
H      11.761400    18.139200    17.747700
H      11.500000    16.643200    18.251300
C       5.901200    14.014700    17.875500
H       6.217900    13.348900    18.537000
H       4.911300    13.980400    17.862000
C       6.337700    15.396000    18.318000
H       6.044600    16.058800    17.644100
H       7.326400    15.425200    18.361300
C       5.769000    15.780800    19.677600
H       4.780500    15.770600    19.626600
H       6.044000    15.102400    20.343900
C       6.220200    17.141900    20.149200
H       7.194400    17.143900    20.255000
H       5.798700    17.344200    21.012500
H       5.960400    17.818300    19.491200
C       3.620500    14.740600    15.588300
H       3.644000    13.927300    16.150300
H       2.954400    14.591400    14.870200
C       3.160800    15.917800    16.446500
H       3.783600    16.022000    17.208200
H       3.207600    16.745400    15.904800
C       1.749400    15.758400    16.981800
H       1.443900    16.633000    17.328800
H       1.153100    15.511100    16.230700
C       1.610400    14.820300    17.976300
H       1.771000    13.927300    17.608100
H       0.701100    14.863200    18.342300
H       2.258000    15.002200    18.689300
C       4.234900    16.303000    12.964000
H       4.553200    16.673900    12.149200
C       2.222800    17.221600    12.238100
H       2.620100    17.092800    11.341000
H       2.263000    18.186200    12.456000
C       0.796400    16.778100    12.214800
H       0.339000    17.211400    11.451000
H       0.767500    15.801300    12.066700
C       0.052600    17.101000    13.467400
H       0.566600    16.774000    14.248100
H      -0.820900    16.633000    13.461000
C      -0.184900    18.637800    13.611300
H       0.660300    19.079200    13.837700
H      -0.838600    18.803300    14.322200
H      -0.523900    18.997500    12.764900
C       8.209000    15.764500    11.924100
H       8.678800    15.047200    12.333300
C       8.830200    16.508400    10.773900
H       9.142800    15.858500    10.096800
H       8.146000    17.084700    10.350700
C       9.984500    17.354400    11.216100
H      10.730200    16.763800    11.491200
H       9.710900    17.885800    12.005300
C      10.467500    18.290400    10.130700
H      10.803700    17.767200     9.373200
H      11.187900    18.856500    10.481900
H       9.725400    18.856500     9.832400
N       6.583600    10.765600    15.733000
N       8.948600    11.392400    14.061500
N       9.045200    12.302800    17.136500
N       8.449600    14.325600    14.876300
N       6.408700    13.648100    16.551400
N       4.920700    14.927400    14.984900
N       3.004100    16.460700    13.234800
N       7.067700    16.089200    12.346600
Nb      7.972400    12.555400    15.764300
