65
Refcode: KAGGIJ_comp_0 | Dataset: tmCAT | Charge: 0 | Potential Spins: [1, 3, 5]
Cu      6.206100     3.670100     6.053300
N       6.947700     4.646000     7.492700
N       7.084100     4.617600     4.670900
N       5.526200     2.402800     4.821000
N       4.952200     2.841300     7.204000
C       6.469600     4.622400     8.796500
C       6.941300     5.815500     9.456400
H       6.781400     6.049100    10.363700
C       7.645000     6.540200     8.570800
H       8.055100     7.381900     8.733400
C       7.665200     5.827300     7.358600
C       8.265700     6.227500     6.129300
C       8.085100     5.550800     4.911500
C       8.873300     5.693100     3.739500
H       9.623800     6.266500     3.637500
C       8.367800     4.866400     2.790900
H       8.698800     4.757900     1.906400
C       7.242000     4.185600     3.363700
C       6.446900     3.191600     2.719800
C       5.547700     2.383600     3.431300
C       4.509800     1.516500     3.001700
H       4.317000     1.268700     2.105700
C       3.832300     1.100700     4.130100
H       3.077800     0.523800     4.149600
C       4.456700     1.679600     5.235700
C       4.250200     1.813600     6.664400
C       3.588200     1.133900     7.696600
H       2.979800     0.412400     7.593500
C       3.979700     1.704600     8.890400
H       3.705200     1.432500     9.758800
C       4.870500     2.776100     8.586800
C       5.609800     3.664400     9.362400
C       5.506700     3.586300    10.847200
C       6.659700     3.546800    11.638900
H       7.508700     3.629500    11.220700
C       6.600300     3.391700    12.997600
H       7.398900     3.353200    13.512000
C       5.356700     3.289700    13.620900
H       5.300700     3.177900    14.561500
C       4.219500     3.352100    12.865900
H       3.375000     3.297300    13.297800
C       4.264000     3.492300    11.489900
H       3.460500     3.523500    10.984700
C       9.141100     7.425000     6.119000
C      10.195700     7.551500     6.996600
H      10.344400     6.884600     7.657700
C      11.050200     8.662200     6.916400
H      11.801300     8.726800     7.495000
C      10.798300     9.667300     5.991900
H      11.361600    10.430300     5.944900
C       9.722600     9.542900     5.145200
H       9.541900    10.228400     4.511600
C       8.915000     8.452300     5.202500
H       8.180400     8.386700     4.604400
C       6.561700     3.047100     1.249900
C       6.539500     4.152700     0.406700
H       6.442500     5.022300     0.775600
C       6.656200     4.002800    -0.954300
H       6.647000     4.768300    -1.515700
C       6.786800     2.755400    -1.507700
H       6.860600     2.656100    -2.449400
C       6.810500     1.643000    -0.689700
H       6.912300     0.779300    -1.072300
C       6.690300     1.772000     0.671400
H       6.693200     0.998800     1.223600
