42
Refcode: KAMFIO_comp_0 | Dataset: tmCAT | Charge: 0 | Potential Spins: [1, 3, 5]
Ni     -1.459400     5.433000     9.497000
Br     -2.101200     6.188800    11.790900
Br     -1.943100     7.590100     8.405100
Cl      1.169200     3.670200    11.858700
Cl      1.654100     8.338800     9.200600
O      -1.661500     3.474500    10.214500
O      -3.510200     4.513200     8.273300
O      -4.078900     4.106200     6.143500
N      -0.934300     4.640600     7.668600
N       0.615600     5.538500     9.587500
C       0.398500     4.642700     7.432600
C       0.898100     4.188000     6.216200
H       1.817000     4.187000     6.054100
C       0.019900     3.737600     5.251100
H       0.351600     3.424800     4.439700
C      -1.334600     3.745800     5.471800
H      -1.934400     3.455900     4.821000
C      -1.778700     4.205700     6.711900
C       1.235300     5.122200     8.521900
C       2.727900     5.165700     8.355700
H       3.132500     5.496000     9.161500
H       2.951700     5.746700     7.623900
H       3.057700     4.281300     8.172800
C       1.349600     6.097700    10.676800
C       1.600300     5.355200    11.842900
C       2.202200     5.917500    12.930900
H       2.326900     5.414200    13.703200
C       2.618000     7.213100    12.887600
H       3.032700     7.590100    13.629200
C       2.426700     7.963900    11.761900
H       2.707600     8.850400    11.741000
C       1.818200     7.406800    10.657300
C      -3.247700     4.290600     6.971700
C      -4.926400     4.472800     8.770500
H      -5.428800     3.835900     8.238400
H      -4.929300     4.158000     9.688000
C      -5.552300     5.695900     8.714600
H      -6.443400     5.615100     9.063800
H      -5.593400     5.994200     7.802700
H      -5.061400     6.331800     9.238300
H      -2.592000     3.332200    10.530600
H      -1.457700     2.832100     9.485300
