54
Refcode: KAMFOU_comp_0 | Dataset: tmCAT | Charge: 0 | Potential Spins: [1, 3, 5]
Ni     -1.079800     6.043100     9.117300
Cl     -1.826100     8.247400     9.519500
Cl     -3.003400     4.896800     9.683300
N       0.650300     6.812100     8.459200
N       0.169200     5.832800    10.820500
O      -1.437100     6.533400     6.855500
O      -0.327400     7.482500     5.153500
C       1.637800     6.922900     9.348100
C       2.859100     7.474300     8.967300
H       3.555500     7.549400     9.579700
C       3.018200     7.906400     7.667300
H       3.831400     8.267400     7.396500
C       1.980000     7.807300     6.763900
H       2.072200     8.110100     5.889400
C       0.793700     7.238000     7.205400
C       1.323200     6.374000    10.693100
C       2.358000     6.479300    11.770200
H       2.586300     7.402000    11.904800
H       3.141900     5.990800    11.509600
H       2.009400     6.113700    12.585300
C      -0.185200     5.160000    12.064100
C       0.217700     3.842200    12.242200
C      -0.204400     3.202300    13.391700
H       0.045800     2.318200    13.533500
C      -0.979500     3.832300    14.326900
H      -1.259100     3.376300    15.088400
C      -1.343500     5.145400    14.134400
H      -1.865300     5.569900    14.775700
C      -0.950000     5.847700    13.008000
C       1.121600     3.161100    11.233100
H       0.680300     3.190200    10.370200
H       1.934000     3.686000    11.157800
C       1.508000     1.754200    11.502400
H       1.926500     1.696100    12.363800
H       2.122500     1.456300    10.827700
H       0.724600     1.198700    11.489300
C      -1.294600     7.314900    12.792300
H      -0.459600     7.792000    12.664900
H      -1.784800     7.377000    11.956900
C      -2.060500     8.041600    13.801400
H      -2.834600     7.529000    14.046000
H      -2.337500     8.888500    13.443800
H      -1.513700     8.184700    14.577400
C      -0.441400     7.041700     6.384600
C      -1.499600     7.341100     4.285300
H      -1.763000     6.409700     4.230300
H      -2.243300     7.849600     4.645800
C      -1.145600     7.840700     2.963500
H      -0.714200     8.695100     3.049000
H      -1.939900     7.935600     2.433700
H      -0.547800     7.222300     2.536500
O      -0.385300     4.168600     8.253600
H      -0.151100     4.023700     7.448700
H      -0.704900     3.447400     8.618400
