65
Refcode: KARPAW_comp_0 | Dataset: tmCAT | Charge: 0 | Potential Spins: [1, 3, 5]
Ti      1.012300    -0.029800    -0.981000
Cl      2.061000     7.214900     6.202400
N       0.936900     1.150900     0.804100
Cl     -0.646900     6.947800    -2.483200
N       0.964100    -1.491400     0.784200
C       0.958100     2.490900     1.154200
C       1.339000     0.506900     1.941500
C       1.389900     2.569700     2.483500
C       1.563800     3.741300     3.343900
C       2.647300     3.810200     4.212600
H       3.281400     3.116700     4.207900
N       1.173400     1.430700    -2.187200
C       1.641900    -1.719800     3.066500
H       1.932900    -1.320500     3.865800
C       0.841000    -2.823800     0.720000
H       0.564200    -3.210600    -0.090100
N       1.640700     1.300500     2.965200
C       1.873700     5.893000     5.088400
C       0.968800     5.746600    -0.702700
H       1.520000     6.503800    -0.789000
C       1.334300    -0.938800     1.964900
N       2.633100    -0.888700    -1.529200
C       1.336700     4.707600     0.135000
H       2.137500     4.767700     0.623500
C       0.539400     3.574900     0.266100
C      -0.655300     3.519800    -0.439200
H      -1.216000     2.771300    -0.351300
C       1.516500    -3.090400     2.975700
H       1.710500    -3.637400     3.715000
C       0.806700     5.869200     4.233400
H       0.181000     6.571400     4.233600
N      -0.474300    -0.867400    -1.770300
C       0.657700     4.796500     3.366500
H      -0.074500     4.782700     2.778900
C       2.818900     4.872900     5.085800
H       3.558200     4.901700     5.664400
C      -1.024400     4.566200    -1.272300
H      -1.834700     4.526100    -1.747100
C      -0.207000     5.660200    -1.404300
C       1.102500    -3.646200     1.783400
H       1.000700    -4.576200     1.701200
C      -0.608000    -1.688500    -2.959100
H      -1.137900    -1.216700    -3.619300
H      -1.048000    -2.522200    -2.727400
H       0.270900    -1.876300    -3.323300
C       2.381200     2.268100    -2.155400
H       2.125700     3.200600    -2.072700
H       2.882700     2.142900    -2.975700
H       2.930000     2.015200    -1.397700
C       3.138200    -0.808600    -2.905800
H       3.359400    -1.699800    -3.220300
H       3.932000    -0.251600    -2.927800
H       2.456900    -0.423100    -3.477700
C      -1.735300    -0.644600    -1.112700
H      -2.142200    -1.497000    -0.897500
H      -2.323200    -0.145200    -1.701200
H      -1.589800    -0.138900    -0.297900
C       0.304000     1.868800    -3.256700
H       0.716800     1.669800    -4.112200
H       0.158500     2.825100    -3.183500
H      -0.546500     1.406900    -3.192700
C       3.617300    -1.564600    -0.706200
H       4.471400    -1.114000    -0.789000
H       3.707200    -2.484600    -1.000500
H       3.329900    -1.548400     0.218900
