127
Refcode: KARWEH_comp_0 | Dataset: tmCAT | Charge: 0 | Potential Spins: [1, 3, 5]
C       1.460300     3.311100    12.116900
C       0.046300     3.247100    12.176800
C      -0.644300     4.210200    12.912500
H      -1.593300     4.166700    12.940800
C      -0.009200     5.224000    13.599700
C       1.367600     5.274900    13.534700
H       1.824700     5.957400    14.011300
C       2.109100     4.361200    12.794500
C      -0.660100     2.243900    11.402200
H      -0.166900     1.574200    10.945400
C      -2.600800     1.288800    10.518300
C      -2.206300    -0.006400    10.335900
H      -1.397100    -0.312100    10.727600
C      -2.979000    -0.880500     9.579400
H      -2.687100    -1.775100     9.450700
C      -4.162900    -0.465600     9.019400
C      -4.550300     0.813400     9.201800
H      -5.363200     1.115800     8.814300
C      -3.779200     1.691600     9.944200
H      -4.070600     2.588600    10.057300
C      -6.137000    -0.996800     7.814500
H      -6.639400    -0.513000     8.503200
H      -6.646900    -1.782900     7.528900
H      -5.987800    -0.407700     7.045200
C       3.551800     4.560300    12.725200
H       3.898400     5.282500    13.234900
C       5.766300     4.348900    12.131900
C       6.101700     5.632100    11.771300
H       5.426500     6.242200    11.498300
C       7.437500     6.036400    11.808000
H       7.672200     6.925000    11.567600
C       8.409600     5.155700    12.187000
C       8.077600     3.895200    12.553300
H       8.755100     3.292800    12.833300
C       6.758300     3.477900    12.524200
H       6.535900     2.588600    12.775300
C      10.282300     6.353400    11.522400
H       9.988600     6.248100    10.593300
H      11.258800     6.279300    11.567600
H      10.004300     7.231200    11.856100
C       3.131400    -0.167800     8.282600
C       4.104800    -1.240600     8.532900
H       4.976200    -0.848600     8.749300
H       4.189300    -1.798500     7.731100
H       3.799800    -1.790700     9.283800
C       3.287800     0.505200     6.974500
H       3.212500     1.476700     7.096100
H       2.588100     0.197000     6.362200
H       4.167300     0.290700     6.599800
C       1.747500    -0.671000     8.299600
H       1.510700    -0.942200     9.210300
H       1.674500    -1.443500     7.700000
H       1.139300     0.035100     7.998400
C      -0.798700     6.230500    14.411500
H      -1.723300     6.257800    14.086200
H      -0.393300     7.118100    14.316700
H      -0.792000     5.967200    15.354700
Hf      3.938300     2.005200    10.606000
N       4.404600     3.881300    12.062900
N      -1.928800     2.245300    11.325800
O       2.126600     2.422400    11.417000
O       3.245200     0.805800     9.272600
O      -4.885800    -1.411100     8.344800
O       9.752800     5.438600    12.240800
C       6.416300     3.311100     9.095200
C       7.830400     3.247100     9.035200
C       8.521000     4.210200     8.299600
H       9.470000     4.166700     8.271300
C       7.885800     5.224000     7.612300
C       6.509100     5.274900     7.677300
H       6.051900     5.957400     7.200800
C       5.767600     4.361200     8.417500
C       8.536800     2.243900     9.809900
H       8.043600     1.574200    10.266600
C      10.477500     1.288800    10.693700
C      10.082900    -0.006400    10.876100
H       9.273700    -0.312100    10.484400
C      10.855700    -0.880500    11.632700
H      10.563700    -1.775100    11.761400
C      12.039600    -0.465600    12.192700
C      12.426900     0.813400    12.010300
H      13.239900     1.115800    12.397700
C      11.655900     1.691600    11.267800
H      11.947300     2.588600    11.154700
C      14.013700    -0.996800    13.397500
H      14.516100    -0.513000    12.708800
H      14.523500    -1.782900    13.683200
H      13.864500    -0.407700    14.166800
C       4.324900     4.560300     8.486800
H       3.978300     5.282500     7.977100
C       2.110400     4.348900     9.080200
C       1.775000     5.632100     9.440800
H       2.450100     6.242200     9.713700
C       0.439100     6.036400     9.404000
H       0.204500     6.925000     9.644400
C      -0.532900     5.155700     9.025000
C      -0.201000     3.895200     8.658800
H      -0.878500     3.292800     8.378800
C       1.118400     3.477900     8.687900
H       1.340800     2.588600     8.436700
C      -2.405600     6.353400     9.689700
H      -2.112000     6.248100    10.618700
H      -3.382100     6.279300     9.644400
H      -2.127600     7.231200     9.355900
C       4.745300    -0.167800    12.929400
C       3.771900    -1.240600    12.679100
H       2.900400    -0.848600    12.462800
H       3.687400    -1.798500    13.481000
H       4.076900    -1.790700    11.928200
C       4.588900     0.505200    14.237500
H       4.664200     1.476700    14.115900
H       5.288500     0.197000    14.849800
H       3.709400     0.290700    14.612300
C       6.129100    -0.671000    12.912500
H       6.365900    -0.942200    12.001800
H       6.202200    -1.443500    13.512100
H       6.737300     0.035100    13.213700
C       8.675400     6.230500     6.800600
H       9.599900     6.257800     7.125800
H       8.270000     7.118100     6.895300
H       8.668700     5.967200     5.857300
N       3.472100     3.881300     9.149200
N       9.805400     2.245300     9.886200
O       5.750000     2.422400     9.795000
O       4.631400     0.805800    11.939400
O      12.762500    -1.411100    12.867200
O      -1.876200     5.438600     8.971300
