40
Refcode: KASPEB_comp_0 | Dataset: tmCAT | Charge: unknown | Potential Spins: [1, 3, 5]
Pt      1.078800     6.876500     3.292500
Cl     -0.328400     8.678900     3.525800
Cl      2.513700     5.109200     3.031500
N       0.678700     6.891700    -0.766800
N       0.489900     6.432500     0.461800
N       1.206800     7.223200     1.276500
C       0.310600     6.075200     5.121200
C       1.412500     6.805300     5.369500
C       1.454700     7.993800    -0.777700
C       1.818000     8.216900     0.516300
C       2.690700     9.256600     1.082600
C       2.725600    10.498200     0.433500
C       3.568100    11.482800     0.897500
C       4.350100    11.266000     2.014900
C       4.348000    10.025300     2.637900
C       3.509300     9.060000     2.163100
C       0.057900     6.201000    -1.884200
C       1.118800     5.573800    -2.790400
C       1.455600     6.172600    -3.992800
C       2.444300     5.617900    -4.787900
C       3.103200     4.453300    -4.369700
C       2.767300     3.853600    -3.158500
C       1.765200     4.409200    -2.372200
H      -0.435500     6.340600     5.681000
H       0.389500     5.196300     5.522000
H       2.033800     6.299300     5.918400
H       1.212600     7.439000     6.075300
H       1.694400     8.500700    -1.518300
H       2.174500    10.650700    -0.298400
H       3.615300    12.288200     0.435700
H       4.871000    11.955700     2.359100
H       4.922400     9.860900     3.350200
H       3.468900     8.247200     2.609600
H      -0.549000     5.524200    -1.548800
H      -0.442100     6.860400    -2.389600
H       1.010200     6.940300    -4.269500
H       2.675000     6.023800    -5.591700
H       3.776000     4.089600    -4.899000
H       3.193100     3.074800    -2.881900
H       1.524200     3.999600    -1.572700
