63
Refcode: KEDQOA_comp_0 | Dataset: tmCAT | Charge: unknown | Potential Spins: [1, 3, 5]
Rh      9.051700     2.446900     2.520100
Cl     10.903700     3.842700     3.076300
C      10.256300     0.812400     2.789900
N      10.907300     0.103200     1.849700
N      10.453700     0.251900     3.968200
C      11.477300    -0.769100     3.913900
H      12.334200    -0.431700     4.277500
H      11.205700    -1.573700     4.423700
C      11.593300    -1.063200     2.505700
H      12.553200    -1.113100     2.230000
C      11.350500     0.552700     0.505600
C      11.572400    -0.599300    -0.486100
H      12.172600    -0.303000    -1.202000
H      10.712000    -0.869000    -0.870500
H      11.974100    -1.360600    -0.018100
C      10.367800     1.400600    -0.185200
H      10.271600     2.249600     0.296700
H       9.501900     0.942200    -0.211700
H      10.672800     1.577000    -1.099000
C      12.596000     1.300700     0.720100
H      12.420800     2.063100     1.310700
H      12.933700     1.624700    -0.139300
H      13.262500     0.712500     1.133800
C      10.857900    -2.476000     2.278700
H      10.881200    -2.624700     1.289800
C       9.439400    -2.542600     2.638100
H       9.032700    -3.329400     2.218800
H       8.984000    -1.733500     2.324700
H       9.352000    -2.610200     3.611700
C      11.713700    -3.601300     2.869300
H      11.764200    -3.495900     3.841500
H      12.615300    -3.559100     2.489000
H      11.308500    -4.466900     2.654800
C      10.193300     0.999900     5.255200
H      11.011100     1.500400     5.501800
H       9.474800     1.661400     5.097800
C       9.808900     0.150900     6.376500
H       9.741300     0.708100     7.191300
H      10.519200    -0.521600     6.528300
C       8.521200    -0.549400     6.162000
H       7.841800     0.096600     5.875100
H       8.236600    -0.971100     6.999100
H       8.632400    -1.235200     5.472500
C       7.338500     1.294000     2.901300
H       7.893400     0.706900     3.401400
C       7.544600     1.345100     1.557200
H       8.248600     0.819000     1.195100
C       6.711900     2.196300     0.587800
H       6.778700     1.803400    -0.317600
H       5.761800     2.155200     0.863600
C       7.134700     3.639000     0.520900
H       7.641800     3.773300    -0.319000
H       6.318600     4.197300     0.463800
C       7.949300     4.135100     1.629600
H       8.790100     4.519100     1.413700
C       7.608500     4.094100     2.932000
H       8.239400     4.439200     3.551800
C       6.326900     3.555800     3.497500
H       6.164700     3.986400     4.375000
H       5.583500     3.815500     2.897100
C       6.292900     2.098600     3.679900
H       5.394200     1.774600     3.418100
H       6.407700     1.904400     4.643800
