31
Refcode: KELRID_comp_0 | Dataset: tmCAT | Charge: 0 | Potential Spins: [1, 3, 5]
Pd      9.320300     7.226000     3.708500
I      11.452800     8.008400     4.909400
I       9.962700     8.539200     1.594300
N       7.551700     6.419100     2.909200
C       6.928300     6.698300     1.785500
H       7.292700     7.339100     1.220900
C       5.753800     6.075900     1.413500
H       5.335800     6.304700     0.613200
C       5.219300     5.138700     2.211800
H       4.429600     4.713100     1.966900
C       5.843500     4.809200     3.395300
H       5.492700     4.158100     3.958100
C       6.998400     5.474000     3.713100
C       7.684700     5.335500     4.967700
N       8.685600     6.055300     5.268700
C       9.070400     5.786400     6.691500
H      10.027200     5.581600     6.753200
C       8.731200     7.000400     7.555300
H       9.228000     7.763600     7.192600
C       9.243900     6.757800     8.980000
H      10.174700     6.524400     8.950100
H       8.747100     6.041500     9.382000
H       9.131100     7.556500     9.501600
C       7.275400     7.370000     7.544100
H       6.990500     7.518700     6.639200
H       7.144500     8.169800     8.058200
H       6.761200     6.656000     7.927400
C       8.234400     4.522000     6.970100
H       8.799200     3.733600     6.992500
H       7.769300     4.597500     7.818900
O       7.281900     4.446500     5.863300
