116
Refcode: KEPMAV_comp_0 | Dataset: tmCAT | Charge: 1 | Potential Spins: [1, 3, 5]
Ru     -1.201900    18.527600     6.217000
P       1.053200    18.568700     6.716900
P      -1.468800    16.331000     5.578000
Cl     -1.691400    17.953800     8.495200
N      -3.407500    18.935500     5.725800
N      -1.251400    20.702100     6.849700
N      -0.785800    18.984300     4.296500
C      -0.476100    19.198700     3.217000
C      -0.044700    19.468000     1.844800
H       0.679800    20.127400     1.854300
H      -0.800100    19.818800     1.328500
H       0.275400    18.638500     1.434800
C      -0.793600    20.945900     8.253600
H      -1.294900    20.333800     8.848000
H      -1.048300    21.869000     8.500700
C      -2.712100    21.014400     6.854900
H      -2.839700    21.996300     6.860900
H      -3.126200    20.646200     7.675100
C      -3.384300    20.428500     5.646100
H      -4.311500    20.769600     5.585500
H      -2.899600    20.707900     4.830200
C      -3.809100    18.457000     4.368000
H      -3.147900    18.798600     3.716100
H      -4.681000    18.868000     4.145000
C      -3.932100    16.958400     4.168000
C      -5.022200    16.542600     3.381900
H      -5.660400    17.186200     3.099300
C      -5.190000    15.220500     3.008600
H      -5.930300    14.964400     2.471100
C      -4.265100    14.272600     3.426700
H      -4.363500    13.361700     3.171400
C      -3.199700    14.663500     4.216400
H      -2.580100    14.005900     4.511300
C      -3.003800    16.001800     4.595600
C      -1.724500    15.053900     6.893000
C      -0.821800    14.046900     7.235800
H      -0.013400    13.955700     6.745200
C      -1.088100    13.178100     8.281900
H      -0.457400    12.501500     8.502600
C      -2.261700    13.282800     9.010500
H      -2.428000    12.702100     9.743900
C      -3.185300    14.243300     8.656200
H      -4.010400    14.302900     9.121300
C      -2.908100    15.122200     7.619000
H      -3.546600    15.789900     7.398000
C      -0.238000    15.641900     4.403500
C      -0.484500    15.768400     3.027700
H      -1.290600    16.173700     2.729200
C       0.441400    15.304600     2.098500
H       0.272700    15.409900     1.169100
C       1.611100    14.688200     2.523800
H       2.218700    14.329900     1.886500
C       1.892100    14.596600     3.877400
H       2.704400    14.200600     4.169700
C       0.981800    15.087100     4.808400
H       1.191500    15.045400     5.733600
C       0.673600    20.777000     8.545300
C       1.194400    21.673600     9.497100
H       0.622800    22.333800     9.869100
C       2.518000    21.620400     9.906900
H       2.846700    22.241200    10.544800
C       3.358600    20.653500     9.377800
H       4.270300    20.613400     9.641400
C       2.855200    19.746700     8.459700
H       3.432700    19.078200     8.111700
C       1.519200    19.781400     8.026300
C       1.947600    17.067200     7.304300
C       3.205500    16.690500     6.830800
H       3.647900    17.230600     6.187200
C       3.815400    15.528500     7.294800
H       4.662200    15.271100     6.948200
C       3.202000    14.744500     8.255100
H       3.619600    13.949900     8.567200
C       1.965200    15.133300     8.758700
H       1.545900    14.609500     9.432600
C       1.333200    16.282000     8.285100
H       0.482900    16.532400     8.629800
C       2.140200    19.133800     5.326900
C       2.287000    18.304400     4.209800
H       1.822500    17.477400     4.171600
C       3.110900    18.683400     3.151100
H       3.219600    18.106200     2.404600
C       3.769500    19.900000     3.185800
H       4.335200    20.156300     2.467300
C       3.603100    20.741500     4.266700
H       4.040700    21.585500     4.279800
C       2.798500    20.364000     5.339800
H       2.698400    20.947100     6.082800
C      -4.421700    18.474000     6.750300
H      -4.044800    18.638500     7.650500
H      -4.531300    17.494800     6.652200
C      -5.799200    19.108700     6.695600
C      -6.806900    18.606500     5.870200
H      -6.621100    17.867000     5.302800
C      -8.082800    19.170400     5.865100
H      -8.756500    18.812100     5.299000
C      -8.370200    20.248500     6.682500
H      -9.233600    20.642300     6.667400
C      -7.385900    20.750300     7.524800
H      -7.578300    21.487100     8.092700
C      -6.118300    20.176800     7.538100
H      -5.458300    20.517000     8.130600
C      -0.510900    21.612500     5.894900
H      -0.698200    21.303900     4.972500
H       0.460000    21.494800     6.052400
C      -0.817900    23.092500     5.962800
C      -1.529200    23.673600     4.917100
H      -1.851800    23.128400     4.209600
C      -1.775500    25.045800     4.893800
H      -2.252700    25.431200     4.169700
C      -1.319300    25.848900     5.935700
H      -1.492100    26.783200     5.929100
C      -0.612600    25.279400     6.982200
H      -0.304000    25.824600     7.696000
C      -0.355800    23.918700     6.990800
H       0.142200    23.541100     7.705500
