46
Refcode: KESQAA_comp_0 | Dataset: tmCAT | Charge: 0 | Potential Spins: [1, 3, 5]
Ru      2.924900     2.757500     2.477600
Cl      4.470700     4.328700     3.555900
Cl      2.379900     4.470700     0.869300
S       3.977700    -1.466600     6.347700
N       3.652200     1.265400     3.649600
N       3.181900     0.637700     4.797400
N       5.040800    -0.337500     4.104300
N       6.176800    -1.174800     4.039600
N       4.635100     2.073500     1.396600
C       4.038700    -0.321800     5.045800
C       4.751800     0.670100     3.244200
C       5.394300     1.138200     2.020800
C       6.629400     0.726600     1.528100
H       7.127500     0.077300     1.970700
C       7.091500     1.300300     0.377900
H       7.926800     1.065000     0.043800
C       6.311400     2.234800    -0.292300
H       6.602700     2.606400    -1.093900
C       5.104200     2.599800     0.250500
H       4.589600     3.236600    -0.192100
C       3.071800    -0.518000     7.515500
H       3.614700     0.211200     7.824500
H       2.828300    -1.073300     8.258700
H       2.277900    -0.172900     7.100000
S       1.591600     1.360700     1.336700
O       2.152000     0.789800     0.089800
C       1.101800    -0.039100     2.327700
H       1.882500    -0.509600     2.624200
H       0.553600    -0.626900     1.801600
H       0.602600     0.266900     3.087600
C       0.015300     2.060200     0.908100
H       0.148600     2.836700     0.359100
H      -0.451100     2.311300     1.709800
H      -0.502500     1.411700     0.425900
S       1.311100     3.405700     3.921400
O       0.083100     2.584000     4.025000
C       0.796700     5.089800     3.684700
H       0.426300     5.190400     2.803700
H       1.552900     5.672600     3.780700
H       0.131500     5.316000     4.338100
C       1.925300     3.527600     5.607400
H       2.248300     2.670500     5.893400
H       1.214600     3.812000     6.185700
H       2.640700     4.167000     5.640800
H       5.860700    -1.945500     3.778600
H       6.479000    -1.064200     4.864200
