47
Refcode: KETMUT_comp_0 | Dataset: tmCAT | Charge: 0 | Potential Spins: [1, 3, 5]
C       6.674600    12.578600     8.136100
H       7.242200    11.956000     8.617400
H       6.714000    13.434600     8.591200
C       7.185300    12.735900     6.718800
H       8.099800    13.059400     6.738800
H       7.181900    11.873400     6.276400
C       4.637500    12.379400     9.437600
H       5.243500    12.135000    10.154100
H       3.834400    11.844100     9.530500
C       4.279000    13.834100     9.566200
C       4.081900    14.410400    10.815800
H       4.210700    13.909700    11.589900
C       3.692600    15.731100    10.897200
H       3.541900    16.130100    11.723500
C       3.530700    16.455400     9.724400
H       3.277200    17.350500     9.750600
C       3.753100    15.824600     8.520700
H       3.651600    16.316000     7.737100
C       6.377700    13.386900     4.504700
H       7.299000    13.257300     4.228800
H       6.021000    14.140300     4.010000
C       5.578300    12.149700     4.175700
C       5.866800    11.370100     3.060800
H       6.593800    11.572200     2.517900
C       5.053800    10.287900     2.773100
H       5.226700     9.754500     2.031900
C       3.979900    10.008600     3.600400
H       3.419900     9.288000     3.423100
C       3.757700    10.820000     4.692200
H       3.039500    10.627200     5.250600
C       5.249100    10.610700     7.939000
H       4.339600    10.315600     7.843200
H       5.647400    10.176200     8.697300
H       5.743100    10.387900     7.146300
C       6.738600    15.097000     6.195700
H       6.147000    15.680900     5.696000
H       6.620400    15.295300     7.137100
C       8.135300    15.401800     5.818900
C       9.278000    15.581400     5.557200
H      10.174800    15.722200     5.351500
N       5.273700    12.078900     8.140400
N       6.338200    13.689300     5.951500
N       4.110200    14.528300     8.425200
N       4.536800    11.880300     4.985500
Cl      2.038200    12.336600     7.302500
Cl      3.472400    15.055500     5.160000
Fe      4.178800    13.313100     6.601800
