60
Refcode: KEXCOI_comp_0 | Dataset: tmCAT | Charge: 0 | Potential Spins: [1, 3, 5]
Ru      3.508000     1.777200     1.280300
Cl      2.545700    -0.362900     1.789800
Cl      5.418700     1.162800     2.609500
P       2.637500     2.529800     3.311300
O       2.189000     1.589800     8.351700
O       2.853600    -0.114600     7.093300
C       3.606000     3.753800     0.357400
H       3.636800     4.611100     0.765900
C       2.353200     3.162900     0.059900
H       1.557500     3.628900     0.288800
C       2.254600     1.910400    -0.559900
C       0.952400     1.269300    -0.905000
H       0.217700     1.794500    -0.523000
H       0.928100     0.360400    -0.538800
H       0.854300     1.230700    -1.878800
C       3.482500     1.235800    -0.862800
H       3.456000     0.377200    -1.267800
C       4.713700     1.817700    -0.574000
H       5.510900     1.354200    -0.801200
C       4.805400     3.088200     0.054600
C       6.164700     3.672700     0.290500
H       6.743200     2.965900     0.695500
C       6.754800     4.055000    -1.058200
H       6.790700     3.263300    -1.635800
H       7.660600     4.407700    -0.931500
H       6.193700     4.739800    -1.479100
C       6.176500     4.880200     1.213200
H       5.729800     5.633200     0.771200
H       7.102000     5.124700     1.419200
H       5.703500     4.662600     2.042500
C       0.850500     2.932500     3.305000
C       0.041000     2.232200     2.428100
H       0.429800     1.609100     1.825900
C      -1.335300     2.434300     2.417500
H      -1.884200     1.959300     1.804800
C      -1.897300     3.325100     3.303200
H      -2.837600     3.459000     3.308500
C      -1.097800     4.022800     4.181800
H      -1.489200     4.642000     4.785800
C       0.268900     3.827100     4.188900
H       0.812500     4.308600     4.801600
C       3.501400     4.038300     3.864900
C       4.737400     3.916000     4.493500
H       5.062700     3.058600     4.740000
C       5.493900     5.044900     4.757600
H       6.347400     4.953500     5.164400
C       5.025600     6.297500     4.440700
H       5.544800     7.069900     4.634400
C       3.783800     6.419800     3.835000
H       3.441000     7.283500     3.636000
C       3.044800     5.308800     3.519800
H       2.216700     5.405400     3.063800
C       2.791100     1.377400     4.725900
H       2.248100     0.571600     4.537500
H       3.736200     1.090300     4.799900
C       2.356800     1.958000     6.050000
H       2.888200     2.775400     6.220800
H       1.408600     2.233500     5.972600
C       2.486200     1.063300     7.229800
H       3.211000    -0.849600     8.099600
