69
Refcode: KIJGEQ_comp_0 | Dataset: tmCAT | Charge: unknown | Potential Spins: [1, 3, 5]
Ru      2.013100     4.915400    14.901100
Cl      0.320900     6.290000    14.042000
Cl      3.810500     3.437700    14.733200
O       3.374400     6.717100    14.636600
N      -0.075200     2.978800    14.316000
N       0.574800     2.711900    16.386900
C       0.783500     3.415300    15.256800
C      -1.042600     1.994000    14.826000
H      -1.083200     1.193000    14.245100
H      -1.949000     2.384500    14.906300
C      -0.450100     1.665000    16.193300
H      -1.141600     1.709600    16.899400
H      -0.041600     0.764100    16.197100
C       1.957800     5.637000    16.575000
H       1.467000     5.210200    17.267400
C       2.670500     6.867500    16.833900
C       2.629800     7.522400    18.066200
H       2.109000     7.159600    18.773000
C       3.339900     8.692300    18.270500
H       3.316100     9.125900    19.116700
C       4.081800     9.222700    17.239400
H       4.570000    10.023700    17.388800
C       4.141100     8.620100    15.987900
H       4.651300     9.004400    15.285500
C       3.424800     7.434800    15.796400
C       4.227700     7.116500    13.502400
H       4.193300     8.109700    13.389500
C       5.664700     6.679900    13.770600
H       6.030800     7.204200    14.514000
H       6.206800     6.829000    12.969200
H       5.678800     5.728300    14.004100
C       3.621100     6.447800    12.291200
H       3.691900     5.474600    12.386400
H       4.102200     6.732200    11.486100
H       2.677600     6.701400    12.216500
C       1.547500     2.570500    17.486700
H       2.254900     3.263900    17.351500
C       2.235500     1.202200    17.457600
H       2.658100     1.060800    16.574400
H       1.564300     0.488900    17.598100
C       3.301900     1.133000    18.556300
H       3.719300     0.235200    18.554400
H       4.009300     1.800300    18.373300
C       2.692600     1.403600    19.931100
H       2.056000     0.681100    20.155300
H       3.409800     1.405200    20.612900
C       1.967500     2.745800    19.957700
H       2.624500     3.476000    19.841500
H       1.529800     2.864100    20.837100
C       0.915200     2.825700    18.852000
H       0.207800     2.153900    19.019600
H       0.496100     3.722000    18.858900
C       0.084900     3.223900    12.870400
H       0.612800     4.067900    12.776800
C      -1.252100     3.463700    12.198300
H      -1.730500     4.198600    12.657300
H      -1.808400     2.647400    12.259400
C      -1.028400     3.829600    10.726600
H      -1.904700     3.897300    10.270000
H      -0.588900     4.715100    10.673500
C      -0.165400     2.796500    10.005500
H      -0.672100     1.950900     9.922600
H       0.034500     3.120900     9.091400
C       1.133600     2.525900    10.729600
H       1.699600     3.339200    10.705300
H       1.622700     1.798700    10.270000
C       0.884300     2.127700    12.186000
H       0.382000     1.274500    12.220200
H       1.747300     1.998600    12.653600
