57
Refcode: KIKRUU_comp_0 | Dataset: tmCAT | Charge: 1 | Potential Spins: [1, 3, 5]
Ru      0.285000    -2.739700    10.115700
Cl     -1.787500    -3.686700     9.481000
C       0.489800    -2.180100    14.366700
H       1.174600    -1.904100    14.932600
C      -1.726800    -2.982300    14.015800
H      -2.552000    -3.258400    14.344300
C      -0.973900     0.175700     9.608000
C       1.587500    -3.473700     5.734200
H       1.807700    -3.648800     4.847700
N      -0.103500    -0.957000     7.842200
N      -0.291100    -2.613600    12.140200
N       0.908300    -2.975200     8.328300
N      -0.307200    -0.984400     9.118700
N       1.916500    -1.868100    10.993700
C       3.220800    -5.152100    11.612100
H       3.820800    -4.866800    10.961600
C      -1.721800     1.012500     8.771800
H      -1.780100     0.835900     7.860600
C       1.970900    -4.374600     6.723300
H       2.464000    -5.134900     6.513900
C      -0.861100     0.458700    10.966900
H      -0.354500    -0.092900    11.518000
C      -1.507200     1.565300    11.494800
H      -1.423400     1.764900    12.399300
C      -1.476800    -2.989100    12.658000
H      -2.151400    -3.262600    12.079500
N       1.349500    -4.454300    10.210700
C       0.883000    -2.317700     6.045700
H       0.630800    -1.719100     5.380100
C       3.044900    -1.355200    13.031200
H       3.056400    -1.350500    13.961200
C      -0.734600    -2.562100    14.879700
H      -0.889000    -2.535400    15.796500
C       3.673000    -5.677200    12.812300
H       4.585800    -5.743700    12.976400
C       1.929600    -1.810700    12.345600
C       1.595300    -4.103500     8.034300
C       0.681700    -2.215500    12.991700
C      -2.277700     2.374800    10.675300
H      -2.732300     3.101000    11.037300
C       1.843100    -5.061000    11.402200
C      -2.375100     2.106100     9.315300
H      -2.880800     2.662800     8.768100
N       1.919300    -4.890200     9.127700
C       0.563600    -2.079100     7.375500
C       0.929700    -5.487100    12.350400
H       0.015000    -5.412000    12.197900
C       2.990700    -1.458800    10.308400
H       2.982400    -1.512200     9.379900
C       1.413500    -6.032600    13.542400
H       0.818600    -6.348000    14.184000
C       2.764000    -6.104000    13.767800
H       3.076100    -6.443900    14.575300
C       4.107700    -0.961200    10.939400
H       4.835000    -0.663000    10.442600
C       4.135300    -0.910300    12.317900
H       4.883200    -0.578100    12.760700
