87
Refcode: KILWAF_comp_0 | Dataset: tmCAT | Charge: unknown | Potential Spins: [1, 3, 5]
Ru      2.675700    13.848400     5.539100
Cl      1.422800    15.167900     7.167100
Cl      4.016300    15.872800     5.337500
P       3.788500    12.553800     6.986300
P       0.877900    12.515700     4.941000
C       3.837800    12.820000     4.221300
N       4.388800    11.623800     4.611300
C       5.213900    11.077800     3.661000
H       5.707700    10.268600     3.727800
C       5.182900    11.913700     2.620200
H       5.657000    11.808200     1.803600
N       4.335300    12.966300     2.941300
C       4.189700    14.106200     1.967300
C       5.401600    15.023700     2.133300
H       5.374100    15.443100     3.018900
H       5.384600    15.717500     1.441600
H       6.224300    14.497400     2.047100
C       2.887900    14.857600     2.193600
H       2.134500    14.235600     2.120300
H       2.796000    15.561300     1.517000
H       2.894000    15.260100     3.085700
C       4.179400    13.532000     0.547300
H       5.071200    13.190100     0.325400
H       3.932000    14.235600    -0.088300
H       3.526500    12.801700     0.495600
C       4.209000    11.103100     5.940800
H       5.040800    10.672500     6.261900
H       3.477200    10.437500     5.958000
C       3.013300    11.778600     8.524400
C       3.659200    10.427600     8.899300
H       3.269600    10.099800     9.737600
H       4.624800    10.547300     9.013500
H       3.493500     9.777500     8.186100
C       3.094200    12.735500     9.716000
H       2.748300    13.615000     9.453100
H       4.027000    12.824200    10.002600
H       2.557000    12.382300    10.457300
C       1.550600    11.528100     8.255100
H       1.144800    11.090500     9.032900
H       1.457900    10.949700     7.468600
H       1.098600    12.380900     8.087000
C       5.500700    13.233700     7.457800
C       6.323100    13.439100     6.177800
H       7.168200    13.882400     6.399800
H       5.817400    13.996400     5.550800
H       6.509900    12.569500     5.766300
C       6.319000    12.282400     8.354200
H       6.397700    11.408500     7.918900
H       5.867400    12.178300     9.218300
H       7.213800    12.656700     8.498600
C       5.346300    14.583200     8.196900
H       6.215900    15.033500     8.240000
H       5.016400    14.421400     9.106200
H       4.709800    15.148900     7.714200
C       1.273500    10.901900     4.150200
C       1.122400     9.717000     4.854800
H       0.716000     9.728300     5.712400
C       1.562800     8.513800     4.316100
H       1.453900     7.708900     4.809500
C       2.146500     8.480000     3.085700
H       2.453700     7.656800     2.728000
C       2.290900     9.646600     2.366000
H       2.686300     9.621300     1.501900
C       1.860400    10.859700     2.893900
H       1.969100    11.660400     2.394000
C      -0.699900    12.126200     5.826600
C      -1.075900    12.812900     6.977300
H      -0.494300    13.465900     7.345700
C      -2.285600    12.552600     7.580600
H      -2.513200    13.002900     8.386500
C      -3.176600    11.640700     7.031100
H      -4.009400    11.462000     7.451300
C      -2.827400    11.004600     5.865400
H      -3.437700    10.399500     5.462400
C      -1.615900    11.228400     5.275000
H      -1.392100    10.765400     4.475500
C       0.098500    13.512300     3.596400
C      -0.056400    14.875900     3.824800
H       0.243300    15.251700     4.643600
C      -0.644000    15.689300     2.870200
H      -0.729300    16.622300     3.029700
C      -1.103600    15.148900     1.695800
H      -1.485200    15.709000     1.032200
C      -1.011900    13.786700     1.484700
H      -1.350400    13.409600     0.680900
C      -0.430300    12.970500     2.434900
H      -0.393400    12.031900     2.292700
