54
Refcode: KIMJAU_comp_0 | Dataset: tmCAT | Charge: 0 | Potential Spins: [1, 3, 5]
Ir      2.890700     2.674100     9.612000
O       3.305100     2.248300    12.833400
O       1.764700     0.879900     9.710300
O       1.209500     1.143900    11.872100
N       4.346500     1.742100    10.835500
C       4.381000     1.820500    12.180300
C       5.525100     1.475100    12.908500
H       5.552800     1.594200    13.850600
C       6.611200     0.959100    12.234700
H       7.408600     0.742000    12.703200
C       6.526000     0.759900    10.863200
H       7.243400     0.345100    10.398500
C       5.401200     1.163800    10.174400
C       5.197800     1.059000     8.730100
C       6.088700     0.386700     7.878100
H       6.868400    -0.021500     8.235700
C       5.835300     0.316800     6.521000
H       6.445800    -0.118800     5.937900
C       4.673300     0.893500     6.023200
H       4.486000     0.837700     5.093600
C       3.780000     1.550600     6.861100
H       2.986500     1.925400     6.497200
C       4.032300     1.668400     8.235800
C       3.228500     4.633800     8.806000
C       1.912700     4.176000     8.402700
C       1.134400     4.027500     9.607100
C       1.913100     4.389200    10.732100
C       3.234900     4.721700    10.235100
C       4.349100     5.022000     7.894200
H       5.202000     4.932800     8.368500
H       4.230100     5.951700     7.608000
H       4.349100     4.435900     7.108800
C       1.384100     4.087700     7.008300
H       2.126400     4.158500     6.372400
H       0.749800     4.818400     6.852500
H       0.929200     3.228500     6.885100
C      -0.285300     3.563500     9.645300
H      -0.464700     2.996100     8.866600
H      -0.883200     4.339900     9.628200
H      -0.439500     3.050500    10.465800
C       1.408200     4.531300    12.134900
H       0.893100     3.734400    12.379000
H       0.834600     5.323200    12.197000
H       2.167800     4.629400    12.746800
C       4.392900     5.167500    11.070200
H       4.331500     4.758400    11.958600
H       4.375800     6.143400    11.158000
H       5.230000     4.892700    10.641100
C       1.113300     0.573500    10.755500
C       0.140000    -0.569700    10.605100
H      -0.767600    -0.214600    10.502100
H       0.179500    -1.139300    11.401600
H       0.375900    -1.097700     9.814000
H       2.567900     1.978000    12.404600
