53
Refcode: KIMLID_comp_0 | Dataset: tmCAT | Charge: unknown | Potential Spins: [1, 3, 5]
Ru      7.702400     1.070000     1.174400
Cl      7.303500    -1.301300     1.404000
F      10.316500     0.438300     5.850900
F      11.121200    -0.430100     4.065100
F      11.132900     1.696400     4.323000
O       9.221000     0.761700     2.555800
O       6.419700     1.321300     2.796700
C       7.931100     0.856800     4.573800
H       7.982000     0.672500     5.504000
C       3.801100     3.366000     5.229900
H       3.230600     4.038200     4.876000
C       3.659600     2.972200     6.581900
C       7.042100     1.046800    -0.924200
C       5.632200     1.804600     4.942100
C       4.518300     1.961000     7.097700
C       5.515000     1.402900     6.256800
H       6.107100     0.745100     6.602300
C       6.363200     2.060200    -0.225400
H       5.414600     2.099700    -0.261900
C       4.744800     2.793800     4.426500
H       4.810900     3.057700     3.515800
C       6.299400    -0.038900    -1.650400
H       5.360600    -0.037100    -1.369800
H       6.701000    -0.908000    -1.439800
H       6.352000     0.119300    -2.616200
C       8.471000     1.032000    -0.870200
H       8.954200     0.366100    -1.345100
C       2.689800     3.547900     7.442300
H       2.122500     4.236600     7.116500
C       9.162100     1.990900    -0.124200
H      10.111100     1.965900    -0.112400
C       8.487600     3.012400     0.623800
C       9.063700     0.713100     3.816900
C       2.561800     3.121500     8.734500
H       1.899000     3.507600     9.294000
C       4.366700     1.551700     8.450600
H       4.938200     0.880500     8.804500
C       3.408900     2.110100     9.246400
H       3.310100     1.819100    10.145500
C       6.682900     1.266900     4.034200
C       9.660400     5.188900     0.669100
H      10.108200     4.904200    -0.154900
H      10.263900     5.760600     1.188800
H       8.848800     5.689600     0.442900
C       9.285900     3.959500     1.494600
H      10.136200     3.494700     1.742800
C       7.077700     3.027200     0.535700
H       6.592900     3.701100     0.996900
C      10.408600     0.602300     4.529300
C       8.589900     4.361900     2.795900
H       7.783500     4.878400     2.587500
H       9.198400     4.909100     3.334800
H       8.343300     3.556000     3.296400
