61
Refcode: KIMMIF_comp_0 | Dataset: tmCAT | Charge: unknown | Potential Spins: [1, 3, 5]
Rh      4.574500     8.429300     9.155800
Cl      2.366100     8.329000    10.079100
O       6.455600     2.473500    11.890300
N       4.353800     6.441700     8.596800
C       2.149400    10.910000     4.792800
H       2.336600    11.752900     5.186900
C       1.488200    10.858300     3.594600
H       1.213300    11.662600     3.169000
C       1.214900     9.615500     2.991100
H       0.768200     9.586700     2.152900
C       1.584000     8.455600     3.597100
H       1.379000     7.624300     3.183900
C       2.274500     8.470000     4.842900
C       2.682500     7.298900     5.501600
H       2.486000     6.450200     5.123000
C       3.372000     7.376700     6.703600
C       3.671300     8.628500     7.334700
C       3.237400     9.759300     6.702300
H       3.396600    10.601200     7.113700
C       2.556200     9.728700     5.450200
C       3.779300     6.217000     7.456400
H       3.634700     5.335700     7.134500
C       4.805700     5.359400     9.418600
C       5.683800     4.397600     8.934300
H       5.926000     4.399200     8.016000
C       6.205600     3.442700     9.780000
H       6.816300     2.797500     9.443800
C       5.845400     3.419000    11.117400
C       4.931500     4.352900    11.601700
H       4.647600     4.316500    12.508000
C       4.436700     5.339800    10.751100
H       3.844100     6.002100    11.087100
C       6.049300     2.381800    13.256600
H       5.085700     2.208000    13.299100
H       6.250100     3.224400    13.714000
H       6.532900     1.649400    13.692300
C       6.629800     9.010500     8.943100
C       5.851700    10.205700     9.093700
C       5.212900    10.137200    10.364600
C       5.675600     8.943200    11.055900
C       6.564600     8.277700    10.190200
C       7.562300     8.696200     7.813900
H       7.279400     9.183700     7.011700
H       7.544800     7.733200     7.633600
H       8.472400     8.966900     8.056100
C       5.798800    11.329600     8.117600
H       5.800800    10.971300     7.205900
H       6.579500    11.908600     8.243300
H       4.980400    11.849600     8.262500
C       4.340400    11.149000    11.002000
H       4.160000    11.872000    10.366500
H       4.787900    11.513700    11.794200
H       3.495200    10.730000    11.269200
C       5.284500     8.553500    12.443600
H       4.333500     8.744500    12.580600
H       5.817400     9.063100    13.088300
H       5.446800     7.594900    12.570500
C       7.349100     7.041700    10.493900
H       7.396300     6.480200     9.691900
H       6.910500     6.544900    11.215300
H       8.255400     7.290400    10.772000
