71
Refcode: KIMPAZ_comp_0 | Dataset: tmCAT | Charge: 0 | Potential Spins: [1, 3, 5]
Pd      5.197000     7.223900     2.377400
Cl      6.169800     5.025700     2.470200
P       6.539800     7.997900     4.009300
O       1.715700     7.192100    -0.082400
O       2.387300     8.691000    -1.617800
N       4.181300     6.514700     0.643700
H       4.588000     5.754800     0.384700
H       3.345700     6.293300     0.892300
C       4.262800     8.978200     2.133600
C       3.573700     9.669800     3.127400
C       2.912100    10.865100     2.863500
C       2.918300    11.389800     1.580100
C       3.557300    10.691200     0.556900
C       4.229200     9.490200     0.822800
C       4.859600     8.715500    -0.310400
H       5.780300     8.506300    -0.088100
H       4.858600     9.256700    -1.115100
C       4.071500     7.400000    -0.564800
C       2.595800     7.738200    -0.708300
C       1.000500     9.100900    -1.754900
C       4.569500     6.669200    -1.813700
C       3.661900     6.110100    -2.719500
C       4.120900     5.468000    -3.868600
C       5.485800     5.378200    -4.125000
C       6.392500     5.910900    -3.224900
C       5.935100     6.554100    -2.070900
C       6.205400     9.631000     4.753800
C       6.535200    10.787400     4.033400
C       6.171600    12.032900     4.509700
C       5.472000    12.150600     5.701200
C       5.146100    11.015000     6.429000
C       5.525500     9.754300     5.960200
C       8.232700     8.186500     3.376300
C       8.571500     7.651100     2.133100
C       9.860400     7.800500     1.620500
C      10.822300     8.469600     2.361000
H      11.684800     8.558500     2.026900
C      10.501600     9.010500     3.603100
C       9.215400     8.878000     4.110600
C       6.603500     6.906500     5.468100
C       7.738200     6.755700     6.258000
C       7.680000     5.990900     7.428900
C       6.487100     5.391400     7.811000
C       5.370300     5.536700     7.032600
C       5.419000     6.279800     5.853200
H       4.658500     6.358400     5.323000
H       3.524400     9.309400     3.963100
H       2.505500    11.307500     3.574600
H       2.505500    12.214700     1.385800
H       3.513400    11.068300    -0.401500
H       0.919900     9.711800    -2.525500
H       0.627100     9.539800    -0.945400
H       0.350900     8.315300    -1.955700
H       2.742600     6.217600    -2.629100
H       3.427300     5.137000    -4.481200
H       5.820600     4.966000    -4.908600
H       7.312100     5.881700    -3.406200
H       6.610400     6.917800    -1.489400
H       7.028300    10.742000     3.263700
H       6.434900    12.771700     4.066700
H       5.166500    13.027600     6.009400
H       4.548000    11.166800     7.213900
H       5.363200     8.936200     6.514500
H       7.874400     7.176000     1.631900
H      10.072800     7.439300     0.777100
H      11.095100     9.533300     4.066700
H       9.029200     9.281100     4.973300
H       8.516500     7.158500     5.996500
H       8.512000     5.810700     7.887400
H       6.360500     4.906000     8.547900
H       4.621400     5.064500     7.252700
