51
Refcode: KIQSEL_comp_0 | Dataset: tmCAT | Charge: 0 | Potential Spins: [1, 3, 5]
Au      0.693700     6.440600     5.152800
F      -1.855700     7.743800     9.599000
F      -0.278500     9.109500     9.051700
F      -2.109800     9.053400     7.920400
O      -0.000300     7.775400     6.645200
O      -0.765400     6.053500     7.882300
N       2.658900     6.063400     5.897600
C       1.323400     5.198300     3.796100
C       3.308800     5.100200     5.177000
C       2.566000     4.619700     3.999000
C      -0.609100     7.234600     7.622800
C       5.147600     5.204300     6.705500
H       6.002600     4.904500     6.991700
C       4.485500     6.185300     7.416300
H       4.879700     6.570800     8.189700
C       0.482900     4.851800     2.743400
C       3.245200     6.596200     6.984600
H       2.789400     7.274600     7.469300
C      -1.045800     6.259500     4.085000
H      -1.676000     5.681700     4.584300
H      -1.462900     7.152100     3.987800
C       4.562200     4.657300     5.571700
H       5.013900     3.987500     5.073100
C      -1.221400     8.298800     8.562300
C       2.997700     3.636200     3.108700
H       3.851800     3.236100     3.223200
C      -0.800900     5.650900     2.673300
C       0.927800     3.864900     1.866700
H       0.377400     3.612000     1.135300
C       2.173500     3.233100     2.040100
C       2.617700     2.144500     1.062500
C      -0.616000     6.791500     1.662500
H       0.115800     7.373100     1.956400
H      -1.444000     7.313100     1.603700
H      -0.403000     6.417000     0.782600
C      -2.005700     4.800700     2.277400
H      -1.909200     4.510500     1.346900
H      -2.824600     5.330900     2.371700
H      -2.056400     4.015200     2.861600
C       3.755900     1.306000     1.619500
H       4.531100     1.879900     1.792200
H       4.000100     0.613400     0.970700
H       3.470300     0.882700     2.456600
C       1.465700     1.185300     0.750100
H       1.106700     0.823200     1.587500
H       1.794500     0.450700     0.191300
H       0.758600     1.667700     0.273400
C       3.090600     2.807900    -0.221300
H       2.371700     3.365300    -0.585900
H       3.332600     2.118800    -0.875500
H       3.873000     3.366700    -0.031800
