77
Refcode: KIWJEG_comp_0 | Dataset: tmCAT | Charge: 0 | Potential Spins: [1, 3, 5]
Ti      3.570800     3.990800    10.790000
N       4.666400     5.811000    10.654200
N       5.241700     3.833500    12.255900
N       3.193100     2.344700    12.253100
N       2.576600     2.245500     9.731200
N       2.912200     5.150100    12.655400
N       1.536800     4.824100    10.455200
N       3.278000     4.620200     8.640100
N       5.262800     3.250000     9.661200
C       4.534500     6.995000    10.029100
H       3.862700     7.199500     9.418700
C       5.540400     7.870500    10.418600
H       5.653700     8.746800    10.126200
C       6.338100     7.196000    11.319000
H       7.095700     7.523600    11.748700
C       5.784000     5.925600    11.458600
C       6.058200     4.828200    12.296500
H       6.799700     4.822100    12.857000
C       5.338200     2.680600    13.164800
H       5.690000     1.929200    12.644800
C       6.229600     2.838700    14.392700
H       5.933900     3.598000    14.918100
H       7.145200     2.998600    14.116300
C       6.156600     1.565700    15.233700
H       6.568700     0.837000    14.743600
H       6.661600     1.695900    16.050100
C       4.730600     1.180400    15.588300
H       4.351800     1.855800    16.172700
H       4.737000     0.338100    16.071300
C       3.856200     1.042300    14.344100
H       4.176100     0.305800    13.798000
H       2.941000     0.851000    14.606800
C       3.902400     2.336300    13.540400
H       3.545500     3.060600    14.097500
C       2.519200     1.308000    11.877900
H       2.303800     0.633400    12.479700
C       2.126000     1.232800    10.543600
C       1.540900     0.211400     9.796300
H       1.161100    -0.573200    10.121500
C       1.639500     0.599400     8.478300
H       1.338800     0.126700     7.735000
C       2.277300     1.836600     8.473100
H       2.473100     2.321500     7.704300
C       3.418400     5.582200    13.830700
H       4.264700     5.361100    14.147000
C       2.523400     6.395600    14.511300
H       2.657500     6.798400    15.337900
C       1.395300     6.489100    13.720400
H       0.620100     6.968800    13.904100
C       1.656300     5.716700    12.585100
C       0.965800     5.520200    11.394000
H       0.115600     5.878400    11.272300
C       0.942700     4.781000     9.111000
H       0.780800     3.840900     8.885800
C      -0.356300     5.548100     8.867900
H      -0.232700     6.484700     9.088600
H      -1.060600     5.192500     9.432900
C      -0.751200     5.408300     7.391100
H      -0.946600     4.477800     7.199700
H      -1.557100     5.922900     7.225600
C       0.355700     5.892400     6.463900
H       0.494300     6.843000     6.598300
H       0.085000     5.756900     5.541800
C       1.666900     5.147100     6.723500
H       1.561100     4.208700     6.504000
H       2.370000     5.513200     6.164400
C       2.049100     5.294700     8.196200
H       2.158200     6.251500     8.376400
C       4.232700     4.345900     7.827700
H       4.198500     4.614100     6.937900
C       5.333000     3.624200     8.330000
C       6.523400     3.196100     7.769600
H       6.803100     3.327100     6.893100
C       7.217400     2.534700     8.771900
H       8.052000     2.131000     8.697100
C       6.424300     2.593200     9.906900
H       6.657800     2.228900    10.729900
