32
Refcode: KIWLUY_comp_0 | Dataset: tmCAT | Charge: 0 | Potential Spins: [1, 3, 5]
Ru     -0.819900     4.429200     8.392700
Cl     -1.698800     4.213600     6.177100
Cl      0.200900     4.798000    10.529600
O      -3.336100     3.115400     9.428900
O       0.273700     1.628400     8.447600
N       0.864200     5.401200     7.535800
N      -1.338000     6.511700     8.463200
N      -3.471200     6.101200     9.228800
C      -2.420500     3.670700     9.084400
C      -0.135700     2.679000     8.381400
C       1.911100     4.781100     6.975500
C       3.025000     5.483300     6.533600
C       3.080900     6.837900     6.676300
C       1.996500     7.494700     7.234800
C       0.884700     6.751500     7.635000
C      -0.358500     7.362900     8.169200
C      -0.494100     8.743500     8.301400
C      -1.652700     9.277100     8.772900
C      -2.728600     8.406400     9.096600
C      -3.974400     8.836400     9.599400
C      -4.930600     7.918200     9.870800
C      -4.632100     6.563500     9.682900
C      -2.516600     7.021600     8.934700
H       1.890600     3.834900     6.876400
H       3.750100     5.018800     6.131700
H       3.848900     7.324000     6.397900
H       2.008200     8.438800     7.346200
H       0.226000     9.313800     8.059500
H      -1.740700    10.216900     8.884300
H      -4.141200     9.761000     9.745600
H      -5.786500     8.186100    10.182300
H      -5.305600     5.928400     9.895200
