48
Refcode: KIWYIB_comp_0 | Dataset: tmCAT | Charge: 0 | Potential Spins: [1, 3, 5]
Pd     -0.610000     6.764900     6.541600
I       1.535700     5.313700     6.188200
I      -2.766700     8.212300     6.810100
N       1.063900     7.781500    10.194600
N      -1.433600     5.881400     4.833100
N       1.056600     8.996200     9.684900
C       0.177400     7.510700     8.193200
N       0.514300     8.810100     8.477800
C       0.561100     6.844800     9.358100
C       0.339400    10.024800     7.699100
O      -0.276200     5.163500    10.854500
H      -1.048400     5.037800    10.609000
C       1.143300    10.215800     6.587400
C       0.531700     5.401600     9.738100
H       0.201000     4.881900     8.989100
H       1.436000     5.105500     9.930400
C       0.966400    11.413600     5.880700
H       1.479000    11.567100     5.119200
C      -1.440200    10.750000     9.367500
H      -1.234400     9.895500     9.755300
H      -1.255200    11.442600    10.005400
H      -2.370000    10.776600     9.126700
C       2.175200     9.216200     6.152700
H       2.620100     9.537700     5.364700
H       2.817900     9.092900     6.854800
H       1.747400     8.378600     5.958800
C      -0.711800    12.126700     7.398900
H      -1.328400    12.767300     7.667900
C      -0.593700    10.961500     8.133800
C      -1.131200     6.296000     3.613500
H      -0.577600     7.036900     3.516500
C       0.058600    12.370800     6.277800
C      -2.244500     4.823800     4.944100
H      -2.476300     4.527700     5.794700
C       1.591500     7.594100    11.554900
H       1.534800     6.665900    11.795700
H       2.507300     7.878200    11.586200
H       1.074000     8.116300    12.174100
C      -2.418800     4.584500     2.609600
H      -2.743000     4.142100     1.859100
C      -1.607700     5.668700     2.475200
H      -1.377000     5.983000     1.630800
C      -2.749700     4.157900     3.855800
H      -3.310700     3.424200     3.970000
C      -0.113700    13.656900     5.485100
H      -0.783000    14.203200     5.904100
H       0.720000    14.133100     5.463200
H      -0.385700    13.446600     4.589100
