40
Refcode: KIZQER_comp_0 | Dataset: tmCAT | Charge: -1 | Potential Spins: [1, 3, 5]
V       3.818800     6.056900     2.535500
N       6.206700     6.486800     0.733300
N       5.353200     7.198900     1.599800
N       7.607700     4.496900    -0.917100
N       7.443800     0.921200    -1.181700
O       5.019300     4.751400     1.674600
O       6.823000     0.115000    -0.519100
O       8.154400     0.604800    -2.139200
O       3.630300     7.674800     3.541000
O       3.472200     5.084100     3.801600
O       2.549400     6.057500     1.517000
C       5.906800     5.245000     0.846400
C       6.635200     4.227000     0.052500
C       6.448500     2.865000     0.090900
H       5.861900     2.399900     0.644400
C       7.304700     2.321400    -0.852400
C       7.998300     3.341300    -1.472600
H       8.623500     3.242700    -2.155300
C       8.173600     5.804600    -1.280700
H       8.808400     6.075400    -0.614100
H       7.469000     6.454300    -1.333200
H       8.611700     5.737900    -2.133100
C       5.535600     8.497400     1.573600
H       6.167700     8.829500     0.977700
C       4.832200     9.455000     2.397700
C       3.893900     8.969900     3.353200
C       3.234900     9.883400     4.205600
H       2.641200     9.566100     4.845900
C       3.455100    11.213500     4.102600
H       2.986800    11.797300     4.656000
C       4.382000    11.734800     3.173400
C       5.061600    10.830500     2.302800
C       5.954200    11.410700     1.315000
H       6.382000    10.864800     0.694900
C       6.164500    12.776300     1.298800
H       6.768300    13.126700     0.684800
C       5.519500    13.639900     2.153300
H       5.676400    14.553800     2.098800
C       4.639100    13.142700     3.090600
H       4.207500    13.725000     3.672300
