97
Refcode: KOCSIG_comp_0 | Dataset: tmCAT | Charge: unknown | Potential Spins: [1, 3, 5]
Ir      0.731900     8.892600     5.038200
P       1.715900    10.976800     5.517200
P      -0.234300     6.789500     4.566800
Cl      0.405600     8.487500     7.385800
C      -2.324700    10.254200     4.952800
H      -2.596900    10.235900     5.841600
C       1.084200    13.465200     2.363000
H       0.392600    14.013300     2.068500
C       0.636500     4.120000     4.343700
H       0.145900     4.083400     3.555400
C      -1.701900     6.620700     0.737100
H      -2.519700     6.723500     0.305400
C       1.328700     2.991800     4.799100
H       1.300800     2.203900     4.307100
C      -0.427300     6.539400     2.774500
C       4.320900    11.903100     6.185500
H       4.230200    12.528900     5.503300
C       1.313800    13.447000     6.741500
H       2.101700    13.686800     6.308000
C      -2.515800     7.235000     6.159900
H      -2.077000     7.997800     6.459800
C      -1.898500     6.403700     5.218000
C       0.671400    14.369600     7.546200
H       1.028400    15.221500     7.652300
C      -0.490100    14.029300     8.190000
H      -0.919400    14.643700     8.740500
C       4.493600     8.141700     3.175000
H       5.073300     7.790000     3.811500
C       0.800700    12.173300     6.567700
C      -3.764600     6.933600     6.642700
H      -4.175200     7.504500     7.251700
C       0.689900     5.293800     5.082600
C       2.766400     9.119200     1.223600
C       5.614800    11.007900     7.983300
H       6.387300    11.014700     8.500900
N       1.017200     9.223100     3.056100
C      -3.116000    10.717800     3.877300
H      -3.986900    11.037600     3.932200
C      -0.383500    11.839200     7.213300
H      -0.751000    10.989600     7.109100
C       0.613300     6.145700     0.614500
H       1.370800     5.949300     0.111600
C      -3.799000     4.949000     5.353300
H      -4.219800     4.161100     5.093600
C       4.952700     8.422600     1.911200
H       5.852800     8.308400     1.710100
C       2.298300     8.907000     2.545900
C       3.132000    11.804900     3.220800
H       3.814600    11.234000     3.491400
N      -1.156700     9.853000     4.523000
C       3.234100    12.508300     2.022800
H       3.996600    12.414700     1.497900
C       1.402400     5.307500     6.271400
H       1.429100     6.081700     6.787200
C       2.651800     8.064100     4.863100
H       3.240600     8.440900     5.538000
H       2.614200     7.102600     4.989300
C      -2.379000    10.610500     2.761700
H      -2.633100    10.852600     1.900300
C       5.458300    11.907700     6.982900
H       6.124600    12.535700     6.827400
C       3.161900     8.386100     3.502400
C       4.089300     8.868000     0.952900
H       4.407100     9.005000     0.089600
C       0.696500     6.248400     2.010000
H       1.515900     6.118300     2.430700
C      -0.583300     6.332900     0.003700
H      -0.643900     6.266700    -0.921800
C       0.973300    12.789200     3.542600
H       0.198200    12.882900     4.047400
C       2.033900     3.037400     5.944000
H       2.499500     2.283800     6.227500
C      -4.415700     5.789400     6.231200
H      -5.267500     5.593000     6.549400
C       1.909600     9.639900     0.089600
H       2.452400     9.756400    -0.695000
H       1.524300    10.482600     0.340200
H       1.208400     9.009600    -0.096900
C      -1.632500     6.760000     2.106900
H      -2.392100     6.999800     2.587900
C       2.227000    13.330500     1.609500
H       2.314000    13.803200     0.813900
C       4.604700    10.069200     8.235700
H       4.690100     9.459500     8.934300
C      -0.017100     9.749500     2.430700
H       0.016800     9.907100     1.516200
C       3.317800    10.962200     6.408600
C       3.487100    10.060100     7.434600
H       2.825800     9.422900     7.591900
C      -1.012500    12.780100     8.016200
H      -1.806700    12.554000     8.444200
C      -2.543700     5.264100     4.844800
H      -2.138400     4.686300     4.237600
C      -1.143900    10.055500     3.149400
C       1.993400    11.964100     4.010900
C       2.073500     4.177100     6.693900
H       2.552700     4.193000     7.491300
