63
Refcode: KOHTAC_comp_0 | Dataset: tmCAT | Charge: unknown | Potential Spins: [1, 3, 5]
Zr     -1.048000     1.681900     3.116000
Cl     -1.518300     3.280400     1.337400
C       1.457100     1.215400     3.572100
C       0.752000    -0.018600     3.517300
C       0.275800    -0.205400     2.189900
C       0.643200     0.923800     1.439600
C       1.336400     1.817100     2.288400
C       2.199400     1.741600     4.733800
C       2.973100     2.815100     4.592900
C       2.094700     0.964200     6.028800
C       2.284600     1.813800     7.290100
C       2.095300     0.962900     8.545200
C       3.070000    -0.210100     8.573900
C       2.960700    -1.055000     7.306300
C       3.100100    -0.201500     6.041200
H       0.671000    -0.629600     4.250200
H      -0.157700    -0.934400     1.894500
H       0.429700     1.100100     0.548400
H       1.644300     2.683900     2.006700
H       3.455600     3.154500     5.334500
H       3.050000     3.247200     3.789000
H       1.166700     0.569900     6.094800
H       3.185800     2.193500     7.278900
H       1.682600     2.604400     7.254000
H       1.200400     0.629600     8.562700
H       2.245900     1.517600     9.323000
H       4.011900     0.145800     8.674900
H       2.912000    -0.808500     9.310500
H       2.066900    -1.504300     7.278900
H       3.644400    -1.762800     7.291400
H       4.027100     0.231900     5.995100
H       2.950700    -0.768700     5.259800
Cl     -0.577800     3.280400     4.894600
C      -3.553200     1.215400     2.659800
C      -2.848100    -0.018600     2.714600
C      -2.371900    -0.205400     4.042000
C      -2.739200     0.923800     4.792400
C      -3.432500     1.817100     3.943600
C      -4.295400     1.741600     1.498200
H      -2.767000    -0.629600     1.981800
H      -1.938400    -0.934400     4.337400
H      -2.525800     1.100100     5.683500
H      -3.740400     2.683900     4.225300
C      -5.069200     2.815100     1.639000
C      -4.190800     0.964200     0.203200
H      -5.551700     3.154500     0.897400
H      -5.146000     3.247200     2.442900
C      -4.380700     1.813800    -1.058200
C      -5.196200    -0.201500     0.190700
H      -3.262800     0.569900     0.137100
C      -4.191300     0.962900    -2.313300
H      -5.281900     2.193500    -1.047000
H      -3.778700     2.604400    -1.022000
C      -5.056700    -1.055000    -1.074400
H      -6.123100     0.231900     0.236800
H      -5.046800    -0.768700     0.972200
C      -5.166000    -0.210100    -2.342000
H      -3.296500     0.629600    -2.330700
H      -4.342000     1.517600    -3.091000
H      -4.162900    -1.504300    -1.047000
H      -5.740400    -1.762800    -1.059400
H      -6.108000     0.145800    -2.442900
H      -5.008000    -0.808500    -3.078600
