88
Refcode: KOKZAN_comp_0 | Dataset: tmCAT | Charge: unknown | Potential Spins: [1, 3, 5]
Zn     -2.467400     7.412200    13.464600
H      -2.816900     6.471000    14.416600
S      -1.535600     9.700800    15.499600
F       0.144100     9.875800    17.483800
F       1.062200     9.432700    15.613900
F      -0.037200     7.902200    16.659000
O      -1.402600     9.018900    14.213000
O      -2.572600     9.184900    16.334700
O      -1.425100    11.121200    15.401300
O      -4.275200     8.546300    13.156600
N      -1.488400     7.903900    10.536800
N      -1.102700     5.936800    11.260600
C      -1.646800     7.114900    11.631300
C      -0.869200     7.214800     9.512500
H      -0.661700     7.553700     8.649900
C      -0.617700     5.984600     9.961900
H      -0.191200     5.281300     9.485400
C      -0.003200     9.212700    16.361900
C      -5.414500     8.008300    13.860100
H      -5.212700     7.914700    14.823700
H      -5.655300     7.118800    13.498200
C      -6.540100     8.986900    13.647500
H      -7.030500     9.147100    14.493500
H      -7.177200     8.647500    12.968900
C      -5.860700    10.269400    13.161900
H      -6.099600    10.460700    12.220900
H      -6.122500    11.041500    13.722900
C      -4.389200     9.985900    13.293100
H      -3.877700    10.448200    12.582800
H      -4.051400    10.282600    14.175300
C      -2.045400     9.232300    10.385700
C      -3.335500     9.342000     9.859400
C      -3.822800    10.627000     9.667800
H      -4.698000    10.746600     9.321000
C      -3.061400    11.725200     9.970900
H      -3.412400    12.593800     9.811100
C      -1.809200    11.593400    10.497200
H      -1.309600    12.372300    10.712900
C      -1.252200    10.335400    10.726500
C      -4.158200     8.116900     9.467300
H      -3.794400     7.334100     9.972500
C      -5.643900     8.253100     9.833700
H      -5.729700     8.433600    10.792800
H      -6.112700     7.420200     9.615100
H      -6.039000     8.993000     9.325500
C      -4.026100     7.807500     7.981900
H      -3.078900     7.708600     7.752700
H      -4.414600     8.540700     7.460100
H      -4.501400     6.974700     7.778300
C       0.161500    10.189300    11.251200
H       0.229700     9.300200    11.702100
C       0.554400    11.259900    12.267600
H      -0.069000    11.238100    13.023200
H       0.521600    12.141800    11.840900
H       1.464000    11.085900    12.588900
C       1.155000    10.204500    10.094600
H       2.065900    10.112300    10.444500
H       1.078000    11.051200     9.606000
H       0.962400     9.459100     9.486900
C      -1.106300     4.749300    12.086700
C      -0.066600     4.539700    12.976400
C      -0.128500     3.395300    13.757600
H       0.574800     3.214000    14.369800
C      -1.182800     2.519600    13.670100
H      -1.206700     1.748700    14.223500
C      -2.195500     2.754100    12.786400
H      -2.920700     2.141300    12.742700
C      -2.197800     3.866200    11.949500
C       1.105300     5.492800    13.077400
H       0.814000     6.372900    12.703500
C       1.563300     5.726400    14.511600
H       0.802700     6.021800    15.052900
H       2.259600     6.415500    14.523600
H       1.923100     4.893100    14.879500
C       2.251500     4.998300    12.242000
H       1.945900     4.852400    11.322100
H       2.586600     4.154800    12.613000
H       2.969700     5.664800    12.246500
C      -3.321500     4.118300    10.963200
H      -3.007000     4.847900    10.355500
C      -4.567100     4.619600    11.617700
H      -5.253400     4.778400    10.936100
H      -4.374500     5.458000    12.088200
H      -4.890400     3.952700    12.257100
C      -3.615800     2.944800    10.097600
H      -4.328700     3.175000     9.465800
H      -3.903800     2.191400    10.654100
H      -2.808400     2.693500     9.601500
