72
Refcode: KOKZOA_comp_0 | Dataset: tmCAT | Charge: 0 | Potential Spins: [1, 3, 5]
Pd      7.749400     5.699600     2.323800
P       9.637900     4.790500     3.091900
N       5.853400     6.480000     1.767400
O       7.646300     8.622500    -0.537400
O       8.290000     6.885200     0.658700
C       7.404800     7.762400     0.250300
C       6.024300     7.611700     0.901300
H       5.345700     7.573800     0.196500
C       5.745100     8.839100     1.795000
H       6.534900     9.397700     1.868700
H       5.018700     9.368900     1.432600
C       5.373500     8.266900     3.126300
H       6.136600     8.263300     3.723600
H       4.660100     8.784900     3.534700
C       4.932000     6.917700     2.839100
H       4.010800     6.908600     2.533600
H       5.011500     6.350900     3.622200
C       7.081800     4.664100     3.864900
C       6.059900     3.709300     3.570000
H       5.749300     3.644300     2.696300
C       5.523400     2.894300     4.512800
H       4.830600     2.317600     4.284000
C       6.015600     2.915100     5.853300
C       5.558800     1.969300     6.825300
H       4.935900     1.324000     6.579600
C       6.017600     2.003600     8.092100
H       5.669100     1.426000     8.732400
C       7.000900     2.893400     8.429900
H       7.333200     2.879900     9.297500
C       7.520400     3.804900     7.547000
H       8.184300     4.397000     7.818800
C       7.034500     3.837400     6.205000
C       7.531000     4.743500     5.183900
C       8.674700     5.597300     5.512400
C       8.678400     6.564800     6.614900
C       7.477700     6.905900     7.302800
H       6.674400     6.504300     7.061800
C       7.505500     7.816600     8.308600
H       6.710800     8.035900     8.737000
C       8.713800     8.450100     8.729300
H       8.723200     9.025000     9.461800
C       9.837500     8.191100     8.033700
H      10.620700     8.632400     8.270200
C       9.873800     7.265100     6.948100
C      11.030400     7.084600     6.169600
H      11.824600     7.500700     6.413800
C      10.985900     6.303100     5.062500
H      11.734900     6.240800     4.515900
C       9.816600     5.581100     4.726300
C       9.608300     3.000800     3.315100
C       9.655800     2.359100     4.548200
H       9.764100     2.879000     5.311300
C       9.555800     1.046900     4.691000
H       9.569200     0.678700     5.543200
C       9.425100     0.194000     3.542400
H       9.394200    -0.731900     3.620700
C       9.351900     0.814100     2.340100
H       9.242100     0.302300     1.570800
C       9.434200     2.194900     2.231100
H       9.368000     2.583900     1.388100
C      11.211500     5.091900     2.274100
C      12.359600     4.317600     2.582700
H      12.296800     3.619900     3.193800
C      13.559900     4.595500     1.980800
H      14.309700     4.090100     2.197300
C      13.665600     5.577400     1.094800
H      14.487000     5.723700     0.683300
C      12.588400     6.407800     0.755500
H      12.698100     7.106300     0.156600
C      11.316300     6.143300     1.348200
H      10.574600     6.658600     1.127100
H       5.458100     5.812100     1.474100
