92
Refcode: KOMMUW_comp_0 | Dataset: tmCAT | Charge: 1 | Potential Spins: [1, 3, 5]
C       9.317900     1.100300     4.691900
H       9.315100     0.838300     3.738100
H       9.683100     0.339700     5.211700
C       7.888200     1.342700     5.132200
H       7.834100     1.284500     6.118700
H       7.305200     0.638400     4.751000
C      11.267700     2.208800     3.770700
H      11.597700     1.276700     3.705400
H      12.037400     2.789300     3.998900
C      10.706900     2.629600     2.433600
H       9.998900     2.001400     2.144200
H      11.421300     2.634700     1.748800
C      10.992000     2.164100     6.155400
H      11.773400     2.773700     6.139100
H      11.331500     1.239100     6.243000
C      10.135200     2.491300     7.357900
H      10.683400     2.467800     8.181300
H       9.408400     1.825800     7.447600
C       5.841800     3.302400     5.654000
C       5.016100     2.257300     6.057500
H       5.199900     1.367600     5.778300
C       3.927200     2.517900     6.870800
H       3.372700     1.802600     7.158200
C       3.638400     3.811700     7.266200
H       2.882400     3.983000     7.814500
C       4.444900     4.844700     6.862600
H       4.246100     5.733500     7.131700
C       5.547600     4.594500     6.065700
H       6.108500     5.314800     5.800700
C       6.436600     2.661800     3.004300
C       5.389000     3.465400     2.596700
H       5.103800     4.179000     3.157200
C       4.748300     3.254300     1.388000
H       4.021900     3.811900     1.135300
C       5.148300     2.256000     0.564600
H       4.716100     2.116400    -0.269000
C       6.178500     1.456700     0.951800
H       6.457300     0.742900     0.389300
C       6.823400     1.668500     2.152300
H       7.553700     1.109900     2.392800
C       8.890700     4.599200     1.245300
C       7.896300     5.529400     1.377800
H       7.805000     6.005500     2.193100
C       7.021300     5.783300     0.340400
H       6.344400     6.441300     0.446400
C       7.119500     5.095400    -0.841800
H       6.504600     5.254800    -1.549000
C       8.102000     4.193800    -0.976300
H       8.184000     3.719100    -1.793600
C       9.000500     3.936700     0.040800
H       9.694600     3.300800    -0.089700
C      11.466300     5.399500     2.252200
C      12.222100     5.972800     3.175500
H      11.989900     5.856800     4.088600
C      13.340600     6.734700     2.865700
H      13.876900     7.097400     3.560700
C      13.657600     6.954500     1.606100
H      14.369000     7.541600     1.379900
C      12.946700     6.326500     0.646100
H      13.221500     6.377800    -0.260900
C      11.841000     5.622900     0.982400
H      11.301700     5.267400     0.283300
C      10.670100     5.234100     7.959200
C      10.999600     4.953200     9.284000
H      10.568100     4.235100     9.734400
C      11.944200     5.705300     9.940300
H      12.177000     5.494000    10.837100
C      12.549800     6.759500     9.306400
H      13.193900     7.282900     9.771100
C      12.230300     7.065200     8.006100
H      12.654500     7.795100     7.569900
C      11.286100     6.305100     7.327300
H      11.062300     6.519600     6.430500
C       8.072900     4.268700     8.336200
C       7.788300     5.466400     8.990500
H       8.321600     6.233600     8.813200
C       6.742800     5.559000     9.895500
H       6.571400     6.380700    10.337800
C       5.952600     4.466700    10.154300
H       5.235200     4.533300    10.773900
C       6.205800     3.276100     9.512300
H       5.661200     2.516400     9.689600
C       7.248000     3.182500     8.613400
H       7.406000     2.356200     8.171100
N      10.243300     2.294200     4.865000
P       7.283700     2.990400     4.586600
P      10.013200     4.322900     2.645400
P       9.421800     4.172700     7.125300
Ru      9.262700     4.251100     4.816300
H       8.324300     5.532900     4.769400
H       9.239300     5.692700     4.687900
H      10.695300     4.751600     5.030300
