65
Refcode: KOWTEX_comp_0 | Dataset: tmCAT | Charge: unknown | Potential Spins: [1, 3, 5]
Mn      1.655800     0.266100    10.138700
O       1.402200     0.186000    12.021800
O       0.767100    -1.367200     9.974400
O       1.199900    -0.772100    14.450400
O       0.002500    -3.538400    11.190000
O       3.677400    -0.723400    10.076700
O       2.719900    -0.045900     8.263500
N       2.473200     2.081100    10.323000
N       0.086400     1.128200     9.013000
C       2.047500     0.833500    12.963400
C       1.923900     0.380900    14.308300
C       2.497900     1.072500    15.335700
H       2.393600     0.773800    16.211200
C       3.238100     2.223200    15.079200
H       3.625800     2.689100    15.785200
C       3.398700     2.667900    13.810100
H       3.902300     3.432400    13.647900
C       2.809000     1.980300    12.737000
C       2.904300     2.574900    11.438400
H       3.322200     3.404500    11.391200
C       2.511600     2.954500     9.141800
H       2.941100     2.483400     8.410700
H       3.043700     3.740300     9.343800
C       1.109100     3.397900     8.697300
C       0.351500     2.231200     8.083500
H      -0.494200     2.557700     7.738600
H       0.861800     1.888700     7.333200
C      -1.091200     0.641100     9.069800
H      -1.756500     1.084400     8.596500
C      -1.480700    -0.538900     9.804100
C      -2.853200    -0.804300     9.983500
H      -3.481400    -0.185800     9.688700
C      -3.267800    -1.949800    10.580500
H      -4.175600    -2.103800    10.708700
C      -2.339700    -2.889500    10.997600
H      -2.631800    -3.672600    11.404500
C      -0.990600    -2.677100    10.820700
C      -0.534200    -1.486600    10.211100
C       0.957200    -1.251600    15.777900
H       0.393800    -0.630500    16.267200
H       1.793100    -1.357800    16.259900
C       0.266000    -2.580300    15.623100
H      -0.555700    -2.458100    15.141100
H       0.077700    -2.946600    16.489800
H       0.834500    -3.181500    15.136700
C      -0.333700    -4.782200    11.796500
H      -1.068500    -4.652200    12.414200
H       0.427800    -5.111400    12.300700
C      -0.714100    -5.773700    10.788300
H      -1.525400    -5.495000    10.356400
H      -0.852700    -6.623200    11.212800
H      -0.014700    -5.852000    10.135300
C       1.295800     4.441100     7.579400
H       1.772600     5.199000     7.925800
H       0.436500     4.723800     7.258100
H       1.795000     4.052200     6.857100
C       0.331300     4.001800     9.856700
H       0.831900     4.726500    10.235600
H       0.184100     3.330200    10.527400
H      -0.513800     4.327000     9.538400
C       3.680100    -0.601300     8.832300
C       4.819400    -1.120200     8.029000
H       4.593900    -1.981600     7.672300
H       5.595200    -1.198500     8.589100
H       5.005400    -0.513700     7.308200
