107
Refcode: KUBBUF_comp_0 | Dataset: tmCAT | Charge: 0 | Potential Spins: [1, 3, 5]
Mo     18.444400     2.419000    18.520300
C      15.450500     4.048200    19.350000
C      16.158900     4.633700    18.246900
H      15.755900     5.393700    17.843600
C      14.148200     4.502400    19.594900
H      13.767900     5.154300    19.019100
C      13.411700     4.027000    20.647600
C      11.983000     4.536900    20.931600
C      11.444800     5.286200    19.833500
H      11.678400     4.843900    18.989400
H      11.818700     6.192000    19.841400
H      10.470400     5.334000    19.917900
C      11.100700     3.303600    21.151100
H      10.176200     3.588000    21.310600
H      11.426600     2.803600    21.928000
H      11.135100     2.731300    20.357500
C      12.005400     5.216600    22.304300
H      12.198100     6.170800    22.192200
H      12.700300     4.806100    22.861400
H      11.133000     5.107900    22.737900
C      14.013300     3.131800    21.499300
H      13.507600     2.814200    22.236700
C      15.322200     2.655700    21.351600
C      15.916400     1.676300    22.342100
C      16.273100     0.368000    21.624500
H      15.482500     0.025900    21.157500
H      16.575100    -0.293100    22.281100
H      16.987500     0.535800    20.977300
C      14.958400     1.322900    23.487400
H      14.744400     2.133200    23.997300
H      15.385100     0.668400    24.078800
H      14.135500     0.942300    23.118200
C      17.182000     2.278400    22.987300
H      17.878900     2.381900    22.305800
H      17.504700     1.681600    23.693600
H      16.968800     3.154400    23.370100
C      16.022500     3.138500    20.230300
C      17.763500     5.066700    16.624500
H      18.725500     4.868500    16.490400
H      17.684700     6.024300    16.863300
C      17.042100     4.832700    15.339700
C      16.524800     3.587400    14.997900
H      16.560000     2.866600    15.616300
C      15.960700     3.411600    13.749200
H      15.603700     2.561600    13.519800
C      15.903000     4.402300    12.855500
H      15.551300     4.239900    11.988800
C      16.353700     5.658900    13.192800
H      16.259500     6.381700    12.583900
C      16.945200     5.861800    14.428000
H      17.288800     6.719900    14.648300
N      17.262600     4.253800    17.748300
O      17.355800     1.413700    17.680400
O      17.302400     2.756400    20.056000
C      21.438300     4.048200    17.690500
C      20.729800     4.633700    18.793600
H      21.132800     5.393700    19.196900
C      22.740500     4.502400    17.445600
H      23.120800     5.154300    18.021400
C      23.477100     4.027000    16.392900
C      24.905800     4.536900    16.108900
C      25.443900     5.286200    17.207000
H      25.210300     4.843900    18.051100
H      25.070000     6.192000    17.199100
H      26.418300     5.334000    17.122600
C      25.788000     3.303600    15.889400
H      26.712500     3.588000    15.729900
H      25.462200     2.803600    15.112500
H      25.753600     2.731300    16.683000
C      24.883400     5.216600    14.736200
H      24.690600     6.170800    14.848300
H      24.188400     4.806100    14.179100
H      25.755700     5.107900    14.302600
C      22.875400     3.131800    15.541200
H      23.381100     2.814200    14.803900
C      21.566500     2.655700    15.688900
C      20.972300     1.676300    14.698400
C      20.615700     0.368000    15.416000
H      21.406200     0.025900    15.883000
H      20.313700    -0.293100    14.759400
H      19.901200     0.535800    16.063200
C      21.930300     1.322900    13.553100
H      22.144400     2.133200    13.043200
H      21.503600     0.668400    12.961700
H      22.753300     0.942300    13.922300
C      19.706700     2.278400    14.053200
H      19.009800     2.381900    14.734700
H      19.384000     1.681600    13.346900
H      19.919900     3.154400    13.670400
C      20.866200     3.138500    16.810200
C      19.125300     5.066700    20.416000
H      18.163200     4.868500    20.550100
H      19.204000     6.024300    20.177200
C      19.846700     4.832700    21.700800
C      20.364000     3.587400    22.042600
H      20.328700     2.866600    21.424200
C      20.928000     3.411600    23.291300
H      21.285100     2.561600    23.520700
C      20.985800     4.402300    24.185000
H      21.337400     4.239900    25.051700
C      20.535000     5.658900    23.847700
H      20.629200     6.381700    24.456600
C      19.943600     5.861800    22.612500
H      19.600000     6.719900    22.392200
N      19.626100     4.253800    19.292200
O      19.532900     1.413700    19.360100
O      19.586300     2.756400    16.984600
