31
Refcode: KUDJEZ_comp_0 | Dataset: tmCAT | Charge: 1 | Potential Spins: [1, 3, 5]
Pd      2.318800     0.358200    -1.079800
O       2.312500     2.107100    -0.113200
C       1.918000     2.359300     1.052500
N       1.432500     1.455900     1.886100
C       1.232300     0.070800     1.666000
C       1.542300    -0.592800     0.474100
C       1.228000    -1.963100     0.417100
C       0.657600    -2.604900     1.486300
F       0.343100    -3.926000     1.415700
C       0.395000    -1.926400     2.659200
C       0.672200    -0.595000     2.763900
F      -0.153500    -2.588100     3.711700
C       1.991200     3.776900     1.527500
N       2.375300    -1.272000    -2.250600
C       2.482200    -2.042500    -3.081600
C       2.624200    -3.041200    -4.125000
N       3.087300     1.413700    -2.763400
C       3.493100     1.855900    -3.729800
C       4.030100     2.420800    -4.965300
H       1.407600    -2.479900    -0.358300
H       0.493400    -0.125600     3.573000
H       1.654100     3.848600     2.426500
H       2.897600     4.098100     1.512900
H       1.441900     4.313000     0.949400
H       3.123200    -2.688800    -4.857900
H       3.062400    -3.802500    -3.766800
H       1.763900    -3.282900    -4.426300
H       3.324000     2.519300    -5.598800
H       4.697900     1.822800    -5.307300
H       4.429100     3.270800    -4.802500
H       1.194100     1.737200     2.657700
