84
Refcode: KUJGOM_comp_0 | Dataset: tmCAT | Charge: unknown | Potential Spins: [1, 3, 5]
C       0.530400     0.442200     2.177600
C      -0.981900     0.500800     2.129600
H      -1.320700     0.416700     1.203600
H      -1.327100     1.337400     2.531100
C      -1.345600    -0.723000     2.976300
H      -1.459800    -0.478700     3.928800
H      -2.176200    -1.151000     2.650100
C      -0.136600    -1.641400     2.781500
H       0.029500    -2.177100     3.596900
H      -0.286000    -2.257200     2.021400
C       1.137600     2.714400     1.740500
C       1.897100     3.730600     2.328300
H       2.564500     3.504200     2.965700
C       1.695600     5.065400     1.999600
C       0.702500     5.396900     1.087100
H       0.553000     6.309300     0.869200
C      -0.074500     4.415000     0.488800
C       2.559600     6.140400     2.605000
H       3.077900     6.578300     1.898600
H       3.170300     5.739200     3.257500
H       1.991200     6.802100     3.052100
C      -1.152500     4.782500    -0.503500
H      -1.149800     5.752100    -0.646200
H      -2.025600     4.506000    -0.155300
H      -0.981900     4.327300    -1.355100
C       3.558600     2.860300     6.074000
H       4.461500     2.493000     5.975200
H       3.446000     3.210300     6.982100
H       3.428200     3.584400     5.426700
C       1.213500     2.302700     5.976600
H       1.028800     2.962300     5.275100
H       1.108600     2.722600     6.855700
H       0.586500     1.554600     5.895100
C       2.968900    -1.482800     5.880700
H       3.253200    -0.637400     6.206900
C       2.770900    -2.494200     6.795300
H       2.944000    -2.339700     7.716100
C       2.314500    -3.749900     6.371600
C       2.169800    -3.906200     4.976000
H       1.902000    -4.743800     4.616400
C       2.417500    -2.844400     4.139700
H       2.322100    -2.986300     3.204900
C       2.123000    -4.535900     8.672800
H       2.992900    -4.137500     8.884500
H       2.031800    -5.391400     9.142500
H       1.407500    -3.929700     8.957200
C       1.229700    -5.883500     6.789300
H       0.436200    -5.553800     6.317100
H       0.951900    -6.417500     7.562000
H       1.761900    -6.439300     6.183100
C       4.222800     0.656900     1.215600
C       4.887500     1.175800     2.351300
C       5.277000     0.079600     3.158400
C       4.868100    -1.108300     2.508600
C       4.198500    -0.753200     1.313900
C       3.714200     1.429400     0.033800
H       3.744100     2.389100     0.232900
H       2.791000     1.164500    -0.157800
H       4.277000     1.240900    -0.746400
C       5.278500     2.608800     2.596200
H       6.233900     2.722100     2.414600
H       5.093200     2.843100     3.529300
H       4.761100     3.194100     2.003800
C       6.109200     0.142400     4.401200
H       7.050000    -0.007800     4.171800
H       5.811800    -0.547700     5.029600
H       6.011100     1.025300     4.815500
C       5.270900    -2.487900     2.935900
H       4.708900    -3.148400     2.479800
H       5.156900    -2.577000     3.905000
H       6.210100    -2.641400     2.701400
C       3.640100    -1.684900     0.289200
H       4.049200    -2.569300     0.393300
H       3.833500    -1.339200    -0.607400
H       2.669900    -1.758300     0.408300
C       0.155300     3.077400     0.808100
H      -0.362200     2.401200     0.387000
N       1.444100     1.387400     2.048700
N       0.995600    -0.751600     2.509400
N       2.747100     1.174300     4.633500
N       2.578700     1.810900     5.832900
N       2.785500    -1.616300     4.554100
N       2.028100    -4.758200     7.239600
Ti      2.890200     0.182500     3.217300
