57
Refcode: KUMFII_comp_0 | Dataset: tmCAT | Charge: unknown | Potential Spins: [1, 3, 5]
Rh     -0.070700     0.461500    13.989700
Cl      1.712400     1.936000    14.627300
N       1.366000    -0.834200    13.168900
C       0.086800     1.180500    12.113100
C      -0.548700     2.291400    11.547800
H      -1.127100     2.821800    12.083400
C      -0.345400     2.631200    10.214200
H      -0.803400     3.378500     9.849300
C       0.519900     1.892400     9.401200
C       1.208100     0.807400     9.945200
H       1.822700     0.310100     9.417400
C       0.977800     0.465900    11.275800
C       1.658500    -0.628800    11.929200
H       2.289300    -1.169400    11.468700
C       2.013100    -1.880000    13.892700
C       2.051800    -3.178600    13.380300
H       1.671100    -3.371800    12.531000
C       2.654700    -4.186100    14.129400
H       2.685300    -5.073600    13.791700
C       3.211900    -3.899500    15.366500
H       3.619900    -4.591200    15.874400
C       3.175100    -2.598400    15.865600
H       3.565000    -2.404400    16.710300
C       2.569700    -1.585000    15.131700
H       2.536600    -0.699400    15.473900
C      -1.670000    -0.928100    14.334200
C      -2.239700     0.337100    13.972800
C      -1.814600     1.294200    14.944900
C      -1.099100     0.579800    15.988700
C      -1.028600    -0.778800    15.634300
C      -1.844700    -2.223900    13.596700
H      -2.649100    -2.679200    13.922300
H      -1.062300    -2.793900    13.748200
H      -1.938200    -2.043500    12.637200
C      -3.178600     0.597200    12.842200
H      -4.087100     0.710200    13.191000
H      -3.159700    -0.159700    12.221000
H      -2.905900     1.413600    12.372500
C      -2.260800     2.725100    15.025000
H      -3.103900     2.776400    15.520900
H      -2.392000     3.076900    14.120900
H      -1.576900     3.254700    15.486100
C      -0.532600     1.235800    17.205900
H      -1.263800     1.564600    17.769100
H       0.036000     1.987600    16.936700
H       0.000700     0.585800    17.709900
C      -0.470200    -1.903100    16.457300
H      -1.203300    -2.375900    16.905300
H       0.144700    -1.542700    17.130000
H       0.011500    -2.526900    15.874400
C       0.639600     2.268600     7.968700
O       0.071800     3.204700     7.457500
O       1.439800     1.437200     7.290600
C       1.545800     1.700800     5.874600
H       2.137200     1.036200     5.462700
H       1.914700     2.597800     5.736100
H       0.657100     1.646200     5.464500
