71
Refcode: KUPGEJ_comp_0 | Dataset: tmCAT | Charge: unknown | Potential Spins: [1, 3, 5]
Hf      8.057100     4.435500     2.747200
N       8.628800     2.724200     3.787300
N       6.747800     4.217000     4.630200
C       8.215700     2.385500     5.140700
H       7.864600     1.433400     5.152500
C       7.068700     3.275800     5.532800
C       6.375200     3.153600     6.728400
H       6.616600     2.469100     7.350300
C       5.320300     4.012300     6.973700
H       4.830500     3.948400     7.783100
C       4.979700     4.969500     6.031500
H       4.264900     5.591400     6.140200
C       5.707600     5.065600     4.861700
C       5.460000     6.010400     3.758300
C       4.434500     6.953700     3.807000
H       3.881800     7.050000     4.517600
C       4.233100     7.782000     2.725400
H       3.625100     8.362400     2.722800
C       5.031500     7.681900     1.616900
H       4.940400     8.297100     0.913000
C       6.058400     6.748500     1.582100
H       6.663900     6.777100     0.896700
C       6.307400     5.882600     2.655100
C       8.096600     3.788300     0.637900
H       8.742300     3.058800     0.531800
H       8.359600     4.542500     0.069200
H       7.205700     3.476400     0.374400
C       9.651500     5.934300     3.008400
H       9.515000     6.412600     3.852900
H       9.626100     6.570800     2.264200
H      10.522800     5.485100     3.025300
C       9.229900     1.619600     3.079900
C       8.411100     0.545500     2.658900
C       8.993600    -0.507300     1.960200
H       8.418700    -1.238000     1.644300
C      10.335500    -0.503300     1.633100
H      10.741300    -1.212000     1.188400
C      11.116200     0.550700     2.025500
H      12.028000     0.528300     1.808400
C      10.604000     1.625600     2.756400
C       6.909200     0.509300     2.895800
H       6.606200     1.388200     3.308900
C       6.503900    -0.652800     3.798900
H       6.751400    -1.441300     3.365800
H       6.867900    -0.558600     4.639700
H       5.585500    -0.558500     4.002100
C       6.140800     0.428500     1.577600
H       6.336500     1.205600     1.014800
H       5.174800     0.432700     1.762300
H       6.364100    -0.371300     1.079900
C      11.550700     2.731700     3.175400
H      11.054900     3.374400     3.631700
C      12.191000     3.413100     1.966900
H      12.709400     4.196000     2.226300
H      11.534000     3.677200     1.283400
H      12.701100     2.783400     1.408200
C      12.621300     2.211600     4.132200
H      12.282600     1.843100     4.934100
H      13.223300     2.984200     4.339900
H      13.152600     1.537700     3.688700
C       9.321100     2.506200     6.192500
C       9.512800     1.498100     7.128500
H       9.025000     0.730600     7.106100
C      10.470900     1.633100     8.124700
H      10.586400     0.992100     8.713700
C      11.237700     2.769400     8.198300
H      11.848500     2.911800     8.864300
C      11.061300     3.778600     7.265400
H      11.577100     4.580700     7.351700
C      10.105500     3.649100     6.270100
H       9.992300     4.359900     5.611100
