134
Refcode: LACNAG_comp_0 | Dataset: tmCAT | Charge: unknown | Potential Spins: [1, 3, 5]
Y       3.099500     3.933800     3.507600
Si      4.546300     3.961400     0.234600
Si      5.962900     5.117600     2.636200
Si      1.085500     5.323700     5.856500
Si      2.152600     7.353900     3.979200
N       3.387700     1.999500     4.364700
N       2.721200    -0.128900     5.298400
N       4.572200     0.769900     6.076800
N       4.619000     4.370600     1.887600
N       2.060000     5.719600     4.503900
O       1.065600     3.500000     2.453900
C       3.541700     1.011900     5.134100
C       3.246600    -0.988000     6.267900
H       2.868200    -1.813600     6.548800
C       4.378100    -0.442200     6.732000
H       4.947500    -0.816800     7.393600
C       1.519700    -0.419300     4.574000
C       0.289000    -0.324500     5.238900
C      -0.861800    -0.661500     4.518500
H      -1.708600    -0.616100     4.947200
C      -0.793600    -1.056700     3.207300
H      -1.589400    -1.270600     2.734400
C       0.428700    -1.145500     2.573900
H       0.460800    -1.427100     1.666600
C       1.618400    -0.833000     3.235400
C       2.971000    -0.980000     2.562800
H       3.540000    -0.213000     2.857300
C       2.915300    -0.955600     1.033900
H       2.469800    -1.765500     0.709500
H       3.826500    -0.918700     0.674400
H       2.415000    -0.166900     0.737600
C       3.648800    -2.269200     3.031400
H       3.713100    -2.267100     4.009400
H       4.547300    -2.325200     2.644800
H       3.118500    -3.041100     2.741400
C       0.178400     0.079800     6.693600
H       1.044700     0.499000     6.963300
C      -0.047600    -1.149300     7.578300
H      -0.896100    -1.576000     7.335600
H      -0.078300    -0.873700     8.517500
H       0.685900    -1.786200     7.448000
C      -0.941000     1.105300     6.934500
H      -0.814600     1.872400     6.338100
H      -0.911300     1.407600     7.866000
H      -1.809300     0.688400     6.752600
C       5.837300     1.450200     6.059400
C       6.758400     1.109400     5.058700
C       7.986200     1.772700     5.060100
H       8.623900     1.573500     4.385200
C       8.291300     2.717000     6.027400
H       9.127400     3.167700     6.002700
C       7.381500     3.003700     7.028100
H       7.608500     3.634400     7.702700
C       6.136900     2.379500     7.060200
C       5.175100     2.691700     8.196000
H       4.301900     2.250300     7.990700
C       4.920700     4.193400     8.337700
H       5.744100     4.637100     8.631700
H       4.214900     4.344400     9.000500
H       4.642500     4.560700     7.472600
C       5.704300     2.100400     9.509100
H       5.816100     1.131600     9.409700
H       5.067000     2.284200    10.229800
H       6.568500     2.507700     9.725800
C       6.470200     0.029000     4.028200
H       5.567900    -0.348800     4.232400
C       6.418600     0.602200     2.621100
H       5.798600     1.361000     2.600900
H       6.109100    -0.088800     1.998500
H       7.312800     0.903300     2.356800
C       7.481600    -1.115700     4.127200
H       8.374300    -0.783200     3.897000
H       7.228500    -1.829800     3.505400
H       7.489700    -1.466100     5.042000
C       0.373800     2.218100     2.425100
H       0.481000     1.743800     3.287600
H       0.730600     1.645200     1.700000
C      -1.067900     2.543300     2.178600
H      -1.537100     2.762200     3.022400
H      -1.535500     1.792400     1.731600
C      -0.977500     3.744300     1.275000
H      -1.801800     4.289300     1.324200
H      -0.825400     3.472600     0.335400
C       0.216900     4.513500     1.820800
H       0.702300     4.970500     1.088800
H      -0.074700     5.190000     2.483300
C       4.515600     5.475600    -0.857400
H       3.740000     6.027800    -0.628700
H       4.455400     5.200000    -1.796600
H       5.336700     5.993000    -0.721800
C       5.984200     2.933200    -0.365300
H       6.818000     3.431100    -0.233600
H       5.868500     2.735400    -1.317100
H       6.019500     2.095500     0.142300
C       3.017500     2.967800    -0.155900
H       2.984300     2.177900     0.423200
H       3.042100     2.685800    -1.094100
H       2.222100     3.519800    -0.001800
C       7.634100     4.308800     2.362100
H       7.554000     3.341000     2.492000
H       8.282300     4.672400     3.003100
H       7.940500     4.493100     1.448900
C       6.217800     6.913200     2.154800
H       6.438400     6.967800     1.201200
H       6.951700     7.291100     2.681700
H       5.395100     7.417300     2.328700
C       5.622500     5.026700     4.485100
H       6.344700     5.406500     4.882200
H       4.894800     5.579100     4.741700
H       5.626500     4.136600     4.741700
C       1.275000     6.489800     7.304000
H       2.225900     6.596600     7.514700
H       0.807100     6.123000     8.083800
H       0.890600     7.362000     7.073900
C      -0.741600     5.202300     5.456800
H      -1.051900     6.052400     5.082400
H      -1.242600     5.002500     6.274900
H      -0.887100     4.486500     4.803200
C       1.545600     3.640700     6.524600
H       1.417300     2.964800     5.825300
H       0.975900     3.426500     7.293500
H       2.485200     3.645800     6.805200
C       2.486800     7.447700     2.131800
H       3.216100     6.836100     1.900200
H       2.741000     8.364500     1.893200
H       1.678600     7.195400     1.640300
C       3.494400     8.330000     4.857600
H       3.328200     8.317300     5.823500
H       3.488200     9.256500     4.538000
H       4.367300     7.925700     4.671500
C       0.564800     8.337500     4.218400
H      -0.178300     7.870500     3.782800
H       0.668200     9.227400     3.819700
H       0.377600     8.428700     5.177300
