100
Refcode: LAJNEQ_comp_0 | Dataset: tmCAT | Charge: 0 | Potential Spins: [1, 3, 5]
C       2.854700     8.072800     0.616700
C       3.015200     8.654100     1.865000
C       4.340000     8.927100     2.334000
H       4.456900     9.334000     3.161600
C       5.435400     8.600900     1.586500
H       6.286400     8.767200     1.926200
C       5.300500     8.017900     0.312100
C       6.432000     7.693300    -0.486900
H       7.287200     7.828900    -0.146300
C       6.283200     7.189400    -1.742700
H       7.031200     6.990800    -2.259600
C       4.996600     6.968200    -2.254600
H       4.901000     6.633900    -3.116000
C       3.876800     7.236300    -1.510700
H       3.036400     7.069900    -1.871000
C       3.983100     7.762700    -0.200100
C       1.506500     7.782100     0.038600
C      -0.370800     8.557200    -1.021400
C      -0.147700     6.281900    -0.891100
C      -0.604500     4.993200    -1.198400
H      -1.379000     4.883400    -1.700700
C       0.087100     3.888600    -0.759700
H      -0.228400     3.037600    -0.959500
C       1.268500     4.037200    -0.012000
H       1.722200     3.281400     0.285500
C       1.760400     5.280700     0.285200
H       2.547700     5.367900     0.772400
C       1.061400     6.433700    -0.153000
C      -1.116600     9.786200    -1.472800
H      -1.249400    10.383700    -0.722000
H      -1.986700     9.532600    -1.818300
C      -0.325100    10.493500    -2.554700
C       0.293200    11.724000    -2.288400
H       0.144500    12.135800    -1.468000
C       1.119800    12.344100    -3.216700
H       1.519300    13.161300    -3.020000
C       1.338700    11.730500    -4.432900
H       1.907100    12.131000    -5.049400
C       0.725600    10.524200    -4.749500
H       0.864800    10.133400    -5.581900
C      -0.098800     9.902400    -3.809200
H      -0.502500     9.091800    -4.015500
C       1.026300    10.677600     2.399200
C      -0.029700    11.270200     3.087900
H      -0.438800    10.806800     3.782800
C      -0.481300    12.534700     2.758600
H      -1.195200    12.914200     3.219100
C       0.148700    13.235600     1.729500
H      -0.146600    14.086600     1.501600
C       1.204800    12.673600     1.043500
H       1.622300    13.143500     0.359800
C       1.647800    11.383300     1.386500
H       2.363900    11.003800     0.930700
C       2.297000     9.418000     4.590000
C       2.178000     8.507200     5.639700
H       1.723300     7.704600     5.512400
C       2.744300     8.801100     6.883700
H       2.669900     8.190700     7.580100
C       3.421000    10.010600     7.085900
H       3.785400    10.207700     7.918300
C       3.545300    10.911700     6.037700
H       4.016000    11.703000     6.167200
C       2.973700    10.643700     4.794600
H       3.035400    11.265400     4.106700
C       1.257900     5.965400     3.742800
C       2.661400     5.858800     3.580100
H       3.133100     6.593600     3.259900
C       3.349800     4.707400     3.877800
H       4.263500     4.658900     3.710900
C       2.682600     3.598000     4.433400
C       3.365800     2.388400     4.735200
H       4.260300     2.301200     4.497700
C       2.734700     1.345200     5.370800
H       3.197900     0.563600     5.572300
C       1.370500     1.480800     5.712600
H       0.942400     0.789700     6.164800
C       0.659800     2.621000     5.390300
H      -0.239000     2.682300     5.617900
C       1.284500     3.690000     4.718400
C       0.590700     4.886600     4.336000
C      -0.880800     5.046500     4.596000
H      -1.297200     4.159900     4.579200
C      -1.112400     5.655300     5.951300
H      -2.055800     5.745700     6.104800
H      -0.698000     6.519300     5.989700
H      -0.732000     5.086900     6.625400
C      -2.830300     6.296400     3.742100
H      -2.837800     6.845500     4.528900
H      -3.388100     5.527700     3.883600
H      -3.165000     6.800300     2.996100
C      -1.487400     5.009400     2.240200
H      -0.604500     4.704100     2.024600
H      -1.835900     5.524500     1.508800
H      -2.059000     4.255200     2.398800
Cl     -1.661700     8.756000     2.056900
N       0.814900     8.810800    -0.378300
N      -0.861600     7.371900    -1.323900
N      -1.434300     5.852300     3.456600
P       1.578200     9.027700     2.937800
Pd      0.004000     7.406200     3.076900
