46
Refcode: LASHOC_comp_0 | Dataset: tmCAT | Charge: unknown | Potential Spins: [1, 3, 5]
W       5.174500     5.804100     3.470300
C       3.892200     5.879800     5.004200
C       6.085000     4.470900     4.536100
C       4.091700     4.361700     2.786600
C       6.547200     5.436900     2.041100
C       7.666600     7.813600     4.373700
C       7.934200     9.157500     4.619300
C       6.734900     9.806900     4.518200
C       4.397500     9.010900     3.988800
C       3.697100     7.394300     0.955300
C       3.277900     8.675100     0.592100
C       3.500800     9.464400     1.671500
C       8.646900     6.699900     4.382700
C       9.258600     9.749800     4.964500
C       6.384900    11.248900     4.685800
C       3.663800     6.149800     0.133000
C       2.721000     9.069400    -0.735300
C       3.245300    10.909100     1.854400
N       6.377900     7.610200     4.124300
N       5.805800     8.873200     4.219000
N       4.029400     8.691100     2.631900
N       4.155000     7.392800     2.209900
O       3.170700     5.802800     5.894300
O       6.624400     3.623700     5.137200
O       3.477700     3.425200     2.419600
O       7.372800     5.132800     1.291700
H       3.894000     8.414500     4.642300
H       4.124800     9.972900     4.207500
H       8.247600     5.816700     4.744600
H       9.468500     6.880400     4.936400
H       8.911600     6.547300     3.427400
H      10.020300     9.178500     4.591100
H       9.390100     9.843800     5.946700
H       9.270400    10.659400     4.501600
H       7.130800    11.783000     5.128200
H       5.554800    11.378900     5.281700
H       6.196200    11.621200     3.772600
H       3.092400     5.441000     0.562700
H       4.609500     5.744900     0.051200
H       3.328100     6.407500    -0.767300
H       1.924000     9.707400    -0.613900
H       2.360300     8.260100    -1.240500
H       3.453800     9.523200    -1.266100
H       2.676100    11.143100     2.634500
H       2.899400    11.382800     1.035900
H       4.193300    11.291700     2.033400
