49
Refcode: LETSOU_comp_0 | Dataset: tmCAT | Charge: unknown | Potential Spins: [1, 3, 5]
Cr      3.651200     6.948100     0.118900
O       2.982400     7.741700     3.244500
O       3.517300     4.207700    -1.094800
O       5.918400     7.409700    -1.792900
O       5.687200     6.012500     2.098900
C       1.796700     6.928400     1.381000
C       1.421700     7.028100     0.019200
C       1.954500     8.068800    -0.781700
C       2.871600     8.985600    -0.232300
C       3.243100     8.903900     1.110400
C       2.691200     7.896400     1.928400
C       0.433900     6.062800    -0.584400
C       4.076900     8.506100     3.781000
C       3.553500     5.258300    -0.623600
C       5.031300     7.271400    -1.062000
C       4.904100     6.343000     1.319900
C       1.173700     5.897600     2.271100
C      -0.054100     6.220900     2.918500
C      -0.683400     5.324700     3.738000
C      -0.155800     4.026300     3.960600
C      -0.768600     3.058300     4.792800
C      -0.218200     1.812900     4.943700
C       0.974800     1.473500     4.270500
C       1.597900     2.388500     3.465700
C       1.063000     3.686000     3.288800
C       1.706800     4.651300     2.466900
C      -0.852500     7.494100     2.763500
C      -1.893500     7.386400     3.908100
C      -1.995700     5.881400     4.247500
H       1.678400     8.121800    -1.746300
H       3.280800     9.632100    -0.790800
H       3.893400     9.543200     1.338600
H      -0.475700     6.321400    -0.325400
H       0.621400     5.157700    -0.259500
H       0.513700     6.082600    -1.561000
H       4.851100     8.428900     3.185800
H       4.309900     8.164000     4.668600
H       3.813000     9.447100     3.853100
H      -1.571100     3.275600     5.251400
H      -0.642400     1.174500     5.504700
H       1.347600     0.606100     4.376200
H       2.401800     2.147800     3.019000
H       2.526600     4.426800     2.042900
H      -1.295400     7.533600     1.878100
H      -0.279100     8.292400     2.874900
H      -1.596000     7.902700     4.699500
H      -2.772100     7.736600     3.614200
H      -2.088000     5.740500     5.222600
H      -2.764400     5.462100     3.785100
