105
Refcode: LETYUF_comp_0 | Dataset: tmCAT | Charge: unknown | Potential Spins: [1, 3, 5]
Zr      1.245300     0.239900     4.045900
Cl     -0.690600    -1.208800     3.696600
Cl      0.491800     2.170400     2.765000
O       2.694200     1.257000     4.892000
C       3.154100     1.830200     6.007700
C       4.451300     2.369100     6.063000
C       4.880300     2.843500     7.290100
H       5.741800     3.188700     7.345700
C       4.099800     2.835600     8.456600
C       2.793700     2.391500     8.344500
H       2.231800     2.429700     9.084600
C       2.301100     1.879000     7.119500
C       0.911700     1.491600     7.075100
H       0.411500     1.664200     7.839800
N       0.276400     0.925000     6.085000
C      -1.164700     0.791900     6.256900
C      -1.966800     1.548200     5.420000
H      -1.569300     2.126700     4.811600
C      -3.328200     1.462600     5.467600
H      -3.855600     1.993600     4.914700
C      -3.912700     0.571900     6.351100
H      -4.837700     0.491500     6.385500
C      -3.122900    -0.196300     7.184300
H      -3.528200    -0.790600     7.771500
C      -1.725100    -0.106700     7.165500
C      -0.909300    -0.993500     8.081000
H      -1.517300    -1.537700     8.604800
H      -0.415700    -0.430900     8.694700
C       0.090900    -1.929000     7.349100
H      -0.083100    -2.843500     7.617900
H      -0.065000    -1.868400     6.393700
C       1.540700    -1.612800     7.623700
C       1.982400    -1.494200     8.937800
H       1.371800    -1.598300     9.630800
C       3.302200    -1.228000     9.244900
H       3.562000    -1.139800    10.133700
C       4.242700    -1.092300     8.239700
H       5.128600    -0.898600     8.440800
C       3.832200    -1.251800     6.926700
H       4.455700    -1.187200     6.240000
C       2.507200    -1.506100     6.621700
N       2.168400    -1.599600     5.216000
C       2.599400    -2.660300     4.627700
H       2.865200    -3.353400     5.186900
C       2.724400    -2.912000     3.204100
C       3.055400    -4.204600     2.799700
H       3.089100    -4.885800     3.432700
C       3.338600    -4.497100     1.472800
C       3.330800    -3.415300     0.581700
H       3.533400    -3.593200    -0.308400
C       3.048100    -2.114800     0.919700
C       2.693200    -1.868400     2.261100
O       2.344000    -0.641700     2.670300
C       5.352100     2.411300     4.806300
C       4.629800     3.133300     3.660900
H       3.803600     2.681400     3.467800
H       5.185800     3.129400     2.878000
H       4.445300     4.039900     3.917500
C       5.695000     0.985600     4.361900
H       4.881800     0.500700     4.190000
H       6.191300     0.544200     5.054900
H       6.222400     1.017200     3.560400
C       6.653700     3.163700     5.070800
H       6.453700     4.059600     5.351200
H       7.178600     3.188700     4.266700
H       7.147400     2.715700     5.761200
C       4.694800     3.328400     9.776600
C       3.730900     3.175500    10.935200
H       2.925500     3.661700    10.747400
H       4.133600     3.523400    11.734000
H       3.523000     2.246600    11.059500
C       4.983200     4.841000     9.649600
H       5.593700     4.989900     8.924800
H       5.372900     5.162500    10.467000
H       4.164800     5.310100     9.480300
C       5.975600     2.564100    10.062300
H       6.581000     2.666900     9.324300
H       5.773000     1.633900    10.183900
H       6.383500     2.910700    10.861100
C       3.639900    -5.907000     0.965500
C       2.577300    -6.279900    -0.076700
H       2.582500    -5.634200    -0.785600
H       1.712100    -6.291700     0.338600
H       2.772200    -7.149500    -0.433800
C       3.616600    -6.924200     2.060600
H       3.811400    -7.791200     1.695600
H       2.746200    -6.936100     2.468000
H       4.276500    -6.700200     2.721900
C       4.998700    -5.907000     0.259200
H       4.998700    -5.248200    -0.439100
H       5.165000    -6.774000    -0.116400
H       5.689800    -5.697500     0.894100
C       3.133300    -0.972400    -0.110300
C       1.800500    -0.233200    -0.232800
H       1.119800    -0.848600    -0.515800
H       1.886200     0.470400    -0.880800
H       1.561500     0.139700     0.616300
C       3.481500    -1.492900    -1.518300
H       4.315400    -1.965900    -1.489200
H       3.554200    -0.752400    -2.124100
H       2.787800    -2.084500    -1.822500
C       4.227100    -0.004000     0.338600
H       5.061100    -0.474400     0.415300
H       3.990700     0.370300     1.193000
H       4.315400     0.702300    -0.306800
