67
Refcode: LETYAL_comp_0 | Dataset: tmCAT | Charge: unknown | Potential Spins: [1, 3, 5]
Ir     -0.108100     6.056400    14.395400
H       1.160100     5.371100    15.068700
H      -0.475200     4.724700    13.533100
I      -2.256800     7.413100    13.304300
I      -3.083800     9.181100    16.871700
I       0.784300     8.337700    15.684400
I      -0.148300    11.894600    17.605900
I      -3.775700    13.183100    16.159900
I      -5.083600    10.354400    13.485900
P       1.193700     6.159200    12.503400
P      -1.249400     5.120900    16.154300
C       2.756300     7.082500    12.512200
C       3.744500     6.719300    13.423400
H       3.558700     6.057500    14.078100
C       4.990600     7.310300    13.384600
H       5.669200     7.027100    13.985300
C       5.248800     8.319800    12.466700
H       6.104500     8.732300    12.443000
C       4.276100     8.720000    11.592600
H       4.454000     9.418700    10.975000
C       3.026800     8.112100    11.604400
H       2.355600     8.396800    10.996900
C       1.807800     4.487700    12.115700
H       1.050300     3.896700    11.930100
H       2.315100     4.141400    12.878400
H       2.390200     4.529300    11.327600
C       0.372100     6.617700    10.958100
H       0.096200     7.556500    11.000300
H      -0.417300     6.051300    10.826500
H       0.991500     6.491500    10.208900
C      -0.802600     3.367300    16.312300
C       0.403900     3.001100    16.916400
H       0.968300     3.673600    17.277500
C       0.791000     1.674400    16.999100
H       1.607700     1.443600    17.424300
C      -0.016700     0.683300    16.460800
H       0.250400    -0.226200    16.511400
C      -1.209400     1.021900    15.851600
H      -1.758500     0.341700    15.480400
C      -1.611800     2.357700    15.779100
H      -2.439200     2.582400    15.367300
C      -0.969100     5.780500    17.822500
H      -1.554900     5.320300    18.458700
H      -1.167100     6.740800    17.832600
H      -0.034200     5.637400    18.079000
C      -3.069400     5.087900    16.044000
H      -3.338300     4.672400    15.196900
H      -3.416600     6.003600    16.081100
H      -3.432800     4.569300    16.791500
C      -0.633800    11.844100    12.876700
H      -0.121700    12.395100    12.046500
B       0.322600    11.404000    14.216500
H       1.417000    11.614800    14.338000
B      -0.265600    10.197400    13.035300
H       0.438000     9.623400    12.380600
B      -1.838500    10.736100    12.434600
H      -2.168600    10.512900    11.388400
B      -2.232800    12.293500    13.227700
H      -2.814400    13.089200    12.696100
B      -0.901600    12.706000    14.327900
H      -0.608600    13.771000    14.518600
B      -0.421000     9.911200    14.780100
B      -1.746000     9.486400    13.696800
B      -2.979700    10.771500    13.803100
B      -2.411100    12.001100    14.975800
B      -0.813700    11.453200    15.591800
B      -2.112400    10.252800    15.281300
