102
Refcode: LICSIA_comp_0 | Dataset: tmCAT | Charge: unknown | Potential Spins: [1, 3, 5]
Ir     -0.572800     4.338800     6.178600
Cl      0.805900     2.550200     6.961100
N       0.448200     5.923000     8.655500
N       1.610900     6.356600     6.892200
N       1.480500     6.774500     9.072800
N       3.834500     3.021700     2.014000
N       4.690500     4.664600     3.549400
C       0.504300     5.625400     7.329400
C       2.150800     6.983000     7.997400
H       2.937500     7.513500     7.964700
C      -0.381600     5.298800     9.736500
C      -0.763300     6.376600    10.747800
H      -1.313500     7.069900    10.303400
H       0.055400     6.810200    11.098100
C       0.490900     4.237700    10.430100
H       0.743700     3.535500     9.779200
H       1.321500     4.657900    10.769100
C      -1.663700     4.659000     9.196700
H      -2.221000     5.349000     8.756600
H      -1.435800     3.969100     8.523000
C      -1.560500     5.748000    11.914300
H      -1.811200     6.456900    12.572300
C      -0.675900     4.689100    12.599400
H       0.137300     5.118200    12.965400
H      -1.171900     4.274500    13.350000
C      -0.282400     3.616900    11.586700
H       0.286000     2.926900    12.033900
C      -1.579100     2.945900    11.036900
H      -1.343600     2.231400    10.393100
H      -2.089700     2.537900    11.780400
C      -2.434500     4.028200    10.336100
H      -3.265600     3.605700     9.975800
C      -2.817500     5.096000    11.354500
H      -3.386900     5.781400    10.923000
H      -3.335700     4.683500    12.090900
C       2.206700     6.287500     5.584700
H       1.518300     5.900700     4.970800
C       2.556700     7.735300     5.032100
H       3.252700     8.123200     5.637400
C       3.158200     7.641700     3.666100
H       2.547400     7.154600     3.073600
H       4.013100     7.164600     3.717400
H       3.307300     8.543400     3.312900
C       1.327800     8.666000     5.094700
H       0.665400     8.367300     4.422500
H       0.908000     8.583500     5.987800
C       1.665300    10.140600     4.838300
H       2.154000    10.501800     5.606000
H       0.837800    10.647800     4.708700
H       2.222100    10.213100     4.033600
C       3.434800     5.327800     5.550500
H       4.258900     5.865000     5.667300
H       3.372100     4.708100     6.319600
C       3.569000     4.517500     4.292800
C       2.550600     3.659200     3.914000
H       1.749500     3.595700     4.421000
C       2.734300     2.912400     2.797300
C       4.765000     3.915600     2.437000
C       1.703500     1.947200     2.249000
H       0.993000     1.812300     2.925500
H       2.135000     1.071100     2.083800
C       1.069900     2.446500     0.947200
H       1.850200     2.679500     0.421600
H       0.685200     3.297000     1.212100
C       0.114400     1.450100     0.306200
H       0.597000     0.598500     0.153800
H      -0.626200     1.267300     0.935800
C      -0.450900     1.907100    -0.967100
H      -1.059900     1.224900    -1.317500
H       0.273800     2.059800    -1.609500
H      -0.942500     2.743000    -0.824700
C       5.922200     4.085000     1.545400
C       6.340400     3.066300     0.712100
H       5.891100     2.229200     0.736400
C       7.396900     3.241300    -0.153800
H       7.709600     2.514500    -0.680800
C       8.017100     4.517500    -0.252100
H       8.715400     4.669100    -0.877400
C       7.593400     5.515000     0.564000
H       8.001300     6.369900     0.492800
C       6.578100     5.327800     1.504100
H       6.336400     6.024400     2.103700
C      -1.391700     3.049500     4.604800
H      -0.837300     2.242600     4.402500
C      -2.158500     2.943700     5.768400
H      -2.042200     2.068700     6.238400
C      -3.513000     3.599000     6.051800
H      -4.218600     3.117500     5.549100
H      -3.718500     3.517700     7.016100
C      -3.532000     5.070300     5.657300
H      -4.198100     5.547400     6.212800
H      -3.810800     5.150600     4.710200
C      -2.157400     5.729000     5.836800
H      -2.161500     6.499200     6.473400
C      -1.164500     5.829400     4.821300
H      -0.616600     6.663100     4.875400
C      -1.288700     5.257600     3.391300
H      -0.395700     5.253100     2.965400
H      -1.876800     5.848300     2.857100
C      -1.871000     3.806400     3.374200
H      -2.860700     3.843100     3.368500
H      -1.573300     3.337100     2.555200
