85
Refcode: LIGJOB_comp_0 | Dataset: tmCAT | Charge: 1 | Potential Spins: [1, 3, 5]
Pt      0.664400     1.727800     4.108100
P       0.654800     1.355400     6.400100
P      -0.364200    -0.243400     3.980800
C       0.828800     2.032300     2.095200
C       0.022500     1.520100     1.054500
H      -0.686000     0.936900     1.259900
C       0.264100     1.865600    -0.259400
H      -0.317100     1.562400    -0.932700
C       1.370700     2.667500    -0.606700
C       1.700200     2.989300    -1.978800
H       1.182200     2.631100    -2.676500
C       2.748900     3.799200    -2.271000
H       2.943400     4.016300    -3.164600
C       3.518100     4.298900    -1.259900
H       4.254600     4.844400    -1.470600
C       3.248700     4.028900     0.037100
H       3.802000     4.393600     0.703000
C       2.178200     3.227300     0.416100
C       1.828400     2.911500     1.764900
C       2.605600     3.530100     2.886100
H       2.881200     4.440600     2.613000
N       1.606800     3.653000     4.064500
C       3.828000     2.753500     3.242900
H       3.569700     1.889100     3.600800
H       4.337200     3.240000     3.909900
H       4.372600     2.624800     2.451000
C       2.304000     4.105100     5.267200
H       2.755400     4.943300     5.083000
H       2.955000     3.437700     5.534000
H       1.661800     4.234400     5.982900
C       0.612800     4.681900     3.696000
H      -0.118900     4.667100     4.333400
H       0.270600     4.498500     2.806700
H       1.033300     5.556100     3.707700
C       0.012800    -0.363600     6.726100
C       0.077400    -1.264800     5.461000
H       0.979300    -1.658100     5.357200
C      -0.950000    -2.348900     5.814600
H      -0.525600    -3.226400     5.920400
H      -1.657600    -2.409400     5.140200
C      -1.491700    -1.813400     7.163400
H      -2.387400    -2.147000     7.422800
C      -0.413500    -2.038400     8.161800
H      -0.412800    -2.669600     8.859500
C       0.542600    -1.175000     7.874900
H       1.377000    -1.087000     8.298400
O      -1.398000    -0.389000     6.956900
C       2.350800     1.286700     7.071300
C       3.266400     0.473000     6.424400
H       2.978300    -0.070400     5.712900
C       4.583500     0.444000     6.802400
H       5.190500    -0.122300     6.360900
C       5.008400     1.242900     7.821900
H       5.911800     1.233300     8.080300
C       4.116100     2.066600     8.476200
H       4.422700     2.624800     9.167600
C       2.790400     2.081200     8.133200
H       2.183200     2.620500     8.606500
C      -0.387600     2.398300     7.481000
C      -1.181200     3.381200     6.912500
H      -1.143400     3.525800     5.985000
C      -2.015900     4.143400     7.672700
H      -2.555700     4.800400     7.271400
C      -2.061000     3.945200     9.018300
H      -2.615000     4.486600     9.549800
C      -1.302600     2.956400     9.607000
H      -1.363500     2.807600    10.533400
C      -0.468400     2.199600     8.855300
H       0.058200     1.536900     9.263900
C       0.029400    -1.370000     2.589700
C       1.352300    -1.486700     2.195800
H       2.025000    -0.978600     2.611900
C       1.660300    -2.372100     1.175200
H       2.553300    -2.483600     0.901000
C       0.666400    -3.084700     0.566400
H       0.885000    -3.671400    -0.132300
C      -0.628800    -2.970800     0.937000
H      -1.292400    -3.471900     0.497600
C      -0.975600    -2.104700     1.975600
H      -1.870300    -2.020700     2.253000
C      -2.144400    -0.059800     3.941700
H      -2.685300    -0.818400     4.062400
C      -2.694500     1.065800     3.755300
H      -2.165600     1.833900     3.633600
H      -3.632400     1.133700     3.739500
