69
Refcode: LIHQIE_comp_0 | Dataset: tmCAT | Charge: 0 | Potential Spins: [1, 3, 5]
Ni      2.515100     5.899500     6.500600
O       3.851600     5.269100     5.445000
N       2.438000     7.528500     5.540700
C       1.318400     8.428900     5.763800
C       1.474000     9.550200     6.549300
C       0.399300    10.394000     6.818700
C      -0.821600    10.065700     6.277000
C      -0.990900     8.951900     5.504700
C       0.084000     8.115400     5.243400
C       0.599600    11.617300     7.669400
C       3.342100     7.960100     4.707600
C       4.498800     7.246100     4.280000
C       4.647000     5.903400     4.647100
C       5.722200     5.140800     4.096700
C       6.610400     5.716600     3.254200
C       6.533800     7.079400     2.890200
C       7.493400     7.667000     2.051600
C       7.432100     8.973100     1.700600
C       6.389500     9.750700     2.175100
C       5.425700     9.211500     2.995200
C       5.466300     7.857100     3.386500
H       2.310900     9.747200     6.904900
H      -1.552100    10.617900     6.440800
H      -1.829200     8.754900     5.153700
H      -0.028700     7.353100     4.723300
H       1.523200    11.683400     7.922900
H       0.055500    11.552400     8.457300
H       0.349600    12.398400     7.170100
H       3.220300     8.813900     4.359300
H       5.812300     4.241700     4.317700
H       7.295900     5.196300     2.901900
H       8.191900     7.144300     1.727900
H       8.082100     9.342400     1.148000
H       6.340700    10.648600     1.935900
H       4.732200     9.751900     3.298400
O       1.178500     6.529900     7.556100
N       2.592100     4.270500     7.460500
C       3.711700     3.370100     7.237400
C       3.556100     2.248800     6.451800
C       4.630800     1.405000     6.182400
C       5.851700     1.733300     6.724200
C       6.021000     2.847100     7.496500
C       4.946100     3.683600     7.757800
C       4.430600     0.181700     5.331800
C       1.688000     3.838900     8.293600
C       0.531300     4.552900     8.721200
C       0.383100     5.895600     8.354000
C      -0.692100     6.658200     8.904500
C      -1.580300     6.082400     9.747000
C      -1.503700     4.719600    10.111000
C      -2.463300     4.132000    10.949600
C      -2.402000     2.825900    11.300600
C      -1.359400     2.048300    10.826100
C      -0.395600     2.587500    10.006000
C      -0.436100     3.941900     9.614600
H       2.719200     2.051800     6.096200
H       6.582200     1.181100     6.560400
H       6.859300     3.044100     7.847500
H       5.058800     4.445900     8.277800
H       3.506900     0.115600     5.078300
H       4.974600     0.246600     4.543900
H       4.680500    -0.599400     5.831000
H       1.809800     2.985100     8.641900
H      -0.782200     7.557300     8.683500
H      -2.265800     6.602700    10.099300
H      -3.161700     4.654700    11.273300
H      -3.052000     2.456600    11.853200
H      -1.310600     1.150400    11.065300
H       0.297900     2.047100     9.702800
