52
Refcode: LIJCIR_comp_0 | Dataset: tmCAT | Charge: 1 | Potential Spins: [1, 3, 5]
Pd      4.644700     3.868400     5.606700
P       4.442500     2.636000     7.445000
O       7.928900     1.317300     5.990700
O       4.777000     4.869900     3.751600
O       4.165100     7.259300     5.767200
O       3.620900     6.397100     7.775000
N       6.357800     2.735800     5.296500
C       7.375900     2.796500     4.229200
H       7.718100     3.716900     4.107100
H       7.016000     2.465300     3.368600
C       8.451000     1.876100     4.766800
H       8.649800     1.158100     4.114900
H       9.282900     2.381800     4.944000
C       6.741600     1.904000     6.186700
C       5.964500     1.593000     7.407700
H       6.515900     1.775000     8.210200
H       5.716200     0.637200     7.412600
C       4.471800     3.441300     9.092400
H       3.650900     4.007700     9.159400
C       5.682300     4.381900     9.166300
H       5.526900     5.059500     9.857500
H       5.807300     4.824400     8.299800
H       6.484300     3.866100     9.388800
C       4.439400     2.475400    10.237600
H       5.311600     2.038000    10.320300
H       3.748100     1.800300    10.075100
H       4.235900     2.958300    11.066700
C       3.056700     1.441200     7.459900
H       3.169000     0.854600     8.263300
C       1.724100     2.169500     7.600700
H       1.480800     2.574000     6.742000
H       1.804500     2.869800     8.282100
H       1.029500     1.532300     7.868500
C       3.079200     0.553700     6.238900
H       2.299500    -0.040500     6.251700
H       3.898600     0.015200     6.240800
H       3.054200     1.107500     5.430500
C       3.049300     5.132900     5.842000
H       2.335400     4.746000     6.427900
C       2.563900     5.380600     4.404400
H       1.976600     4.637300     4.117900
H       2.039400     6.220100     4.370000
C       3.744000     5.481800     3.473900
C       3.634400     6.273200     2.230300
H       3.968000     7.180900     2.389800
H       2.695700     6.316200     1.951600
H       4.165500     5.850900     1.524300
C       3.658300     6.359200     6.418100
C       4.325900     7.499500     8.375600
H       5.287400     7.309900     8.378600
H       4.014600     7.626000     9.296300
H       4.156500     8.316200     7.859600
