56
Refcode: LILHUL_comp_0 | Dataset: tmCAT | Charge: 1 | Potential Spins: [1, 3, 5]
Ru      5.312800     5.901400     4.212500
Cl      7.353600     5.200300     3.109900
N       4.076800     8.236200    -0.622400
N       4.300300     5.049500     2.615300
N       5.279500     7.426400     2.796400
C       5.205200     9.453400     0.921400
C       3.837800     3.793600     2.630800
H       3.992200     3.257500     3.400900
C       4.104800     5.820900     1.509200
C       5.842500     8.626500     3.041300
H       6.277500     8.760700     3.874800
C       4.322600     9.487800    -1.176300
C       5.016600    10.268400    -0.248100
C       5.815900     9.666500     2.139100
H       6.207100    10.505900     2.349500
C       4.660200     7.175300     1.609300
C       4.615600     8.185800     0.640300
C       4.125600     7.028100     5.680500
C       5.056100    12.054200    -1.828600
H       5.303800    12.939200    -2.072200
C       5.393800    11.577600    -0.581600
H       5.869400    12.120200     0.036600
C       3.972400     9.973600    -2.436100
H       3.491000     9.439400    -3.056500
C       3.439100     5.304400     0.403900
H       3.320100     5.838300    -0.373300
C       3.143900     3.248100     1.566200
H       2.805800     2.361100     1.613600
C       4.356700    11.262000    -2.742500
H       4.139900    11.620000    -3.595900
C       6.338900     6.068200     6.167600
H       7.329400     6.207900     6.181600
C       3.264400     8.250400     5.514600
H       3.862900     9.024000     5.304000
C       6.756300     3.561800     6.173300
H       6.782700     3.263100     7.106500
H       7.657900     3.821800     5.889100
H       6.433600     2.830100     5.605700
C       2.950300     4.009900     0.439400
H       2.486400     3.651700    -0.307800
C       5.510900     7.170300     6.019500
H       5.932900     8.071800     5.922600
C       4.467200     4.586500     5.774200
H       4.133900     3.683200     5.503600
C       5.834500     4.735400     6.048900
C       2.234400     8.138300     4.406200
H       2.687700     7.963600     3.554800
H       1.730800     8.976600     4.342500
H       1.618900     7.402100     4.606100
C       3.623600     5.713600     5.549800
H       2.710200     5.573100     5.168400
C       2.586300     8.527100     6.861200
H       3.268200     8.596300     7.562100
H       1.972700     7.793200     7.074500
H       2.085900     9.367000     6.807900
H       3.849000     7.699200    -1.051400
