85
Refcode: LILNOM_comp_0 | Dataset: tmCAT | Charge: unknown | Potential Spins: [1, 3, 5]
Fe      8.331600     9.932700     7.187500
P      10.147800     9.753600     5.930600
P       6.354800    10.288600     8.113400
N       7.926800    11.675800     6.040200
N       8.705100     7.290400     8.435500
C       5.765900    11.822500     7.267000
H       4.782500    11.799400     7.157400
H       6.006000    12.622600     7.798100
C       6.471500    11.864600     5.865800
H       6.107700    11.149300     5.286400
H       6.296100    12.736000     5.429400
C       8.512400    12.920400     6.592800
H       8.108600    13.112400     7.464600
H       8.334700    13.664400     5.979600
H       9.479600    12.807200     6.697600
C       8.509200    11.504900     4.653600
H       8.395800    12.344000     4.139200
H       8.027200    10.784100     4.176400
C       9.996100    11.156800     4.744500
H      10.513900    11.936400     5.066100
H      10.343100    10.893400     3.854700
C       9.246300     8.086100     3.840200
H       8.444700     7.903900     4.373800
H       9.432800     7.319100     3.259000
H       9.097700     8.883700     3.289900
C      10.434900     8.322000     4.769400
H      11.217100     8.560100     4.194000
C      10.796300     7.034100     5.516900
H      11.694400     7.118900     5.897800
H      10.775000     6.278200     4.893300
H      10.148400     6.881900     6.236500
C      12.065400     9.201900     7.954400
H      11.295700     9.261100     8.557800
H      12.867800     9.524700     8.416000
H      12.197900     8.269100     7.684100
C      11.808100    10.065200     6.707100
H      11.780000    11.010300     7.035100
C      12.969800    10.006600     5.723600
H      13.127400     9.075800     5.460800
H      13.775800    10.367400     6.148200
H      12.752200    10.538200     4.929900
C       4.583700     8.957100     6.389000
H       4.358400     9.823700     5.990600
H       3.820200     8.348700     6.300000
H       5.359500     8.576800     5.926300
C       4.912000     9.144500     7.857700
H       4.116200     9.571200     8.287200
C       5.121900     7.789000     8.534800
H       5.946500     7.379400     8.198300
H       4.362000     7.203200     8.337200
H       5.193300     7.915500     9.504500
C       7.012900     9.732400    10.803700
H       6.472700     8.921300    10.902900
H       7.164100    10.134100    11.685300
H       7.875400     9.503300    10.398000
C       6.278900    10.728300     9.909700
H       6.794000    11.581700     9.991100
C       4.861500    11.063700    10.425600
H       4.441300    11.713800     9.824000
H       4.924200    11.445200    11.325900
H       4.322400    10.246800    10.452500
C       8.565900     8.359000     7.954400
C       8.873300     5.918200     8.608100
C       8.346600     5.023100     7.664200
C       8.566000     3.656000     7.882600
H       8.236300     3.027700     7.251700
C       9.249500     3.198200     8.992100
H       9.389600     2.266600     9.116300
C       9.727700     4.106200     9.919900
H      10.179100     3.787600    10.693600
C       9.562000     5.478300     9.745500
C      10.084500     6.487000    10.723100
H      10.826200     6.982200    10.317200
H      10.401600     6.026800    11.528900
H       9.368000     7.110100    10.964100
C       7.571600     5.487200     6.459400
H       6.611800     5.438000     6.649800
H       7.782900     4.912500     5.694000
H       7.816800     6.412600     6.250600
B       9.719800    11.553400     9.253000
H       9.265300    10.775500     8.339900
H       7.623700     9.207000     6.243900
H      10.117600    10.928500     9.922900
H      10.496400    11.974200     8.735600
H       9.044300    12.356800     9.659000
