53
Refcode: LILWIN_comp_0 | Dataset: tmCAT | Charge: 0 | Potential Spins: [1, 3, 5]
Fe      5.059200     0.062000     0.828300
N       6.349200    -0.305300    -0.820700
Cl      3.151500    -0.993200     1.579800
N       4.198100     1.159100    -0.907200
Cl      5.699800     1.659800     2.332700
N       8.792600    -3.150900     2.114700
C       8.051900    -0.634200    -2.945200
H       8.628500    -0.748100    -3.666400
N       6.603300    -1.476200     1.515800
C       7.549700    -1.747500     0.626600
C       7.399500    -1.112200    -0.690200
C       5.750500    -1.879000     3.731700
H       5.019500    -1.329400     3.557100
C       6.116000     0.351100    -1.971100
C       8.258400    -1.317700    -1.775300
H       8.968000    -1.914300    -1.701900
C       4.874900     1.176700    -1.993900
C       2.947200     1.877900    -0.815800
C       4.219800     3.977700    -0.194200
H       4.007800     4.872600     0.081600
H       4.722700     4.003500    -1.011700
H       4.740900     3.547900     0.489500
C       6.977100     0.223100    -3.041500
H       6.835900     0.710500    -3.821400
C       2.942700     3.202600    -0.412800
C       1.784700    -0.225500    -1.648000
H       0.884100    -0.528500    -1.785100
H       2.223900    -0.802100    -1.018200
H       2.257700    -0.243100    -2.481800
C       7.827200    -2.913700     3.031700
C       6.730600    -2.061100     2.755900
C       5.857800    -2.507300     4.939200
H       5.197400    -2.382900     5.582000
C       1.764200     1.183800    -1.109600
C       8.634500    -2.586000     0.951300
H       9.276200    -2.744600     0.295300
C       4.492100     1.866100    -3.258500
H       3.677500     2.355800    -3.121400
H       4.361400     1.214300    -3.950300
H       5.189300     2.472100    -3.516300
C       0.573300     1.843800    -0.910500
H      -0.221700     1.397500    -1.096500
C       6.956700    -3.342300     5.224700
H       7.017500    -3.768600     6.050300
C       7.908400    -3.518500     4.299500
H       8.644000    -4.052900     4.498600
C       1.712200     3.806200    -0.226800
H       1.686800     4.691700     0.055500
C       0.515800     3.147400    -0.445500
C      -0.804800     3.808600    -0.145200
H      -0.649500     4.703500     0.168100
H      -1.265500     3.308300     0.531900
H      -1.337400     3.836800    -0.943100
