58
Refcode: LIMJUN_comp_0 | Dataset: tmCAT | Charge: 0 | Potential Spins: [1, 3, 5]
Ti      5.505900     4.240600     4.208600
C       3.871500     6.045800     2.382100
C       2.748300     5.212600     2.203400
C       1.765900     5.567800     1.266400
H       1.000800     5.018300     1.146400
C       1.914400     6.711400     0.526500
H       1.272000     6.936500    -0.136300
C       3.003400     7.536400     0.746600
H       3.071300     8.336000     0.238100
C       4.009300     7.255200     1.678100
C       5.191100     8.198200     1.903500
C       5.306600     8.576000     3.386100
H       4.446900     8.924200     3.702400
H       5.996700     9.262700     3.495700
H       5.549400     7.782500     3.907600
C       6.485000     7.508500     1.441700
H       6.619100     6.686300     1.957700
H       7.245000     8.111500     1.583400
H       6.415500     7.288600     0.488600
C       5.032900     9.507500     1.098200
H       5.005600     9.301600     0.141000
H       5.792600    10.099000     1.282700
H       4.200600     9.954300     1.359400
C       2.587800     3.982400     2.916200
H       1.767000     3.524700     2.779900
C       3.002900     2.123700     4.190700
C       2.401200     1.937400     5.432900
C       2.044100     0.674800     5.861400
C       2.241700    -0.414700     5.053200
C       2.805100    -0.254800     3.802200
C       3.171100     1.008500     3.388700
C       6.017700     1.247400     5.259200
H       6.357400     0.859400     4.462000
C       5.821000     0.562600     6.451800
H       5.996600    -0.356700     6.612400
C       5.316800     1.481400     7.366300
H       5.086800     1.309500     8.272500
C       5.213700     2.698100     6.705900
C       4.761900     3.983700     7.032600
H       4.491200     4.195500     7.918500
C       4.311100     6.244300     6.410600
H       4.946100     6.877700     5.993700
H       4.351400     6.374600     7.390700
C       2.906300     6.556100     5.925300
H       2.861700     6.433400     4.953800
H       2.683500     7.484800     6.147200
H       2.268900     5.953400     6.360200
Cl      6.412400     2.993600     2.497400
Cl      7.458000     5.254400     4.798900
F       2.149400     2.988600     6.222100
F       1.488600     0.507200     7.071400
F       1.881100    -1.639500     5.461400
F       3.000100    -1.312700     3.008100
F       3.702500     1.150900     2.158800
N       3.430100     3.417900     3.728100
N       5.655600     2.546400     5.394800
N       4.722700     4.874500     6.092900
O       4.820800     5.622400     3.236600
