119
Refcode: LIMVEL_comp_0 | Dataset: tmCAT | Charge: 1 | Potential Spins: [1, 3, 5]
Ir      7.892600    14.245100     6.896300
N       5.993200    14.433900     7.579300
C      12.864600    14.096500     9.957000
H      12.524100    14.943100    10.136500
N       7.177400    14.090800     4.993900
N       8.608200    14.422100     8.784800
N       9.777800    14.033700     6.212200
C      12.215600    13.266400     9.028500
C       1.752300    12.636300     3.657600
H       1.274000    12.957000     2.926600
C       5.939300    15.831800    11.052200
C       1.341200    11.475500     4.250000
C       2.846600    13.354300     4.096200
H       3.080300    14.159200     3.690900
C       4.873200    13.981700     6.907300
C       7.875500    14.938700     9.831300
C       3.594400    12.841000     5.163200
C      10.909000    13.766500     6.971400
C      10.885900    13.691500     8.374400
C      13.971500    11.651800     9.323400
H      14.358400    10.839700     9.084900
C       0.094700    10.733700     3.716500
H      -0.687300    11.051100     4.175700
H       0.193100     9.791400     3.870400
H       0.002300    10.898700     2.775200
C       3.734900    14.316900     7.730600
H       2.842300    14.143900     7.533100
C       5.884500    13.653500     4.696300
C      14.565100    12.421800    10.290400
C      11.270300    15.249100     0.053900
C       7.918800    14.220800     3.860200
C      12.805500    12.060000     8.692500
H      12.418200    11.521100     8.041000
C       9.859100    14.042000     9.241300
C       5.633700    14.959800     8.797600
C       5.873800    13.550900     3.239500
H       5.151500    13.258500     2.731600
C      10.184800    14.277900     4.929700
C       4.534400    15.609600    13.045100
H       3.950200    15.090600    13.550400
C      15.775500    11.921600    11.024000
H      15.723700    10.968200    11.113700
H      15.809800    12.324300    11.896000
H      16.566000    12.154700    10.534100
C       7.048700    13.938300     2.744400
H       7.268300    14.013900     1.844200
C       5.083400    15.084200    11.862700
H       4.869900    14.215100    11.611300
C       8.703600    14.797900    11.011100
H       8.473600    15.053200    11.872900
C      12.045600    13.792800     6.089100
H      12.925700    13.609000     6.327600
C       9.954600    14.680900     2.508500
C       4.199800    14.924100     8.825800
H       3.671400    15.273700     9.505500
C      10.231700    13.655300     1.618500
H       9.982300    12.781100     1.816000
C       3.162500    11.692600     5.809500
H       3.619800    11.371100     6.553300
C       9.294700    14.424600     3.855100
C      10.897900    13.955600     0.410400
H      11.095700    13.258100    -0.174400
C      14.000300    13.664900    10.603300
H      14.397200    14.202800    11.249700
C       9.860200    14.231400    10.636700
H      10.555400    14.001900    11.211200
C       5.703800    17.611500    12.670600
H       5.921200    18.476500    12.934800
C      10.295800    15.986300     2.203300
H      10.096900    16.677700     2.790600
C      10.955500    16.243500     0.969500
H      11.187600    17.121600     0.766900
C       2.057500    11.038300     5.342700
H       1.778700    10.266000     5.778700
C      11.616900    14.129100     4.870800
H      12.149400    14.245300     4.116700
C       4.840600    13.505400     5.614600
C       6.252000    17.111900    11.493300
H       6.832000    17.640200    10.993200
C       4.849000    16.868600    13.463200
C       4.317200    17.365100    14.766200
H       3.377700    17.174800    14.822600
H       4.456500    18.312200    14.827700
H       4.776400    16.926800    15.486900
C       6.519100    15.261000     9.815900
N       7.839500    11.173800     6.158300
N       7.206500    11.408100     8.187200
N       7.127000    17.129100     5.963400
N       9.052400    17.187000     6.879100
C       7.683300    12.106900     7.156100
C       8.041200    16.358600     6.591800
C       7.437600     9.940400     6.643100
H       7.422800     9.146100     6.160900
C       7.083300    10.081600     7.887100
H       6.801200     9.407800     8.461600
C       6.908100    11.932900     9.508100
H       7.727800    12.137000     9.962100
H       6.417400    11.277300    10.008300
H       6.382100    12.732000     9.423500
C       7.582500    18.433100     5.876200
H       7.134300    19.154400     5.499200
C       8.812500    18.447500     6.448200
H       9.380000    19.180200     6.527700
C       8.287500    11.323900     4.775900
H       7.573500    11.687600     4.244900
H       8.541000    10.466300     4.424500
H       9.041700    11.917300     4.745100
C       5.785300    16.823800     5.465800
H       5.853000    16.343900     4.637300
H       5.303900    17.642600     5.322200
H       5.319600    16.286000     6.109600
C      10.327900    16.858600     7.538300
H      10.164000    16.276200     8.282100
H      10.744300    17.665700     7.851200
H      10.908700    16.422200     6.912400
C      11.982900    15.525900    -1.231200
H      12.895200    15.237900    -1.159300
H      11.957400    16.467000    -1.415800
H      11.552800    15.047400    -1.944200
