89
Refcode: LISNUX_comp_1 | Dataset: tmCAT | Charge: unknown | Potential Spins: [1, 3, 5]
Ru      3.200100     4.174300     4.474700
H       4.611200     4.057200     5.069100
P       4.081200     3.873300     2.427800
P       2.962900     2.020800     5.090000
N       3.514300     6.324000     4.257100
H       4.404600     6.449700     4.393200
N       2.528700     4.826500     6.412800
H       1.626200     4.921100     6.348100
B       0.332000     4.581500     4.196100
H       1.455600     4.422800     3.853400
H      -0.384100     4.295600     3.426300
H       0.170600     4.134900     5.116000
H       0.197300     5.626100     4.247700
C       4.937100     5.392200     1.776500
C       6.035800     5.292100     0.912900
H       6.390200     4.451600     0.736900
C       6.610600     6.396400     0.316800
H       7.350100     6.296600    -0.237000
C       6.085900     7.633700     0.546800
H       6.449800     8.384500     0.136100
C       5.015100     7.751000     1.391600
H       4.669500     8.600000     1.548900
C       4.411700     6.658700     2.027600
C       3.239100     6.904200     2.942900
H       3.084800     7.857200     3.032100
H       2.440100     6.500800     2.567400
C       2.852800     6.999800     5.383500
H       1.901900     7.080300     5.207500
H       3.218300     7.891100     5.493800
C       3.074700     6.195900     6.641400
H       4.021600     6.149300     6.843200
H       2.621300     6.617200     7.387700
C       2.762500     3.945300     7.568400
H       2.647000     4.445500     8.389800
H       3.673100     3.609700     7.542600
C       1.795400     2.788200     7.535600
C       0.873900     2.652500     8.575200
H       0.882000     3.272900     9.267500
C      -0.059600     1.616500     8.605700
H      -0.664100     1.546100     9.309700
C      -0.069500     0.700200     7.582500
H      -0.669900    -0.010100     7.603600
C       0.814700     0.826400     6.519400
H       0.772800     0.218300     5.817700
C       1.764500     1.850200     6.484200
C       5.365300     2.581300     2.227100
C       5.054700     1.335600     1.717900
H       4.192500     1.170200     1.412800
C       6.009600     0.319900     1.654500
H       5.783000    -0.513800     1.311900
C       7.287200     0.559600     2.102700
H       7.929600    -0.111600     2.051100
C       7.622200     1.796000     2.628400
H       8.485900     1.955400     2.933500
C       6.668800     2.790600     2.701200
H       6.895000     3.614800     3.067300
C       3.035500     3.581200     0.929300
C       3.579000     3.316500    -0.323900
H       4.501600     3.263100    -0.422400
C       2.770400     3.136400    -1.426900
H       3.152400     2.942800    -2.250600
C       1.396400     3.239900    -1.316600
H       0.854000     3.123300    -2.062800
C       0.849100     3.514200    -0.100900
H      -0.074900     3.578500    -0.018800
C       1.651100     3.700900     1.025500
H       1.261100     3.905800     1.844600
C       2.359700     0.787000     3.846400
C       3.000500    -0.420100     3.557700
H       3.713500    -0.699800     4.085800
C       2.586600    -1.204800     2.494600
H       3.020300    -2.008100     2.316300
C       1.535600    -0.803100     1.694400
H       1.264600    -1.325700     0.976300
C       0.894200     0.372800     1.971300
H       0.183600     0.643400     1.438600
C       1.289100     1.166200     3.041400
H       0.836100     1.957900     3.219800
C       4.372000     1.081600     5.827100
C       4.162000    -0.117200     6.521700
H       3.292300    -0.397800     6.695400
C       5.223600    -0.889100     6.955900
H       5.068400    -1.678400     7.422900
C       6.514000    -0.480300     6.690700
H       7.227200    -1.007800     6.970000
C       6.762100     0.701700     6.019500
H       7.635100     0.973600     5.845900
C       5.681100     1.478400     5.604100
H       5.842900     2.282600     5.170000
