75
Refcode: LISPAE_comp_0 | Dataset: tmCAT | Charge: unknown | Potential Spins: [1, 3, 5]
Ti      0.114100     5.532000     1.659700
O       1.124600     7.012400     1.353900
C       1.349000     8.355500     1.026200
C       1.937700     8.576800    -0.209400
C       2.195300     9.959800    -0.565400
C       1.839600    10.942300     0.356000
C       1.250900    10.685600     1.507800
C       0.932100     9.338000     1.905700
C       0.282100     9.050400     3.204100
C      -0.981100     9.853600     3.403100
C       1.165100     9.174300     4.335000
C       2.317900     7.505800    -1.172800
C       3.752800     7.501400    -1.476400
C       1.594300     7.567800    -2.460700
C      -2.133900     4.808400     1.811500
C      -1.275500     5.532000    -0.209400
C      -1.692400     4.474300     0.596800
C       0.061300     5.532000     3.738100
H      -0.331100     4.781900     4.129800
H       1.051000     5.532000     4.110900
H       2.618400    10.128000    -1.390500
H       2.006400    11.858400     0.068100
H       0.965200    11.358300     2.108900
H      -0.004900     8.121000     3.219800
H       2.099600     6.614100    -0.838700
H      -0.788600    10.847100     3.417700
H      -1.636000     9.767300     2.694200
H      -1.457000     9.709800     4.233400
H       0.756700     9.019400     5.221900
H       1.964700     8.652000     4.321400
H       1.507200    10.130200     4.440800
H       4.353700     7.412900    -0.604200
H       4.173400     6.848600    -2.037700
H       4.136600     8.379900    -1.797900
H       1.784400     8.541400    -2.892100
H       1.742700     7.012400    -3.147600
H       0.608300     7.693900    -2.339200
H      -2.401300     4.222000     2.512000
H      -0.847400     5.532000    -1.046100
H      -1.656900     3.571500     0.299500
O       1.124600     4.051600     1.353900
C       1.349000     2.708500     1.026200
C       1.937700     2.487200    -0.209400
C       2.195300     1.104200    -0.565400
C       1.839600     0.121700     0.356000
C       1.250900     0.378400     1.507800
C       0.932100     1.726000     1.905700
C       0.282100     2.013600     3.204100
C      -0.981100     1.210400     3.403100
H      -0.788600     0.216900     3.417700
H      -1.636000     1.296700     2.694200
H      -1.457000     1.354200     4.233400
C       1.165100     1.889700     4.335000
H       0.756700     2.044600     5.221900
H       1.964700     2.412000     4.321400
H       1.507200     0.933800     4.440800
H      -0.004900     2.943000     3.219800
H       0.965200    -0.294300     2.108900
H       2.006400    -0.794400     0.068100
H       2.618400     0.936000    -1.390500
C       2.317900     3.558200    -1.172800
C       3.752800     3.562600    -1.476400
H       4.353700     3.651100    -0.604200
H       4.173400     4.215400    -2.037700
H       4.136600     2.684100    -1.797900
C       1.594300     3.496200    -2.460700
H       1.784400     2.522600    -2.892100
H       1.742700     4.051600    -3.147600
H       0.608300     3.370100    -2.339200
H       2.099600     4.449900    -0.838700
C      -2.133900     6.255600     1.811500
C      -1.692400     6.589700     0.596800
H      -2.401300     6.842000     2.512000
H      -1.656900     7.492500     0.299500
H      -0.331100     6.282100     4.129800
