65
Refcode: LIVDUQ_comp_0 | Dataset: tmCAT | Charge: 0 | Potential Spins: [1, 3, 5]
Pd      4.076800     4.532700     8.582300
O       4.129700     4.291500     6.603200
N       3.377300     2.667000     8.527800
C       2.749400     2.037900     9.527000
C       2.198500     0.786900     9.365800
C       2.313200     0.171300     8.122300
C       2.981700     0.812300     7.101100
C       3.499900     2.079600     7.313500
C       4.246500     2.935300     6.280000
C       5.702600     2.428600     6.206900
C       6.714900     2.604500     7.121000
C       7.967900     2.035200     6.852100
C       8.174000     1.308100     5.688300
C       7.164800     1.149500     4.749100
C       5.917200     1.727800     5.008400
C       4.690200     1.776800     4.213200
C       4.369500     1.176700     2.992300
C       3.102900     1.374300     2.473400
C       2.164800     2.167500     3.135400
C       2.479800     2.786700     4.347300
C       3.742500     2.561900     4.886400
H       2.682200     2.466700    10.372500
H       1.751300     0.354500    10.084200
H       1.931900    -0.687100     7.978100
H       3.086500     0.388000     6.258200
H       6.568500     3.101200     7.918000
H       8.680200     2.147600     7.471700
H       9.022800     0.912000     5.530400
H       7.317300     0.660000     3.949600
H       5.006400     0.645400     2.530100
H       2.867000     0.962700     1.651200
H       1.301800     2.287200     2.756600
H       1.850900     3.344200     4.790600
O       4.023900     4.773800    10.561300
N       4.776300     6.398300     8.636700
C       5.404200     7.027400     7.637500
C       5.955100     8.278400     7.798700
C       5.840400     8.894000     9.042300
C       5.171800     8.253000    10.063400
C       4.653700     6.985700     9.851100
C       3.907100     6.130000    10.884500
C       2.450900     6.636700    10.957700
C       1.438600     6.460800    10.043500
C       0.185700     7.030100    10.312400
C      -0.020400     7.757200    11.476200
C       0.988800     7.915800    12.415400
C       2.236400     7.337500    12.156100
C       3.463400     7.288500    12.951300
C       3.784100     7.888600    14.172200
C       5.050700     7.691000    14.691100
C       5.988800     6.897800    14.029100
C       5.673800     6.278600    12.817300
C       4.411100     6.503400    12.278100
H       5.471400     6.598600     6.792000
H       6.402200     8.710800     7.080400
H       6.221700     9.752400     9.186500
H       5.067100     8.677300    10.906300
H       1.585000     5.964100     9.246500
H      -0.526600     6.917700     9.692800
H      -0.869200     8.153300    11.634100
H       0.836300     8.405300    13.215000
H       3.147200     8.419900    14.634500
H       5.286600     8.102600    15.513300
H       6.851800     6.778100    14.407900
H       6.302600     5.721100    12.373900
