94
Refcode: LIYYAV_comp_0 | Dataset: tmCAT | Charge: unknown | Potential Spins: [1, 3, 5]
Ni      2.536700     3.879000     3.329800
F       2.123300     9.691100     6.619500
F       0.041200     9.572700     7.138100
F       0.680200    10.501400     5.303900
N       0.792900     4.487100     3.460600
N       4.950200     2.232400     3.936000
N       5.274300     4.118600     2.946600
C       0.867000     3.288800     4.120700
C       0.349300     2.101500     3.528300
C       0.302300     0.941200     4.273000
C      -0.248600    -0.201200     3.720600
C      -0.707800    -0.200400     2.481900
C      -0.691700     0.951000     1.684900
C      -0.162100     2.092400     2.246500
C       0.823700     5.695000     4.189900
C       0.337400     5.821000     5.439300
C       0.368800     7.023300     6.081000
C       0.843600     8.161000     5.448600
C       1.291400     8.006900     4.188400
C       1.303600     6.808000     3.537500
C       0.903300     9.457800     6.117900
C       4.286000     3.322700     3.422100
C       6.308200     2.382100     3.782200
C       6.510600     3.515900     3.099000
C       4.249200     1.170800     4.631500
C       3.805000     0.116400     3.776000
C       3.204200    -0.913700     4.451500
C       3.013900    -0.929700     5.747100
C       3.494400     0.095200     6.519500
C       4.099000     1.193600     5.944000
C       4.033300     0.107900     2.372700
C       2.847400    -0.424600     1.558700
C       5.257000    -0.689800     1.984900
C       4.630500     2.283900     6.787300
C       3.563600     3.335800     6.976500
C       5.144800     1.844100     8.122900
C       5.010400     5.390800     2.368100
C       5.029400     6.501900     3.255900
C       4.726800     7.687900     2.628100
C       4.364700     7.790700     1.331000
C       4.360100     6.659100     0.563200
C       4.660600     5.457200     1.089400
C       5.414500     6.327500     4.680800
C       4.523400     7.173500     5.600900
C       6.850200     6.686200     4.859200
C       4.637300     4.259500     0.155400
C       3.189000     3.824500    -0.033900
C       5.273700     4.503100    -1.161700
H       0.816100     3.336100     5.119300
H       0.645200     0.926100     5.159300
H      -0.298000    -0.996700     4.237600
H      -1.060100    -1.005100     2.120300
H      -1.029800     0.945500     0.798600
H      -0.149300     2.894400     1.737200
H      -0.033200     5.063800     5.877900
H       0.061200     7.082200     6.978100
H       1.615400     8.772300     3.728300
H       1.637200     6.742700     2.651200
H       6.978900     1.789500     4.102200
H       7.344200     3.844600     2.780500
H       2.906200    -1.663200     3.948300
H       2.544700    -1.649600     6.151800
H       3.408500     0.049200     7.464300
H       4.191200     1.053500     2.089600
H       2.087400     0.186800     1.652600
H       2.596200    -1.312200     1.888000
H       3.101000    -0.487700     0.613900
H       5.197300    -1.591600     2.361900
H       6.062600    -0.245200     2.331100
H       5.316600    -0.747600     1.007900
H       5.390400     2.707400     6.293300
H       3.331200     3.725200     6.107100
H       3.900700     4.038700     7.570500
H       2.767300     2.926200     7.373500
H       5.787300     1.114200     8.001300
H       4.397900     1.533400     8.675300
H       5.587600     2.599100     8.567500
H       4.777100     8.487600     3.139000
H       4.118100     8.629800     0.960200
H       4.141000     6.722500    -0.358500
H       5.296500     5.365100     4.925400
H       3.590100     6.890700     5.502400
H       4.605700     8.119100     5.357800
H       4.804100     7.050400     6.531800
H       7.005600     7.594100     4.523800
H       7.409000     6.053900     4.360700
H       7.081300     6.646800     5.811700
H       5.128700     3.511200     0.601600
H       3.153500     3.070400    -0.657000
H       2.668300     4.572200    -0.393900
H       2.814500     3.553400     0.830900
H       6.225500     4.695900    -1.034000
H       4.841000     5.266800    -1.597200
H       5.174800     3.705900    -1.724900
