84
Refcode: LIZTOF_comp_0 | Dataset: tmCAT | Charge: 1 | Potential Spins: [1, 3, 5]
Ni      4.668400    10.374500    13.004500
N       6.643100    12.468800    13.164600
N       4.658100    13.299200    12.836400
N       5.787700     9.500000    14.212400
C       3.462400    10.575700    11.380400
H       3.539800    11.370400    10.865300
C       2.568900    10.387900    12.508800
H       1.908700    10.998500    12.816400
C       2.864700     9.149300    13.051900
H       2.456900     8.762200    13.817000
C       3.906800     8.546700    12.242600
H       4.324000     7.710900    12.416200
C       4.198800     9.388700    11.171400
H       4.779700     9.201100    10.442900
C       5.342800    12.151700    13.044300
C       5.516300    14.500300    12.944600
H       5.358300    14.981300    13.796600
H       5.366100    15.121000    12.188300
C       6.912300    13.899500    12.899400
H       7.331300    14.028600    12.012300
H       7.496500    14.292100    13.596500
C       7.728000    11.618400    13.583900
C       8.124500    11.699900    14.927000
C       9.205300    10.911300    15.330200
H       9.498400    10.950100    16.233100
C       9.856200    10.076200    14.442300
H      10.587800     9.546100    14.736000
C       9.439700    10.013500    13.122100
H       9.891500     9.436000    12.518100
C       8.367600    10.783300    12.662800
C       7.931700    10.704800    11.207900
H       7.015500    11.099500    11.139600
C       8.870300    11.540500    10.332300
H       8.840300    12.476400    10.622600
H       8.585500    11.478800     9.396000
H       9.785800    11.200800    10.418800
C       7.860400     9.263800    10.695200
H       8.764000     8.887900    10.648500
H       7.455600     9.254600     9.801800
H       7.314700     8.725700    11.306300
C       7.400500    12.567400    15.946700
H       6.675300    13.060100    15.466000
C       8.335000    13.606200    16.570400
H       9.061300    13.149100    17.042900
H       7.831800    14.161000    17.202200
H       8.710200    14.172600    15.864400
C       6.742500    11.702700    17.029700
H       6.124600    11.068400    16.611100
H       6.248400    12.278200    17.650600
H       7.433800    11.209500    17.519000
C       3.233200    13.465800    12.979500
C       2.640600    13.290700    14.240400
C       1.262600    13.468600    14.328900
H       0.830100    13.344600    15.165900
C       0.511000    13.819700    13.229200
H      -0.429100    13.922900    13.314800
C       1.109500    14.023500    12.006900
H       0.579800    14.274800    11.260000
C       2.486000    13.864100    11.853300
C       3.140000    14.162100    10.515900
H       4.048600    13.746400    10.507700
C       3.295900    15.680600    10.321000
H       2.410800    16.091600    10.239100
H       3.812500    15.853700     9.507200
H       3.764400    16.062700    11.091400
C       2.333800    13.599600     9.332800
H       2.157900    12.647100     9.481200
H       2.847300    13.712900     8.504800
H       1.483400    14.081700     9.258900
C       3.433900    12.937400    15.499200
H       4.351800    12.656900    15.215900
C       3.575800    14.165700    16.406800
H       4.071300    14.865800    15.933000
H       4.059500    13.916500    17.220700
H       2.685600    14.498700    16.644500
C       2.804000    11.778400    16.271900
H       1.920200    12.047500    16.600000
H       3.376400    11.542600    17.031700
H       2.710800    11.003200    15.679100
C       6.414800     8.782600    14.840500
C       7.203100     7.865800    15.646500
H       7.574700     7.163200    15.073200
H       6.632200     7.459400    16.331300
H       7.933400     8.355800    16.079400
