83
Refcode: LODMAV_comp_0 | Dataset: tmCAT | Charge: unknown | Potential Spins: [1, 3, 5]
Ni     16.015000    21.677700    16.600100
N      18.864700    22.160300    16.719900
N      18.251900    21.068600    18.468800
N      13.822300    22.826500    15.001200
N      13.173100    21.214400    16.254400
F      16.303000    21.370600    13.369500
F      16.279700    19.203800    11.838900
F      14.126800    17.308200    11.956300
F      13.909000    15.127700    10.417300
F      15.798000    13.165400    10.527000
F      17.929400    13.443500    12.168900
F      18.184700    15.652100    13.688400
F      16.299800    16.468100    15.694200
F      16.307100    18.614500    17.249500
C      17.770300    21.596600    17.309100
C      19.989400    21.996600    17.505300
H      20.865500    22.306500    17.309600
C      19.608500    21.316100    18.597900
H      20.164400    21.053900    19.322300
C      17.420300    20.454600    19.527800
H      16.502900    20.312900    19.155400
C      18.825300    22.869600    15.429300
H      17.865100    23.004200    15.183900
C      17.979000    19.095700    19.927000
H      18.017200    18.514300    19.139500
H      17.398600    18.690300    20.604800
H      18.880100    19.207900    20.294300
C      17.302100    21.395600    20.725100
H      16.981000    22.270800    20.422000
H      18.179900    21.497700    21.148500
H      16.669000    21.022100    21.373100
C      19.477600    22.045200    14.325100
H      19.069500    21.154900    14.297800
H      20.437400    21.960000    14.505300
H      19.344900    22.491600    13.463300
C      19.466400    24.239500    15.558500
H      19.040500    24.732500    16.291000
H      19.351500    24.734400    14.721300
H      20.422700    24.136300    15.747300
C      14.279100    21.921800    15.912300
C      12.462100    22.673900    14.786400
H      11.920100    23.186100    14.198400
C      12.059600    21.663000    15.569300
H      11.176900    21.319200    15.639300
C      13.160700    20.193400    17.314100
H      14.110500    19.973300    17.537900
C      14.646000    23.898500    14.417100
H      15.604500    23.691700    14.614500
C      12.502300    18.933400    16.816000
H      12.967900    18.617000    16.013600
H      11.565300    19.118500    16.597800
H      12.545900    18.245400    17.512100
C      12.497900    20.743100    18.577900
H      12.936000    21.579900    18.838800
H      12.583800    20.089000    19.302700
H      11.548400    20.911800    18.401900
C      14.481100    23.949500    12.902300
H      14.693400    23.071900    12.520700
H      15.088200    24.623500    12.530600
H      13.555600    24.186200    12.682700
C      14.308100    25.227000    15.084800
H      14.409500    25.139800    16.055300
H      13.382600    25.471900    14.874700
H      14.912800    25.922100    14.753200
C      16.277300    20.126000    15.403600
C      16.294300    20.162800    14.012400
C      16.279200    19.053300    13.193900
C      16.272000    17.768800    13.721000
C      16.306800    17.693300    15.110500
C      16.309900    18.829600    15.891600
C      16.161900    16.557800    12.877100
C      15.088900    16.373600    12.022100
C      14.956400    15.250800    11.236600
C      15.916400    14.261200    11.291100
C      16.990200    14.400400    12.128300
C      17.100700    15.533400    12.906500
C      15.560000    23.076200    17.942600
H      14.718800    23.507300    17.645900
H      15.361300    22.613500    18.794600
C      16.557100    24.188000    18.250300
H      16.201400    24.757800    18.964000
H      16.704000    24.726900    17.444600
H      17.406200    23.794100    18.539300
