97
Refcode: LODXAG_comp_0 | Dataset: tmCAT | Charge: 0 | Potential Spins: [1, 3, 5]
Zr     10.067500     4.545700     3.734400
O      11.249900     4.696600     5.577200
O       9.497000     4.266100     1.613600
N       7.549800     3.246100     0.935000
N      10.520000     4.150600     7.674500
N       7.968500     4.090000     3.187500
N       9.068400     4.469300     5.715500
N      10.352200     2.207300     3.737700
N      10.034500     6.618400     3.422700
N      12.337800     4.559100     2.839900
C       7.694400     4.349700     6.202600
H       7.596000     4.894900     7.023100
H       7.520800     3.405700     6.445000
C      10.237000     4.429900     6.376000
C       8.287200     3.852900     1.912700
C       6.638100     4.804500     5.168300
C       6.702800     3.935000     3.886600
H       6.580100     2.983600     4.131600
H       5.962600     4.191300     3.281200
C       6.803500     6.295100     4.831800
H       6.743100     6.824300     5.654300
H       6.095100     6.570800     4.213200
H       7.677500     6.440400     4.413100
C      11.929300     4.240500     8.181900
H      11.887000     4.007900     9.153500
C      13.136500     5.627700     3.497300
H      12.757000     6.503200     3.274300
H      14.063400     5.583500     3.182000
H      13.115600     5.500300     4.468800
C       5.258400     4.566200     5.812200
H       5.161400     3.616700     6.034600
H       4.554600     4.827800     5.182500
H       5.182100     5.102500     6.628800
C       9.525200     3.561700     8.605000
H       8.650200     3.527500     8.122000
C       7.961500     3.343900    -0.492100
H       7.276600     2.833200    -1.011700
C      11.179300     1.533900     2.810200
C       9.321300     1.492000     4.285500
H       8.826900     1.909000     4.981400
C       8.939600     0.228500     3.919100
H       8.235100    -0.223500     4.368500
C       9.640400     7.329900     2.210600
H       9.403000     6.682500     1.514400
H      10.387200     7.884100     1.900200
H       8.868100     7.901000     2.403400
C      12.366000     4.808600     1.373900
H      11.903700     4.079900     0.909500
H      13.295900     4.853100     1.067900
H      11.916900     5.657500     1.178400
C       6.508900     2.239300     1.258900
H       6.434100     2.200100     2.255300
C      12.389800     2.055400     2.445600
H      12.861200     1.656200     1.723900
C       5.135000     2.643500     0.715800
H       4.908600     3.541700     1.035700
H       4.459700     2.005600     1.028100
H       5.157500     2.641700    -0.263900
C       7.884100     4.786700    -0.997600
H       6.981900     5.137900    -0.846100
H       8.086400     4.808200    -1.956300
H       8.534600     5.337600    -0.514100
C      10.370000     7.588000     4.465200
H       9.580000     8.128600     4.675000
H      11.090600     8.171900     4.148500
H      10.664300     7.113200     5.270400
C       6.926900     0.841900     0.778500
H       6.938100     0.823100    -0.201300
H       6.287700     0.177500     1.110600
H       7.821700     0.633400     1.119400
C      12.999600     3.232500     3.141800
H      13.954100     3.290700     2.885800
H      12.961300     3.075900     4.118500
C      12.471500     5.675500     8.114700
H      12.605700     5.930500     7.178000
H      13.325900     5.724600     8.592200
H      11.829100     6.287400     8.531000
C      10.707100     0.256600     2.282200
H      11.152600    -0.133600     1.539400
C       9.310800     2.694400    -0.820700
H      10.036900     3.289800    -0.540400
H       9.371300     2.537400    -1.786100
H       9.386700     1.840600    -0.345600
C       9.642800    -0.385100     2.833400
H       9.367600    -1.231800     2.501300
C      12.880500     3.224800     7.547500
H      12.494900     2.326800     7.619600
H      13.742200     3.248700     8.013700
H      13.014000     3.448100     6.602600
C       9.892300     2.125600     8.982600
H      10.051200     1.604100     8.168200
H       9.157100     1.723100     9.490100
H      10.704400     2.129600     9.531300
C       9.326900     4.426800     9.836500
H      10.132500     4.390500    10.394000
H       8.560200     4.095700    10.348500
H       9.161700     5.352900     9.561900
