58
Refcode: LOGTIN_comp_0 | Dataset: tmCAT | Charge: 1 | Potential Spins: [1, 3, 5]
C       1.979500     0.237100     4.883800
C       0.829000     0.760300     5.501300
C       0.948100     1.900400     6.338800
C       2.220300     2.422800     6.499500
H       2.317600     3.166200     7.083200
C       3.372500     1.946000     5.876400
C       3.221100     0.803400     5.072700
C      -0.221300     2.497000     7.032500
H       0.074400     3.248900     7.588000
H      -0.644600     1.820200     7.602100
H      -0.867200     2.816000     6.367000
C       4.704200     2.617700     6.087900
H       4.579700     3.432100     6.618000
H       5.097600     2.848900     5.219400
H       5.306400     2.007600     6.564400
C       4.197300     0.072600     4.274700
C       6.078000    -0.632100     3.296300
H       6.886200    -1.077600     3.654400
H       6.322500    -0.148500     2.467300
C       4.972900    -1.659100     3.014300
C       5.142300    -2.945100     3.795400
H       5.278500    -2.735900     4.742800
H       5.919400    -3.435400     3.454200
H       4.338700    -3.496200     3.696700
C       4.795200    -1.921500     1.517000
H       4.028800    -2.512200     1.376000
H       5.605300    -2.346800     1.161700
H       4.644000    -1.071700     1.051800
C      -0.317200    -0.021900     5.137600
C      -2.415500    -0.707200     4.821800
H      -2.902100    -0.216000     4.111200
H      -3.078700    -1.147700     5.411100
C      -1.482900    -1.738400     4.209900
C      -1.377700    -3.005100     5.027600
H      -0.611000    -3.530800     4.720300
H      -2.197300    -3.530800     4.923300
H      -1.256100    -2.773800     5.972200
C      -1.789600    -2.068300     2.752100
H      -1.733100    -1.252300     2.213500
H      -2.694100    -2.442200     2.687200
H      -1.141700    -2.724000     2.422200
C       1.549800    -4.002500     2.038700
C       1.539000    -4.990700     3.163800
H       2.383500    -5.486100     3.172200
H       0.793000    -5.616900     3.042500
H       1.428800    -4.516400     4.015300
N       3.784800    -0.935900     3.552900
N      -0.186300    -1.027000     4.334000
O       5.518200     0.292000     4.283200
O      -1.571600     0.212700     5.597200
O       1.571400    -2.795800     2.097900
O       1.504300    -4.631200     0.888200
H       1.463100    -4.070900     0.265100
Ir      1.770000    -1.272700     3.700000
H       2.059600    -2.430400     4.737200
O       1.432800     0.037100     1.909000
H       0.786500     0.523200     1.973800
H       1.232200    -0.523200     1.381700
