91
Refcode: LOLREM_comp_0 | Dataset: tmCAT;tmPHOTO | Charge: unknown | Potential Spins: [1, 3, 5]
Ni      7.496600     5.608200     6.570800
O       3.119300     9.016400     8.191800
O       3.590400     7.461700    10.426600
N       6.286700     7.079200     6.101000
N       6.715400     5.487800     8.347100
N       8.197200     5.659000     4.758900
N       8.699200     4.131800     7.030800
C       8.683000     3.320700     8.159500
C       9.753600     3.666000     6.233600
C       5.859900     6.356400     8.945400
C       4.573500     8.674100     6.298300
C       7.717500     6.399200     3.701400
C       1.957000     9.662400     8.536300
C       5.449300     5.911300    10.277800
C       4.394800     6.535500    11.055600
C       5.587500     9.485900     0.131000
C       4.957700     8.613300     5.024100
H       4.585900     9.103300     4.326300
C       5.459400     7.728700     6.971000
C       9.260900     4.932500     4.260900
C       6.895600     4.507700     9.343200
C       6.077000     4.749600    10.500900
H       5.999700     4.208600    11.254000
C       5.364800     7.486700     8.321200
H       4.939700     8.124400     8.847800
C       7.805700     3.423600     9.204100
C       2.609400     7.838600    11.278700
C       6.045500     7.665700     4.894700
C       1.594200    10.427800     7.436700
H       0.853300    10.988600     7.394500
C       3.446300     9.344700     6.869100
C       2.759100     7.150200    12.452700
H       2.207200     7.208100    13.198700
C       9.746800     2.371600     8.119100
H       9.953500     1.738300     8.768100
C       7.735200     0.438800    12.329800
C       3.906600     6.338300    12.323300
H       4.262700     5.776200    12.973100
C       9.426100     5.216800     2.862100
H      10.067400     4.848600     2.298500
C       6.695300     7.346100     3.712700
C       5.287100     8.129900     0.262000
H       4.836100     7.685500    -0.420000
C       6.216000    10.113400     1.191700
H       6.384800    11.026200     1.142900
C       7.762300     2.389300    10.287500
C       8.475800     6.119800     2.514500
H       8.340600     6.485500     1.669700
C       5.660700     7.439700     1.414900
H       5.470700     6.531800     1.481100
C       2.503300    10.226300     6.408300
H       2.478500    10.617200     5.563800
C      10.046800     4.036500     4.935200
C      10.392200     2.572600     6.950000
H      11.128700     2.089100     6.651200
C       6.305000     8.066400     2.459500
C      11.653700     1.071000     2.994700
H      12.224300     0.783300     3.723600
H      12.200500     1.577800     2.373900
C       6.595300     9.425900     2.310700
H       7.054900     9.870300     2.985000
C      11.129400     3.254200     4.238200
H      11.804600     2.996500     4.885300
H      11.553100     3.818200     3.572800
C       1.310800     9.519900     9.766800
H       0.522000    10.007200     9.833700
C       7.683600    -0.626600    13.393800
H       6.772000    -0.884300    13.545100
H       8.058600    -0.283100    14.208900
H       8.189600    -1.390100    13.106700
C       6.775900     1.446900    10.360300
H       6.094100     1.466600     9.727500
C       6.746100     0.464800    11.333700
H       6.072500    -0.177200    11.328700
C       1.613400     8.799100    10.897100
H       1.023400     8.981300    11.592800
C      10.568100     1.981600     3.549400
H      10.038000     1.483800     4.191100
H       9.981100     2.248800     2.824800
C       8.755500     1.378800    12.244100
H       9.435400     1.377800    12.877100
C      11.109600    -0.167400     2.275200
H      10.622900     0.104000     1.493100
H      10.524900    -0.649400     2.864300
H      11.840300    -0.734100     2.015700
C       5.181000    10.227900    -1.140000
H       4.905200     9.593700    -1.806100
H       5.928100    10.732700    -1.468500
H       4.453600    10.822600    -0.943800
C       8.769400     2.323100    11.215700
H       9.479500     2.921500    11.159400
