73
Refcode: LORDIG_comp_0 | Dataset: tmCAT | Charge: -4 | Potential Spins: [1, 3, 5]
Pd      4.270800     1.929800    11.525100
Br      5.556600    -0.067200    11.025800
N       2.928900     1.491700     8.803900
N       1.687200     0.843300    10.411800
N       0.542400    -1.861300    14.205800
C       2.888400     1.391800    10.151800
C       1.756900     1.004900     8.239300
H       1.550200     0.968900     7.323000
C       0.977100     0.594400     9.248900
H       0.119600     0.215200     9.182000
C       4.065700     1.988500     8.051400
C       4.968700     1.076000     7.539700
C       6.104500     1.584200     6.915100
H       6.753100     0.986300     6.591200
C       6.307200     2.954800     6.756000
C       5.341000     3.816200     7.220500
H       5.455300     4.739700     7.086800
C       4.202300     3.371500     7.882000
C       4.743300    -0.409000     7.577700
H       4.189900    -0.671400     6.826300
H       4.297800    -0.647400     8.406400
H       5.597200    -0.867100     7.527000
C       7.550400     3.470900     6.073700
H       7.318200     3.818100     5.197800
H       8.189300     2.747600     5.975800
H       7.943200     4.179200     6.608500
C       3.148900     4.347400     8.329200
H       2.284500     4.069600     7.988000
H       3.361900     5.231600     7.990300
H       3.120900     4.371500     9.298400
C       1.231300     0.452500    11.742900
H       0.254200     0.506400    11.786700
H       1.601600     1.066500    12.411400
C       1.681900    -0.972500    12.049500
H       1.449000    -1.556500    11.296900
H       2.656600    -0.990800    12.154400
C       1.051400    -1.479300    13.270000
Br      2.985000     3.926900    12.024400
N       5.612700     2.368000    14.246300
N       6.854400     3.016400    12.638400
N       7.999300     5.721000     8.844400
C       5.653200     2.467900    12.898400
C       6.784700     2.854700    14.810900
H       6.991400     2.890700    15.727100
C       7.564500     3.265200    13.801300
H       8.422100     3.644500    13.868100
C       4.475900     1.871100    14.998700
C       3.572900     2.783700    15.510500
C       2.437100     2.275400    16.135100
H       1.788500     2.873400    16.459000
C       2.234500     0.904800    16.294200
C       3.200600     0.043500    15.829700
H       3.086400    -0.880100    15.963400
C       4.339300     0.488100    15.168200
C       3.798400     4.268700    15.472400
H       4.351800     4.531000    16.223900
H       4.243900     4.507100    14.643800
H       2.944400     4.726800    15.523100
C       0.991300     0.388700    16.976500
H       1.223500     0.041600    17.852400
H       0.352300     1.112100    17.074400
H       0.598400    -0.319500    16.441700
C       5.392700    -0.487700    14.721000
H       6.257100    -0.209900    15.062100
H       5.179700    -1.371900    15.059800
H       5.420700    -0.511800    13.751700
C       7.310300     3.407200    11.307300
H       8.287400     3.353200    11.263500
H       6.940000     2.793100    10.638800
C       6.859700     4.832200    11.000700
H       7.092600     5.416200    11.753300
H       5.885100     4.850400    10.895800
C       7.490200     5.338900     9.780200
