53
Refcode: LOXPEV_comp_0 | Dataset: tmCAT | Charge: unknown | Potential Spins: [1, 3, 5]
Rh      3.596600     6.951100     5.222900
C       3.015900     6.148600     3.458500
C       3.780900     5.285100     2.674000
H       4.604300     4.962000     3.019400
C       3.384100     4.881000     1.404600
H       3.927700     4.276500     0.913500
C       2.204200     5.344800     0.842800
H       1.943500     5.087500    -0.033300
C       1.415400     6.194900     1.600200
C       1.804000     6.561700     2.892500
C       0.092100     6.838500     1.271400
H      -0.601600     6.152200     1.100800
H       0.170200     7.418900     0.472400
C      -0.256700     7.668200     2.515800
H      -0.271200     8.634900     2.301500
H      -1.141500     7.407400     2.875800
C       0.591900     7.449200     4.846500
C      -0.622800     7.955700     5.358400
H      -1.265300     8.340300     4.771600
C      -0.876100     7.889800     6.704700
H      -1.699300     8.214800     7.054300
C       0.087700     7.340600     7.562100
H      -0.082300     7.248000     8.492200
C       1.281300     6.940000     7.018900
H       1.947800     6.597300     7.603700
C       5.321000     7.988700     4.392800
C       5.653300     7.505300     5.712100
C       4.809400     8.183600     6.675600
C       3.938100     9.024000     5.959800
C       4.218600     8.886900     4.546800
C       6.017500     7.651300     3.117200
H       6.537800     6.829600     3.237900
H       6.618100     8.385700     2.869600
H       5.354600     7.518600     2.409700
C       6.752000     6.543000     6.049200
H       7.028000     6.065800     5.239800
H       6.428900     5.900200     6.715100
H       7.516400     7.035300     6.415500
C       4.883800     8.004700     8.167600
H       5.428900     8.720400     8.554700
H       5.288600     7.136700     8.371500
H       3.980200     8.042100     8.546300
C       2.886000     9.908800     6.527900
H       3.204100    10.836400     6.525800
H       2.689400     9.632900     7.447600
H       2.072200     9.842100     5.984700
C       3.566500     9.689800     3.458500
H       2.597900     9.702300     3.597900
H       3.768200     9.283900     2.588700
H       3.911200    10.606700     3.477200
Cl      3.689700     4.757700     6.216800
N       1.561400     7.005900     5.689200
N       0.815800     7.364600     3.491800
