59
Refcode: LUFZUH_comp_0 | Dataset: tmCAT | Charge: unknown | Potential Spins: [1, 3, 5]
Zr     -0.501800    -3.902400     3.317100
N       0.905200    -2.249300     3.067000
C      -1.671000    -4.401500     5.445200
H      -2.348100    -4.041500     4.884700
H      -1.740100    -5.295600     5.760300
C      -0.564300    -3.610800     5.810500
H       0.107100    -3.979400     6.370300
C      -0.437600    -2.317000     5.373100
H      -1.220700    -1.895000     5.040000
C       0.814200    -1.516000     5.374300
H       1.552400    -2.051700     5.758100
H       0.693300    -0.709800     5.938100
C       1.173500    -1.095600     3.942000
H       2.161600    -0.937100     3.923500
C       0.505600     0.203300     3.490400
C       1.198800     1.143900     2.777700
H       2.107400     0.971600     2.559400
C       0.625300     2.344600     2.359000
H       1.149300     2.971700     1.872800
C      -0.669100     2.625400     2.638200
H      -1.065200     3.436800     2.341000
C      -1.391100     1.714100     3.354000
H      -2.295100     1.898400     3.579100
C      -0.815300     0.527100     3.754700
H      -1.348500    -0.096500     4.234100
C       1.441800    -1.996600     1.730600
H       0.989200    -1.195600     1.364100
H       1.200000    -2.761500     1.152500
C       2.950400    -1.779500     1.623600
C       3.472100    -0.916500     0.675800
H       2.880200    -0.410000     0.130600
C       4.834400    -0.775200     0.505800
H       5.173000    -0.187800    -0.159800
C       5.703900    -1.491900     1.308700
H       6.642400    -1.407400     1.188500
C       5.207500    -2.322200     2.276400
H       5.801800    -2.799400     2.843000
C       3.836000    -2.468600     2.428800
H       3.499700    -3.052600     3.097400
C       1.580000    -5.323100     3.910000
H       2.213400    -4.956200     4.515500
C       1.589200    -5.159500     2.525600
H       2.233000    -4.672000     2.025900
C       0.491700    -5.833100     2.012400
H       0.252200    -5.886500     1.094000
C      -0.205000    -6.425700     3.079400
H      -1.000700    -6.940800     3.018600
C       0.497500    -6.110400     4.256600
H       0.267200    -6.389500     5.134500
C      -1.545400    -3.476400     1.046700
H      -0.958100    -3.535000     0.301600
C      -1.827600    -2.313600     1.796300
H      -1.483300    -1.443600     1.632000
C      -2.694700    -2.665000     2.813800
H      -3.028700    -2.084500     3.489100
C      -2.999900    -4.043200     2.676400
H      -3.590700    -4.541000     3.230200
C      -2.294000    -4.537600     1.602700
H      -2.309000    -5.435100     1.289800
