96
Refcode: LULNIQ_comp_0 | Dataset: tmCAT | Charge: 1 | Potential Spins: [1, 3, 5]
Pd      9.323200     5.096500    10.734500
S      11.042900     5.301000     9.124100
P       7.787700     4.414400    12.267100
C       6.605000     5.705300    12.781000
C       8.669500     2.627000     7.337000
H       9.231100     2.159200     6.763200
N      10.486300     5.976100    12.320100
C      11.382000     7.083700    12.007700
C       8.646800     3.897500    13.792000
C       6.257300     6.708900    11.865300
H       6.620500     6.694900    11.009200
C       8.378700     4.136700     9.224500
C      13.356100     5.419300    11.937400
H      12.626900     4.777700    11.806700
C       6.451000     3.251900     8.047400
H       5.528100     3.211300     7.937700
C       6.802400     2.948800    11.829000
C       5.394600     0.729400    10.911600
H       4.928100    -0.003200    10.576700
C       6.046300     5.741700    14.064200
H       6.258100     5.080400    14.683000
C      10.718000     6.538700     7.771300
C      10.825400     8.368100    11.873100
C       9.851400     4.499200    14.220400
C       9.319600     8.578900    11.962900
H       8.892100     7.792400    11.564900
C      12.758900     6.827700    11.865300
C      10.439600     4.072200    15.415500
H      11.227400     4.475100    15.704300
C       9.204500     3.452900     8.326700
C       4.698900     1.834800    11.377200
H       3.769600     1.832700    11.386200
C       5.407400     2.956200    11.838300
H       4.946600     3.702100    12.147700
C       8.078100     2.907100    14.597800
H       7.273700     2.518500    14.342000
C       6.788100     0.708200    10.940100
H       7.247000    -0.050600    10.662300
C       7.489500     1.817700    11.384200
H       8.419300     1.809700    11.386200
C      11.704900     9.433600    11.674600
H      11.369900    10.298900    11.599500
C       8.819100     9.807500    11.190900
H       7.867400     9.881000    11.287100
H       9.040700     9.713400    10.261200
H       9.238200    10.597800    11.540900
C       8.853800     8.659700    13.418300
H       7.902800     8.788200    13.442400
H       9.288300     9.397200    13.852400
H       9.078700     7.843600    13.870400
C       5.380400     7.719700    12.221300
H       5.154100     8.375500    11.601000
C       8.689500     2.492200    15.768900
H       8.298300     1.823000    16.282500
C      13.583400     7.934400    11.653500
H      14.500000     7.805400    11.555900
C       7.279100     2.511500     7.216800
H       6.912500     1.939900     6.581500
C       6.992500     4.055200     9.043300
H       6.426600     4.544700     9.595900
C       9.876500     3.065800    16.175900
H      10.294400     2.777900    16.956900
C      14.389600     5.183500    10.835000
H      14.739700     4.292600    10.910100
H      15.105200     5.815800    10.925100
H      13.972600     5.292400     9.977400
C       5.165300     6.773800    14.415600
H       4.796200     6.797100    15.270200
C       4.840100     7.759700    13.497900
H       4.261000     8.445900    13.738200
C      13.075200     9.220000    11.584500
H      13.651500     9.941500    11.477800
C      13.988100     5.134100    13.305700
H      14.347000     4.243100    13.313200
H      13.318300     5.214400    13.990600
H      14.692900     5.764300    13.470900
C      10.713800     3.643100     8.409400
H      11.100700     3.588800     7.511200
C      12.007700     6.637800     6.952500
H      12.739400     6.862900     7.532200
H      11.910000     7.317500     6.281100
H      12.184200     5.794400     6.528900
C      10.435800     7.852100     8.519000
H       9.624000     7.767100     9.022100
H      10.346300     8.567800     7.885200
H      11.163200     8.043000     9.115300
C      10.557700     5.590500    13.543100
H      11.143100     6.074800    14.077700
C      11.409200     2.626600     9.333000
H      12.353200     2.794400     9.339100
H      11.244600     1.736600     9.010100
H      11.061200     2.712900    10.223700
C       9.537800     6.186800     6.866900
H       8.736000     6.128900     7.392500
H       9.701500     5.340500     6.441800
H       9.432900     6.866500     6.197000
