85
Refcode: LUNHAD_comp_0 | Dataset: tmCAT | Charge: 0 | Potential Spins: [1, 3, 5]
Ni     12.772200    11.013700     3.704300
Cl     11.872100    12.623400     2.464200
Cl     14.732800    12.045100     3.825100
N      14.397600     9.850300     6.386000
N      15.010900     8.649500     4.510300
N       9.471100    10.555600     4.175400
N      10.110600     9.743900     2.112000
P      13.603600     9.462900     4.949700
P      10.921600     9.914300     3.582400
Si     15.888100     9.042500     5.958500
Si      8.644000    10.524300     2.641600
C      17.391000    10.112200     5.724300
H      18.060600     9.621400     5.242500
H      17.737100    10.369400     6.581500
H      17.150700    10.897400     5.228000
C      16.281200     7.593500     7.052500
H      15.531300     6.994000     7.070500
H      16.464000     7.903100     7.942200
H      17.050700     7.133100     6.709600
C       7.129000     9.454300     2.557200
H       7.306200     8.613500     2.983100
H       6.894300     9.304500     1.638600
H       6.401400     9.893700     3.004700
C       8.257800    12.194600     1.918300
H       7.564500    12.613000     2.432600
H       7.965000    12.091100     1.010600
H       9.047500    12.742200     1.940000
C      14.009600    10.683100     7.555500
C      13.303800    11.955900     7.108400
H      13.891300    12.468600     6.549000
H      13.063000    12.475800     7.880800
H      12.512600    11.727800     6.617600
C      13.141400     9.889200     8.517900
H      12.318500     9.652800     8.084700
H      12.954200    10.422400     9.293900
H      13.605200     9.090400     8.783100
C      15.298700    11.071000     8.281500
H      15.772600    10.276800     8.535900
H      15.083300    11.581600     9.064700
H      15.848700    11.598000     7.696800
C      12.295800     8.220500     5.335200
H      12.693800     7.336700     5.365200
H      11.922800     8.409300     6.209700
C      11.176600     8.234400     4.296800
H      10.352600     7.935100     4.711900
H      11.393500     7.612900     3.584000
C      15.402900     7.986500     3.242200
C      15.694500     9.029600     2.166500
H      14.929000     9.597900     2.055500
H      15.889800     8.589100     1.337200
H      16.449500     9.560100     2.430800
C      14.314000     7.031300     2.779100
H      14.146000     6.380500     3.464900
H      14.599600     6.585000     1.977900
H      13.510800     7.525300     2.602300
C      16.659300     7.153800     3.531700
H      17.371600     7.733900     3.807800
H      16.920000     6.680200     2.737600
H      16.470800     6.524000     4.231900
C       9.167700    11.226900     5.457900
C       7.644200    11.247800     5.612400
H       7.254000    11.719800     4.872500
H       7.411700    11.688600     6.431700
H       7.312000    10.347100     5.628600
C       9.694600    12.653400     5.451800
H      10.648200    12.641500     5.339900
H       9.476400    13.079200     6.283700
H       9.292900    13.140700     4.728100
C       9.776000    10.437100     6.607800
H       9.423100     9.544800     6.605000
H       9.559600    10.864700     7.440500
H      10.730000    10.404300     6.503900
C      10.547900     9.186900     0.811400
C      12.023100     9.500600     0.570300
H      12.161800    10.448200     0.620800
H      12.279400     9.184200    -0.299600
H      12.556600     9.062500     1.239800
C      10.304800     7.667900     0.779600
H      10.907700     7.235400     1.387800
H      10.455500     7.338100    -0.110100
H       9.399700     7.484500     1.039500
C       9.710700     9.858800    -0.281500
H       8.782400     9.656300    -0.142600
H       9.985600     9.533200    -1.140500
H       9.838900    10.810500    -0.243600
