49
Refcode: LURMUH_comp_0 | Dataset: tmCAT | Charge: 0 | Potential Spins: [1, 3, 5]
Pd      3.722100     8.347100     2.955000
Br      2.250500     6.547300     2.210600
Br      5.117700    10.242000     3.701900
O       6.925300     6.673600     1.094900
N       3.900100     7.420300     4.910600
N       5.328600     7.233700     2.632900
N       0.946600     9.688500     3.403000
C       3.167800     7.552100     5.993700
H       2.452900     8.162700     5.979700
C       3.400700     6.826000     7.163600
H       2.862900     6.956800     7.924400
C       4.415000     5.933000     7.182400
H       4.572400     5.424800     7.957200
C       5.243200     5.750600     6.051200
C       6.317700     4.839600     5.999600
H       6.524000     4.304500     6.745100
C       7.048700     4.743900     4.863700
H       7.766100     4.137700     4.840200
C       6.777000     5.519100     3.710200
H       7.307600     5.417500     2.941200
C       5.726900     6.431400     3.712500
C       4.944300     6.531700     4.902400
C       5.896700     7.270700     1.400800
C       5.114000     8.096700     0.363400
C       3.992600     8.935300     0.987000
H       3.161700     8.807000     0.484100
H       4.229100     9.885400     0.953000
C       4.547000     7.104200    -0.650600
H       3.925500     6.507300    -0.206300
H       5.270500     6.587900    -1.037400
H       4.084200     7.588100    -1.352800
C       6.099100     9.035100    -0.349300
H       6.464400     9.666000     0.290700
H       5.635400     9.517900    -1.050300
H       6.818400     8.513700    -0.737300
C       2.015400     9.337100     3.234200
C      -0.509300     9.877700     3.560100
C      -0.975400     8.782500     4.487400
H      -0.589300     8.916600     5.366600
H      -0.692700     7.921900     4.138000
H      -1.942400     8.803200     4.551900
C      -1.110900     9.716800     2.173400
H      -0.937600     8.820500     1.847500
H      -0.710700    10.362400     1.570800
H      -2.068500     9.865500     2.217900
C      -0.741500    11.258000     4.114600
H      -0.356100    11.319700     5.003200
H      -1.694700    11.431500     4.163800
H      -0.322800    11.914200     3.535500
