72
Refcode: LUVLOE_comp_0 | Dataset: tmCAT | Charge: unknown | Potential Spins: [1, 3, 5]
Ru      3.559600     5.462700    11.154300
Cl      5.531800     3.908100    10.709400
N       2.419900     3.668400    11.854900
N       2.613300     4.732200     9.253600
N       1.508900     5.201600     7.161500
N       3.580700     6.001000     7.518500
C       2.242800     2.787000    10.658700
H       3.139700     2.435400    10.389800
C       1.328800     1.590200    10.984800
H       0.444300     1.715000    10.557300
H       1.728600     0.755100    10.633700
C       1.165900     1.491300    12.503100
H       0.681200     0.651100    12.746300
C       0.375200     2.720000    12.972300
H       0.339800     2.743100    13.962800
H      -0.552100     2.679000    12.628800
C       1.077800     3.980200    12.441900
H       0.510100     4.402400    11.750300
H       1.188900     4.628200    13.181200
C       3.184900     2.905900    12.883300
H       3.219500     3.435200    13.718900
H       4.113800     2.776700    12.567100
C       2.553800     1.527000    13.182100
H       2.399200     1.481800    14.168500
C       3.402100     0.341300    12.812800
H       3.004700    -0.508300    12.960800
C       4.602500     0.317200    12.318200
H       5.060800     1.131100    12.144000
H       5.022100    -0.514600    12.132200
C       1.694900     3.622800     9.522400
H       1.597000     3.064500     8.712100
H       0.803000     3.977100     9.764000
C       2.559600     5.275200     8.076200
C       1.792000     6.114200     6.045800
H       1.312300     6.972200     6.155700
H       1.534400     5.708800     5.180200
C       3.287700     6.312700     6.129300
H       3.764900     5.697300     5.518100
H       3.537000     7.245300     5.911900
C       0.113500     5.237300     7.601700
H      -0.135800     4.363500     7.968700
H      -0.464900     5.446300     6.837400
H       0.005800     5.924100     8.291900
C       4.965400     5.704600     7.818500
H       5.057500     5.504000     8.773800
H       5.522400     6.478600     7.592600
H       5.255000     4.929600     7.292900
C       3.365100     7.567700    10.850600
C       2.542300     7.162300    11.958600
C       3.430900     6.637200    12.956400
C       4.743200     6.661400    12.470400
C       4.734200     7.258200    11.186700
C       2.892000     8.298600     9.660500
H       2.008400     7.963600     9.399600
H       3.523100     8.163100     8.923600
H       2.831100     9.254300     9.866800
C       1.086000     7.479500    12.137200
H       0.989800     8.398400    12.461300
H       0.694400     6.859800    12.787500
H       0.623700     7.387000    11.277200
C       3.056600     6.246500    14.380000
H       3.522200     5.419000    14.623900
H       2.089000     6.105800    14.435900
H       3.319800     6.962800    14.994100
C       5.957600     6.193000    13.236700
H       6.302300     6.929200    13.783600
H       6.649500     5.902100    12.605300
H       5.709100     5.443100    13.815900
C       5.979000     7.628600    10.412500
H       6.480900     8.310200    10.907000
H       5.724800     7.982500     9.534800
H       6.539300     6.832500    10.292900
