45
Refcode: LUXFEP_comp_0 | Dataset: tmCAT | Charge: 0 | Potential Spins: [1, 3, 5]
Fe      7.118500     1.710200    11.321300
Cl      6.056300     0.160200     9.774200
N       8.854000     2.008300    10.011000
N       8.248900     3.470700    12.222400
C       8.996400     1.565400     8.749100
H       8.283100     1.122600     8.347500
C      10.163800     1.743900     8.023000
H      10.232100     1.430800     7.150500
C      11.233000     2.399200     8.626800
H      12.028800     2.531400     8.163400
C      11.094900     2.850200     9.920400
H      11.802500     3.278500    10.346100
C       9.893300     2.661200    10.584600
C       9.666900     3.133300    11.974900
H       9.943100     2.440600    12.596800
H      10.215000     3.916800    12.139400
C       8.015400     3.687300    13.645900
H       7.091400     3.905400    13.790800
H       8.567800     4.410000    13.953800
H       8.234700     2.888300    14.131900
C       7.858800     4.687300    11.451100
H       8.335800     4.705200    10.607300
H       8.100900     5.482200    11.952200
Cl      8.180700     0.160200    12.868300
N       5.383000     2.008300    12.631500
C       5.240600     1.565400    13.893400
H       5.953900     1.122600    14.295000
C       4.073200     1.743900    14.619500
H       4.004900     1.430800    15.492000
C       3.004000     2.399200    14.015700
H       2.208200     2.531400    14.479100
C       3.142100     2.850200    12.722100
H       2.434500     3.278500    12.296400
C       4.343700     2.661200    12.057900
C       4.570100     3.133300    10.667600
N       5.988100     3.470700    10.420100
C       6.221600     3.687300     8.996600
H       7.145600     3.905400     8.851700
H       5.669200     4.410000     8.688700
H       6.002300     2.888300     8.510600
C       6.378200     4.687300    11.191400
H       5.901200     4.705200    12.035200
H       6.136100     5.482200    10.690300
H       4.293900     2.440600    10.045700
H       4.022000     3.916800    10.503100
