94
Refcode: MAHTOE_comp_0 | Dataset: tmCAT | Charge: unknown | Potential Spins: [1, 3, 5]
Ti      4.103100    13.506800     1.370600
P       4.559600    10.994500     3.578100
N       4.300400    12.161800     2.498400
B       0.499500    12.991900    -0.367600
F       2.806800    12.128800    -2.195100
F       2.573400    11.379300    -4.706000
F       0.137900    11.247400    -5.912400
F      -2.084100    11.949200    -4.500800
F      -1.884000    12.678500    -1.955900
F       1.794000    15.205400    -1.682900
F       0.917900    17.670000    -2.034400
F      -1.514500    18.423200    -1.052900
F      -3.024700    16.614600     0.265900
F      -2.201700    14.144400     0.624600
F      -0.837000    10.237700    -0.758500
F      -1.995900     8.823100     1.124300
F      -2.129300     9.726500     3.687000
F      -1.154300    12.196600     4.277700
F       0.004800    13.668000     2.400300
C       4.002200    15.872400     0.754900
C       5.282900    15.564600     1.117200
C       5.170800    15.196300     2.532400
C       3.825800    15.284200     2.846400
C       3.147400    15.691000     1.777500
C       2.977200    10.769100     4.570400
C       2.398400    12.163600     4.897000
C       3.189000     9.944500     5.880300
C       1.924200    10.039800     3.728000
C       5.997100    11.502100     4.672100
C       7.094600    12.139800     3.792300
C       5.534900    12.601600     5.662600
C       6.601600    10.333000     5.468000
C       4.977300     9.426000     2.625200
C       4.875700     8.130400     3.451400
C       6.395200     9.534100     2.057600
C       4.024300     9.323400     1.415200
C       5.422600    12.927700    -0.187400
C       2.030800    13.008300     0.258800
C       0.469900    12.442100    -1.906000
C       1.548400    12.105000    -2.696500
C       1.456900    11.694500    -4.027900
C       0.245300    11.645000    -4.641800
C      -0.863600    11.996900    -3.927900
C      -0.735600    12.376200    -2.603700
C      -0.115400    14.532900    -0.455100
C       0.585400    15.504100    -1.147500
C       0.150400    16.797800    -1.349200
C      -1.068300    17.167900    -0.867300
C      -1.817200    16.268200    -0.199900
C      -1.360600    14.978200    -0.007100
C      -0.347300    12.051800     0.706700
C      -0.880100    10.805800     0.474700
C      -1.495000    10.019700     1.433000
C      -1.582800    10.479600     2.723300
C      -0.478600    12.462300     2.029100
C      -1.070800    11.723800     3.023100
H       3.743400    16.202300    -0.130300
H       6.102900    15.722200     0.605000
H       5.911100    15.088100     3.165900
H       3.455800    15.209100     3.751200
H       2.190700    15.903600     1.759600
H       3.029800    12.656500     5.427000
H       1.579100    12.062800     5.385900
H       2.228000    12.638200     4.079600
H       3.844900    10.380700     6.429900
H       3.492400     9.061300     5.657200
H       2.358400     9.885900     6.360300
H       2.245600     9.163900     3.503200
H       1.758600    10.536400     2.923200
H       1.109400     9.962900     4.231300
H       6.721900    12.869100     3.292600
H       7.441000    11.480100     3.185500
H       7.805300    12.462300     4.350900
H       5.155600    13.334500     5.173600
H       6.287800    12.911200     6.171200
H       4.874400    12.238700     6.258600
H       5.922900     9.935400     6.015900
H       7.312600    10.659200     6.024800
H       6.948300     9.677000     4.859500
H       3.989500     8.049800     3.813700
H       5.513500     8.157900     4.168800
H       5.060200     7.375500     2.887500
H       6.472700    10.338500     1.538300
H       6.574300     8.775500     1.497300
H       7.027600     9.556100     2.778600
H       3.119400     9.253700     1.725700
H       4.247200     8.544600     0.897700
H       4.115300    10.107600     0.867300
H       5.020900    12.222200    -0.701300
H       6.249100    12.616200     0.191000
H       5.596400    13.680800    -0.756700
H       1.926500    13.473800     1.074300
H       2.602900    13.618500    -0.310500
H       2.400300    12.154400     0.274800
