76
Refcode: MAJKUG_comp_0 | Dataset: tmCAT | Charge: 0 | Potential Spins: [1, 3, 5]
Pd     14.075500     9.754800    11.085200
Cl     15.760300    11.100500    10.182300
Cl     13.380800    11.629900    12.321700
P      14.782500     7.980100     9.792200
P      12.313900     8.751700    12.158300
O      14.714100     7.599600    13.457500
C      13.772700     7.943600     8.273900
C      12.621200     8.717000     8.200100
H      12.350700     9.230000     8.952700
C      11.859400     8.751000     7.036600
H      11.067100     9.274200     7.000500
C      12.258700     8.019800     5.933400
H      11.738500     8.039300     5.138600
C      13.416800     7.257600     5.984500
H      13.690200     6.762300     5.219900
C      14.174900     7.214100     7.148000
H      14.966300     6.689800     7.179600
C      16.484800     8.024700     9.107800
C      16.804000     8.943300     8.111300
H      16.157800     9.585100     7.837400
C      18.067300     8.928900     7.509300
H      18.275400     9.563500     6.833500
C      19.009400     8.001000     7.888600
H      19.864500     7.992600     7.474700
C      18.709000     7.080100     8.874500
H      19.363600     6.446700     9.143900
C      17.457900     7.073400     9.475000
H      17.255700     6.424900    10.138800
C      14.792900     6.308500    10.527100
C      14.352600     5.203700     9.801600
H      13.933500     5.329000     8.958700
C      14.522900     3.921400    10.301400
H      14.214300     3.176200     9.800100
C      15.138700     3.720800    11.523500
H      15.277600     2.839500    11.850200
C      15.553100     4.812200    12.267100
H      15.949700     4.675500    13.119000
C      15.393900     6.106300    11.782400
C      15.836600     7.246100    12.658400
H      16.594500     6.967100    13.230400
H      16.123700     8.015400    12.104500
C      14.869200     8.845800    14.121500
H      15.155700     9.544200    13.480300
H      15.550300     8.773400    14.834900
C      13.528800     9.195100    14.710000
C      13.474200     9.570500    16.046600
H      14.274400     9.585600    16.556800
C      12.280600     9.922100    16.648600
H      12.267400    10.196200    17.559300
C      11.107200     9.871000    15.920100
H      10.281900    10.100600    16.329500
C      11.136600     9.484000    14.585100
H      10.325900     9.444900    14.091400
C      12.338200     9.151000    13.958900
C      10.736300     9.441800    11.522000
C      10.698200    10.568700    10.715300
H      11.507200    11.020700    10.503000
C       9.495300    11.044900    10.217100
H       9.484600    11.809800     9.652600
C       8.302500    10.405900    10.537700
H       7.476800    10.738000    10.206500
C       8.330700     9.287300    11.341400
H       7.517100     8.852300    11.565700
C       9.527100     8.785700    11.827600
H       9.533200     8.003500    12.366400
C      11.951900     6.972100    12.036800
C      11.442900     6.472100    10.817600
H      11.305300     7.061600    10.084600
C      11.146600     5.136000    10.685200
H      10.801300     4.808400     9.863400
C      11.348600     4.265800    11.744800
H      11.153100     3.341200    11.645500
C      11.832500     4.748600    12.939900
H      11.965000     4.151600    13.666900
C      12.128600     6.096700    13.093400
H      12.453400     6.418100    13.927300
