61
Refcode: MAKLIW_comp_0 | Dataset: tmCAT | Charge: unknown | Potential Spins: [1, 3, 5]
Ru     11.267900     1.365400     0.814800
Cl     11.606700    -0.915800     0.050000
Cl     11.026400     2.082600    -1.492900
P      13.594100     1.636100     0.639200
F      15.828800    -1.107800     5.415100
F      15.936000     7.034600    -0.219400
F      16.907400    -0.455500    -3.850800
C      10.189800     0.492700     2.598700
C      15.317000    -0.461100     4.329500
C       9.212800     0.954700     1.655600
H       8.523700     0.371100     1.362600
C       9.273800     2.264800     1.167200
H       8.626500     2.545900     0.530000
C      10.271700     3.191600     1.589900
C      11.235900     2.724000     2.521800
H      11.933200     3.304800     2.805200
C      11.174500     1.393600     3.042200
H      11.805800     1.115200     3.695500
C      10.075700    -0.929700     3.117400
H       9.769100    -1.506700     2.360100
C       8.962800    -0.936200     4.195000
H       9.234700    -0.371100     4.947600
H       8.819000    -1.853700     4.508800
H       8.131800    -0.589200     3.807500
C      11.371200    -1.521600     3.658600
H      12.043300    -1.542900     2.944500
H      11.205600    -2.433600     3.977300
H      11.699300    -0.970500     4.398400
C      10.317400     4.607500     1.068000
H      11.149700     5.035200     1.357800
H       9.551700     5.109400     1.420200
H      10.277600     4.596300     0.088100
C      14.378900     0.865600     2.107100
C      14.645800    -0.495400     2.043100
H      14.484600    -0.968600     1.236100
C      15.144900    -1.171800     3.146300
H      15.364500    -2.094000     3.095000
C      15.025600     0.882300     4.435200
H      15.151800     1.342500     5.255000
C      14.543900     1.547600     3.319200
H      14.323500     2.469800     3.376800
C      14.253700     3.358600     0.566800
C      15.481400     3.720500     1.128800
H      15.940200     3.109100     1.692400
C      16.036800     4.971200     0.867800
H      16.870600     5.220700     1.247300
C      15.357500     5.823800     0.057600
C      14.117300     5.546400    -0.473900
H      13.652000     6.187500    -0.999100
C      13.567600     4.297600    -0.216200
H      12.717200     4.076800    -0.574800
C      14.573300     0.897200    -0.744500
C      15.959600     0.963100    -0.675700
H      16.368100     1.328600     0.099300
C      16.758700     0.509400    -1.710000
H      17.704800     0.565000    -1.660400
C      16.134000    -0.024100    -2.810000
C      14.772900    -0.129900    -2.926900
H      14.381300    -0.525100    -3.695500
C      13.972400     0.361800    -1.881400
H      13.025100     0.329400    -1.950200
