99
Refcode: MAQZOW_comp_0 | Dataset: tmCAT | Charge: 0 | Potential Spins: [1, 3, 5]
Pd      4.293700    14.570400     3.873100
P       3.920900    12.604200     4.958300
Cl      4.582700    16.641400     2.721700
Cl      2.022900    15.125000     4.148000
C       6.310900    14.187300     3.555300
H       6.608400    13.504200     4.222000
C       6.420400    13.305900     0.034000
H       6.136700    13.328000    -0.872700
C       5.882800    13.993400     1.057300
H       5.149800    14.595700     1.007100
C       7.664800    10.363600    -0.616500
C       8.317900    11.681200    -0.261600
H       9.155500    11.499100     0.234800
H       8.562100    12.151300    -1.098500
C       8.276700     9.611500    -1.620000
H       9.036300     9.950800    -2.078700
C       2.881400    12.866700     6.454800
H       1.986600    13.144300     6.105400
C       2.978500    11.430100     3.903000
H       2.997200    10.542800     4.363500
C       5.429900    11.629800     5.424400
H       6.023700    11.662200     4.619800
C       6.236200    12.311400     6.548000
H       6.332000    13.276600     6.345500
H       5.747100    12.224800     7.404600
C       0.820900    10.714700     2.809900
H       0.817100     9.853900     3.300900
H      -0.119100    10.971700     2.639600
C       1.494500    11.792900     3.679000
H       1.030600    11.856100     4.551700
H       1.429400    12.672800     3.229200
C       7.609200    11.685700     6.684200
H       8.097900    12.126300     7.422500
H       8.120000    11.832600     5.849100
N       7.463100    12.564100     0.551900
N       6.588300    13.661400     2.198800
C       7.763500     8.362800    -1.946100
C       7.561000    12.788900     1.860100
C       6.527300     9.884700     0.007200
H       6.098000    10.404700     0.677400
C       8.564100    12.220400     2.766900
C       6.616500     7.876600    -1.326100
H       6.254300     7.032000    -1.569800
C       6.013700     8.649300    -0.340500
H       5.236300     8.324700     0.098600
O       8.280000     7.541700    -2.915600
C       7.086200    15.428600     3.788300
O       7.824300    15.956000     2.958600
C       2.260700    14.284300     8.426000
H       1.440100    14.619200     7.983400
H       2.583400    14.989400     9.040700
C       1.535200    10.534000     1.489200
H       1.469200    11.368400     0.960500
H       1.100800     9.808300     0.974900
C       2.611300    11.609300     7.291700
H       2.315600    10.873300     6.696700
H       3.444700    11.324300     7.741500
C       3.693300    11.252300     2.562600
H       3.698000    12.113100     2.073400
H       4.632400    10.983500     2.722100
C       2.999300    10.188800     1.713200
H       3.457700    10.116800     0.838700
H       3.064200     9.311800     2.168300
C       1.533600    11.881000     8.340000
H       0.678500    12.091100     7.886600
H       1.396900    11.068700     8.890100
C       3.323900    14.012500     7.370500
H       4.177200    13.774500     7.811400
H       3.472300    14.829300     6.831100
C      10.439200    12.567000     4.230900
H      11.057800    13.153200     4.652000
C       8.673300    10.851300     2.972900
H       8.088500    10.249000     2.528500
C       9.469000    13.079700     3.394100
H       9.416900    14.016900     3.245300
C      10.510600    11.220000     4.458500
H      11.165300    10.871800     5.053500
C       9.643800    10.376800     3.831300
H       9.706700     9.442500     3.989000
C       9.477600     7.978000    -3.550000
H       9.312200     8.827000    -4.010500
H       9.767300     7.305200    -4.200500
H      10.177500     8.102800    -2.876200
C       6.979700    16.025000     5.195000
H       7.825500    15.891300     5.671700
H       6.254200    15.581400     5.684200
H       6.789800    16.984200     5.128700
C       1.920900    13.031200     9.234200
H       2.705500    12.771200     9.779000
H       1.173700    13.232500     9.850700
C       5.277200    10.128500     5.750500
H       4.754100    10.022800     6.585600
H       4.784500     9.679000     5.019400
C       7.515500    10.188800     6.961900
H       7.132000    10.044800     7.863300
H       8.424000     9.795100     6.949400
C       6.642400     9.482200     5.919000
H       7.111800     9.489500     5.048100
H       6.521100     8.536200     6.187800
