40
Refcode: MATHAT_comp_0 | Dataset: tmCAT | Charge: 0 | Potential Spins: [1, 3, 5]
Fe      5.131200     0.399200     3.099100
Cl      3.985100     2.499300     2.324100
Cl      3.345000    -1.002200     2.499200
N       6.788100     1.096000     4.418000
N       4.250300     1.004900     5.023100
N       7.781400    -1.329100     3.099700
N       6.434700    -1.435000     3.287500
N       7.965500     0.607100     1.750000
N       6.646900     0.889400     1.554300
C       8.404500    -0.026200     2.985600
H       9.394400    -0.154200     2.939000
C       8.091100     0.830400     4.193500
C       9.095500     1.275300     5.038300
H      10.006800     1.072500     4.862700
C       8.734000     2.026300     6.150000
H       9.401500     2.364000     6.734900
C       7.402700     2.277700     6.399200
H       7.142600     2.788100     7.156200
C       6.442500     1.769500     5.521600
C       4.991100     1.830400     5.788000
C       4.427000     2.613100     6.782900
H       4.967800     3.211400     7.284800
C       3.075100     2.516700     7.039300
H       2.669600     3.047900     7.714600
C       2.320800     1.625400     6.287700
H       1.392800     1.510500     6.457900
C       2.949000     0.906700     5.284100
H       2.425900     0.315400     4.755600
C       8.362100    -2.537500     2.889600
H       9.280000    -2.705600     2.714800
C       7.363600    -3.462000     2.980200
H       7.449000    -4.404200     2.897600
C       6.185900    -2.742600     3.219100
H       5.325900    -3.133500     3.318900
C       8.725400     0.972300     0.693500
H       9.666000     0.869700     0.606900
C       7.871100     1.521300    -0.232100
H       8.095100     1.879000    -1.083900
C       6.610700     1.441100     0.346200
H       5.815500     1.745600    -0.074300
