221
Refcode: MAXWAK_comp_0 | Dataset: tmCAT;tmPHOTO | Charge: 0 | Potential Spins: [1, 3, 5]
Zn     14.142500     3.893100    -7.712300
N      14.971300     4.758500    -6.050000
C      15.842400     5.816400    -6.032900
C      16.176800     6.143600    -4.665200
H      16.754700     6.840000    -4.377500
C      15.509700     5.271900    -3.870300
H      15.529100     5.243000    -2.921400
C      14.763800     4.392200    -4.743500
C      13.967800     3.314200    -4.306400
C      13.198000     2.487800    -5.141500
C      12.302100     1.449800    -4.670100
H      12.154700     1.195600    -3.766700
C      11.715200     0.910800    -5.767400
H      11.072200     0.210900    -5.778000
C      12.252000     1.602000    -6.918200
N      13.147000     2.556000    -6.509000
C      13.964300     3.018800    -2.825300
C      14.950100     2.189800    -2.281600
C      14.927500     1.901500    -0.909000
H      15.597500     1.332500    -0.547600
C      13.969500     2.416200    -0.067900
C      15.038400     1.129400     1.857100
H      14.968400     0.941300     2.816500
H      15.904800     1.548300     1.668900
H      14.965000     0.293100     1.354300
C      13.907400     2.080000     1.438300
C      12.597200     1.360700     1.726000
H      11.844800     1.938500     1.477700
H      12.544000     1.148900     2.682300
H      12.556800     0.531200     1.204700
C      14.001200     3.364200     2.253500
H      13.276900     3.969100     1.991300
H      14.864300     3.795600     2.085400
H      13.921500     3.151400     3.206800
C      13.001300     3.248900    -0.626100
H      12.333300     3.617600    -0.058600
C      12.972500     3.560700    -1.984400
C      11.916900     4.471300    -2.575400
H      11.629900     4.095400    -3.444300
H      12.328500     5.354200    -2.754800
C      10.681200     4.679800    -1.706000
H      10.984700     4.978900    -0.800500
C       9.811200     5.787100    -2.309100
O      10.167700     6.680400    -2.915200
O       8.559000     5.581400    -2.136300
C       7.654800     6.776200    -2.471000
H       7.187700     7.117100    -1.665900
H       8.165900     7.514000    -2.889000
C       6.849800     6.248000    -3.287000
H       6.198300     6.917900    -3.583100
H       6.380300     5.507600    -2.848900
H       7.345200     5.909100    -4.061300
O       9.768800     2.560100    -2.420100
C       9.900600     3.380300    -1.540900
O       9.414100     3.213000    -0.341300
C       8.661500     1.950000    -0.128000
H       7.876400     1.921000    -0.729600
H       9.240400     1.173400    -0.334700
C       8.237000     1.888000     1.223200
H       7.738200     1.056600     1.369700
H       7.659000     2.654900     1.419100
H       9.018500     1.909400     1.812400
C      16.046600     1.572500    -3.128900
H      15.707600     1.450600    -4.052000
H      16.264600     0.677200    -2.767200
C      17.339000     2.419100    -3.178400
H      17.143300     3.294400    -3.620100
O      18.377200     0.566600    -4.336300
C      18.430800     1.696700    -3.957900
O      19.461900     2.524300    -4.176700
C      20.645000     1.967600    -4.814000
H      20.383500     1.319100    -5.514300
H      21.205600     1.499400    -4.146100
C      21.405000     3.111700    -5.420200
H      22.211800     2.770200    -5.859800
H      21.658100     3.744700    -4.716800
H      20.840200     3.564600    -6.080400
O      18.369800     1.838400    -1.086800
C      17.857000     2.670800    -1.779100
O      17.607200     3.919400    -1.393500
C      17.928500     4.239100    -0.001500
H      18.894700     4.435800     0.095600
H      17.700600     3.478900     0.590800
C      17.110000     5.446800     0.354800
H      17.288800     5.699500     1.284900
H      16.158400     5.238100     0.251400
H      17.349300     6.189400    -0.237500
C      16.367900     6.463200    -7.164400
C      17.409700     7.513200    -6.909000
C      17.082600     8.803600    -6.617100
H      16.168800     9.061900    -6.609400
C      18.063800     9.757000    -6.328700
H      17.796600    10.643700    -6.120500
C      19.395700     9.448100    -6.340100
C      20.477500    10.480200    -5.982300
C      20.920600    10.258100    -4.542500
H      20.151600    10.356700    -3.944100
H      21.604800    10.919000    -4.306500
H      21.294100     9.356900    -4.450000
C      21.687200    10.327000    -6.888600
H      21.417000    10.469600    -7.820300
H      22.056800     9.425200    -6.789900
H      22.366800    10.988100    -6.640300
C      19.964600    11.913800    -6.117400
H      19.678900    12.072700    -7.041300
H      20.680700    12.539800    -5.884500
H      19.204000    12.047200    -5.512700
C      19.717600     8.148200    -6.641800
H      20.631800     7.892100    -6.658800
C      18.746100     7.195200    -6.921000
H      19.011100     6.305300    -7.123100
N      13.313700     3.027700    -9.374600
C      12.442600     1.969900    -9.391700
C      12.108200     1.642600   -10.759400
H      11.530200     0.946200   -11.047100
C      12.775300     2.514300   -11.554200
H      12.755900     2.543300   -12.503200
C      13.521200     3.394100   -10.681000
C      14.317200     4.472100   -11.118200
C      15.087000     5.298500   -10.283100
C      15.982900     6.336500   -10.754500
H      16.130300     6.590600   -11.657900
C      16.569800     6.875500    -9.657200
H      17.212800     7.575400    -9.646500
C      16.033000     6.184300    -8.506300
N      15.138000     5.230200    -8.915600
C      14.320700     4.767400   -12.599200
C      13.334900     5.596400   -13.143000
C      13.357500     5.884800   -14.515600
H      12.687500     6.453700   -14.877000
C      14.315500     5.370100   -15.356700
C      13.246600     6.656900   -17.281700
H      13.316600     6.845000   -18.241100
H      12.380200     6.238000   -17.093500
H      13.320000     7.493200   -16.778800
C      14.377600     5.706300   -16.862900
C      15.687800     6.425600   -17.150600
H      16.440100     5.847800   -16.902200
H      15.741000     6.637400   -18.106900
H      15.728200     7.255100   -16.629200
C      14.283800     4.422100   -17.678100
H      15.008100     3.817100   -17.415900
H      13.420700     3.990700   -17.510000
H      14.363500     4.634900   -18.631300
C      15.283700     4.537400   -14.798500
H      15.951700     4.168600   -15.366000
C      15.312500     4.225600   -13.440200
C      16.368100     3.314900   -12.849100
H      16.655100     3.690900   -11.980300
H      15.956400     2.432000   -12.669700
C      17.603800     3.106400   -13.718600
H      17.300300     2.807300   -14.624000
C      18.473700     1.999200   -13.115500
O      18.117300     1.105900   -12.509300
O      19.726000     2.204900   -13.288300
C      20.630200     1.010000   -12.953500
H      21.097300     0.669100   -13.758700
H      20.119100     0.272200   -12.535500
C      21.435200     1.538300   -12.137600
H      22.086700     0.868300   -11.841400
H      21.904700     2.278700   -12.575600
H      20.939800     1.877100   -11.363300
O      18.516200     5.226200   -13.004400
C      18.384400     4.405900   -13.883600
O      18.870900     4.573300   -15.083200
C      19.623500     5.836300   -15.296500
H      20.408500     5.865300   -14.695000
H      19.044600     6.612900   -15.089900
C      20.048000     5.898300   -16.647700
H      20.546800     6.729700   -16.794300
H      20.625900     5.131300   -16.843600
H      19.266500     5.876900   -17.237000
C      12.238400     6.213800   -12.295700
H      12.577300     6.335700   -11.372500
H      12.020400     7.109000   -12.657400
C      10.946000     5.367200   -12.246200
H      11.141600     4.491900   -11.804400
O       9.907800     7.219700   -11.088300
C       9.854200     6.089500   -11.466600
O       8.823100     5.262000   -11.247900
C       7.639900     5.818700   -10.610600
H       7.901500     6.467100    -9.910300
H       7.079400     6.286900   -11.278400
C       6.880000     4.674600   -10.004400
H       6.073200     5.016000    -9.564800
H       6.626900     4.041600   -10.707700
H       7.444800     4.221600    -9.344200
O       9.915200     5.947900   -14.337700
C      10.428000     5.115500   -13.645500
O      10.677800     3.866900   -14.031100
C      10.356500     3.547100   -15.423000
H       9.390300     3.350400   -15.520200
H      10.584400     4.307400   -16.015300
C      11.175000     2.339400   -15.779300
H      10.996200     2.086800   -16.709400
H      12.126600     2.548100   -15.676000
H      10.935700     1.596800   -15.187000
C      11.917000     1.323100    -8.260200
C      10.875200     0.273000    -8.515600
C      11.202400    -1.017400    -8.807400
H      12.116200    -1.275600    -8.815100
C      10.221200    -1.970700    -9.095900
H      10.488400    -2.857500    -9.304100
C       8.889200    -1.661800    -9.084500
C       7.807500    -2.693900    -9.442300
C       7.364300    -2.471800   -10.882000
H       8.133400    -2.570500   -11.480500
H       6.680200    -3.132800   -11.118000
H       6.990900    -1.570600   -10.974600
C       6.597800    -2.540700    -8.536000
H       6.867900    -2.683300    -7.604300
H       6.228200    -1.638900    -8.634700
H       5.918200    -3.201800    -8.784300
C       8.320400    -4.127500    -9.307200
H       8.606100    -4.286400    -8.383300
H       7.604300    -4.753500    -9.540100
H       9.081000    -4.260900    -9.911800
C       8.567400    -0.361900    -8.782700
H       7.653200    -0.105800    -8.765800
C       9.538900     0.591100    -8.503600
H       9.273900     1.481000    -8.301500
