60
Refcode: MAZWOZ_comp_0 | Dataset: tmCAT | Charge: 0 | Potential Spins: [1, 3, 5]
Fe      0.845800    -0.032300     3.197900
Br      1.540700    -2.035100     1.967700
Br      2.492600     1.017900     4.615900
N      -1.145000     0.617000     2.946700
C      -2.088400     0.120000     3.743400
C      -3.426800     0.593900     3.624500
H      -4.086600     0.286500     4.203100
C      -3.728100     1.501300     2.654200
H      -4.604900     1.789300     2.541500
C      -2.727600     1.994000     1.837600
H      -2.923900     2.628900     1.187100
C      -1.428000     1.534600     1.996200
C      -1.634900    -0.802900     4.779300
H      -2.220200    -1.193700     5.386500
N      -0.366000    -1.041200     4.794200
C      -0.269700     1.994800     1.261400
H      -0.355400     2.644500     0.602200
N       0.864900     1.497600     1.529100
C       0.167700    -1.797100     5.899500
C       1.027000    -2.821200     5.594700
H       1.193900    -3.036300     4.706200
C       1.649100    -3.538200     6.607000
H       2.209300    -4.246400     6.385200
C       1.458600    -3.229900     7.900700
H       1.877200    -3.710600     8.577300
C       0.608900    -2.163000     8.194400
H       0.482600    -1.933900     9.086500
C      -0.062000    -1.420200     7.215500
C      -1.978700    -0.578700     8.501700
H      -2.077700    -1.434400     8.853600
C      -2.863100     0.429900     8.869700
H      -3.552300     0.248500     9.466900
C      -2.715500     1.708100     8.344300
H      -3.306600     2.382500     8.589600
C      -1.685100     1.978500     7.452100
H      -1.587000     2.834200     7.100200
C      -0.801600     0.969900     7.084100
H      -0.112400     1.151300     6.486800
C      -0.948200    -0.308400     7.609500
C       2.006100     2.027300     0.827700
C       2.830300     1.107200     0.208200
H       2.651300     0.197600     0.272600
C       3.944300     1.566200    -0.524200
H       4.500800     0.958700    -0.955400
C       4.201200     2.870700    -0.598500
H       4.931900     3.165500    -1.094200
C       3.391800     3.805600     0.052000
H       3.609300     4.708700     0.009900
C       2.275300     3.403300     0.755900
C       0.782800     5.395300     0.705100
H       0.836900     5.380200    -0.223000
C       0.042600     6.385000     1.342000
H      -0.398600     7.031800     0.840100
C      -0.038300     6.407700     2.729800
H      -0.533900     7.070800     3.156100
C       0.620800     5.442000     3.480700
H       0.566700     5.457100     4.408800
C       1.361000     4.452300     2.843800
H       1.802000     3.806700     3.345600
C       1.441900     4.429600     1.456000
