106
Refcode: MECXEY_comp_0 | Dataset: tmCAT | Charge: 1 | Potential Spins: [1, 3, 5]
C      -3.468100     2.235300     4.967700
H      -3.437600     1.400500     4.516100
C      -3.160200     2.449100     6.334700
H      -2.889000     1.785400     6.958200
C      -3.326000     3.817400     6.600100
H      -3.197000     4.238500     7.441100
C      -3.718000     4.462800     5.407700
H      -3.880700     5.393500     5.301200
C      -3.826300     3.472000     4.394000
H      -4.092300     3.615800     3.493000
C       1.165800     0.033400     4.448300
H       0.912700    -0.468400     3.645900
H       1.090800    -0.547500     5.233400
H       2.091000     0.345700     4.359700
C       0.280600     1.179900     4.606400
C      -2.558700     5.598300     2.349600
C      -3.182000     6.647300     3.046300
H      -2.858500     6.901200     3.902900
C      -4.253100     7.308300     2.502800
H      -4.662800     8.019400     2.980600
C      -4.736800     6.940800     1.262400
H      -5.493100     7.386100     0.898000
C      -4.130600     5.934600     0.556500
H      -4.457500     5.694800    -0.302200
C      -3.029800     5.260700     1.095700
H      -2.606900     4.570500     0.599200
C      -0.592800     3.641800     1.770300
C       0.247000     4.069800     0.745000
H       0.614600     4.944600     0.774700
C       0.551000     3.242800    -0.310000
H       1.148900     3.538300    -0.986600
C      -0.012700     1.977700    -0.391200
H       0.184500     1.412600    -1.129000
C      -0.862100     1.542900     0.607600
H      -1.256100     0.681100     0.547100
C      -1.144400     2.347300     1.691100
H      -1.710200     2.028300     2.384800
C       0.129200     6.053400     3.041900
C      -0.082300     7.347100     2.734300
H      -0.955600     7.641700     2.506400
C       1.009900     8.285300     2.750300
C       0.801500     9.667500     2.569800
H      -0.075600     9.999900     2.423000
C       1.862100    10.530200     2.603700
H       1.707200    11.459400     2.483800
C       3.161000    10.076400     2.812800
H       3.886800    10.691500     2.820800
C       3.389500     8.730100     3.006500
H       4.273700     8.413200     3.152600
C       2.316600     7.833300     2.986700
C       2.540700     6.403300     3.263700
C       0.143800     6.364000     6.348000
C       1.390000     6.952100     6.331900
H       2.170800     6.412400     6.385000
C       1.509200     8.346400     6.235800
H       2.369300     8.749300     6.211300
C       0.380800     9.128400     6.177800
H       0.467700    10.072300     6.117500
C      -0.878200     8.558300     6.206100
H      -1.652100     9.107800     6.176600
C      -1.003700     7.175200     6.275300
H      -1.866200     6.776900     6.273900
C      -0.527100     4.380400     8.279200
C      -0.455800     5.439100     9.170800
H      -0.222200     6.304700     8.856700
C      -0.724000     5.245000    10.528000
H      -0.661900     5.976000    11.130400
C      -1.078100     3.998300    10.998400
H      -1.272000     3.872400    11.919000
C      -1.150400     2.924900    10.112500
H      -1.390700     2.062700    10.432100
C      -0.869500     3.111100     8.757200
H      -0.909700     2.373300     8.158500
C       1.562100     3.790100     6.452600
C       2.180600     3.247900     7.568600
H       1.779500     3.323600     8.426000
C       3.397700     2.592700     7.413700
H       3.825400     2.205700     8.168900
C       3.983700     2.503400     6.172800
H       4.816000     2.064200     6.049800
C       3.304000     3.085600     5.104000
C       4.230200     1.962700     3.123200
C       4.542700     2.087600     1.636200
C       4.484200     3.519400     1.115100
H       3.565000     3.852200     1.175900
H       4.777300     3.539000     0.180600
H       5.073300     4.087300     1.653600
C       5.920200     1.472400     1.368700
H       6.611900     2.025100     1.789100
H       6.078000     1.431200     0.401200
H       5.953200     0.567100     1.742200
C       3.471300     1.266300     0.899700
H       3.567900     0.319300     1.130800
H       3.581600     1.379100    -0.067700
H       2.580700     1.579100     1.163800
N      -0.390900     2.084900     4.738200
N       1.422500     5.623000     3.305800
H       1.530000     4.775400     3.517300
N       2.115700     3.700700     5.236200
N       3.821200     3.088100     3.789700
H       3.884500     3.860700     3.373200
O       3.668100     5.912500     3.473700
O       4.281700     0.866400     3.685600
P      -1.143000     4.729200     3.130200
P      -0.138500     4.556500     6.498600
Ru     -1.719000     3.602700     5.094600
