37
Refcode: MEDCIK_comp_0 | Dataset: tmCAT | Charge: -1 | Potential Spins: [1, 3, 5]
Co     15.665400     3.370100     2.884200
O      11.983400     4.638500     1.980100
C      14.737400     5.671600     1.622600
C      16.139700     5.833200     1.659800
N      14.242800     2.244900     3.413400
N      17.288500     2.538300     3.387500
C      19.579800     3.114900     3.887400
H      20.261900     3.776200     3.906800
N      14.302900     4.486100     2.243800
C      13.045400     4.058000     2.348900
C      13.002200     2.719300     2.978200
C      14.200500     1.066600     4.081500
H      15.018100     0.728400     4.427700
C      13.068200     0.330400     4.295000
H      13.106900    -0.473900     4.799800
C      11.850100     0.771300     3.759600
H      11.062800     0.241500     3.813000
C      11.847700     2.017100     3.149700
H      11.026900     2.386800     2.845600
C      13.965900     6.621500     0.959300
H      13.021100     6.528700     0.935000
C      18.347900     3.437300     3.377800
C      17.600900     1.281800     3.785500
H      16.931200     0.612400     3.714300
C      18.837200     0.914700     4.288600
H      18.992900     0.023200     4.579800
C      19.843100     1.860900     4.364600
H      20.690800     1.647000     4.738300
N      16.775100     4.760600     2.324700
C      18.053900     4.746000     2.776000
O      18.897300     5.660200     2.703200
C      15.964400     7.841800     0.349400
H      16.378500     8.566900    -0.103500
C      16.748200     6.916900     1.030500
H      17.691500     7.022700     1.064500
C      14.573400     7.713700     0.326800
H      14.041800     8.364400    -0.114900
