94
Refcode: MEFBUV_comp_0 | Dataset: tmCAT | Charge: unknown | Potential Spins: [1, 3, 5]
W       5.846000     2.357100    12.142500
P       4.149500     2.577400    10.376500
P       5.629800     4.614500    11.013000
Si      3.351200     5.287900     8.663300
O       5.409600    -0.627500    12.993100
O       8.295500     3.089300    13.967800
O       3.980800     2.887500    14.633300
O       8.031200     1.297100    10.100500
C       4.339400     4.157800     9.840000
C       5.610300     0.458800    12.718100
C       7.397300     2.797400    13.330300
C       4.601800     2.773200    13.721700
C       7.236000     1.700100    10.775000
C       4.462600     6.514100     7.826500
C       2.104400     6.267900     9.656900
C       2.458300     4.327000     7.330600
C       5.035200     6.139900    11.845300
C       5.419200     7.424000    11.460300
C       4.890000     8.531200    12.046400
C       3.914700     8.406600    13.038200
C       3.506300     7.136300    13.444000
C       4.083800     6.028300    12.839800
C       7.127700     5.143600    10.121300
C       7.309200     4.888000     8.773300
C       8.535000     5.204100     8.160100
C       9.569200     5.723900     8.872500
C       9.376800     5.998800    10.243000
C       8.167600     5.694200    10.856200
C       2.826300     1.646200     9.497300
C       1.477900     1.718100    10.024800
C       0.457800     1.375600     9.130300
C       0.676100     0.973000     7.820200
C       1.987000     0.715100     7.446900
C       3.083000     1.016100     8.256600
C       1.114300     1.973500    11.509900
C       1.417200     3.387200    11.980500
C      -0.379900     1.790000    11.784900
C       1.860700     0.948900    12.361000
C      -0.507300     0.736600     6.868000
C      -1.495200     1.850500     7.042100
C      -1.167800    -0.605400     7.231400
C      -0.059200     0.728000     5.392000
C       4.496300     0.567800     7.780500
C       4.418700    -0.257000     6.474000
C       5.129400    -0.354600     8.845400
C       5.443600     1.746400     7.483900
H       5.123100     6.050800     7.302700
H       4.912700     7.049200     8.471200
H       3.960900     7.076700     7.246800
H       2.548500     6.793700    10.311500
H       1.598600     6.829200     9.085300
H       1.505000     5.664200    10.105100
H       1.927700     4.917600     6.801300
H       1.855900     3.690300     7.746300
H       3.064000     3.862900     6.788700
H       6.075500     7.518800    10.756100
H       5.188100     9.390200    11.806500
H       3.529900     9.195600    13.424100
H       2.846400     7.023900    14.138200
H       3.815500     5.150500    13.111200
H       6.607800     4.490100     8.283700
H       8.642800     5.057700     7.222400
H      10.396700     5.922300     8.453200
H      10.085800     6.344300    10.746100
H       8.043600     5.882400    11.775000
H      -0.446400     1.433400     9.446800
H       2.148300     0.304800     6.600300
H       2.334500     3.571100    11.861500
H       0.893700     4.006300    11.487300
H       1.195800     3.462000    12.909300
H      -0.866200     2.461900    11.287200
H      -0.553800     1.921900    12.706400
H      -0.657400     0.941800    11.509000
H       1.677700     1.088900    13.279800
H       1.584400     0.068500    12.115800
H       2.798200     1.028700    12.208700
H      -1.095100     2.703400     6.849100
H      -1.816900     1.887900     7.952800
H      -2.254200     1.743600     6.471300
H      -1.454200    -0.603600     8.114200
H      -1.881300    -0.784700     6.633600
H      -0.504600    -1.313100     7.114200
H      -0.809300     0.610300     4.816700
H       0.570100     0.037000     5.233300
H       0.354500     1.571400     5.175600
H       4.049200     0.253600     5.781500
H       3.879500    -1.035900     6.628200
H       5.298600    -0.547100     6.233300
H       4.579100    -1.120300     8.967100
H       5.991700    -0.620900     8.566800
H       5.192300     0.119000     9.670400
H       6.309500     1.426500     7.248600
H       5.522400     2.304100     8.255700
H       5.104500     2.273600     6.761700
