43
Refcode: MEFWAY_comp_0 | Dataset: tmCAT | Charge: unknown | Potential Spins: [1, 3, 5]
Ru      2.611000     7.436400     9.503500
Cl      2.483100     5.052800     9.880200
Cl      1.844200     7.078400     7.238600
O      -3.264200    12.042200    11.455700
O      -3.382400    12.146600     9.356800
N       0.483500     7.244900     9.945100
H       0.122900     6.733000     9.299100
H       0.411600     6.784600    10.714400
N      -2.955700    11.649700    10.380500
C       3.698800     9.808300     7.396800
H       2.788900    10.032200     7.187700
H       4.041600     9.208400     6.730500
H       4.229300    10.608300     7.410900
C       3.755000     9.149200     8.742000
C       4.634900     8.066300     8.991600
H       5.085500     7.638600     8.234800
C       4.651600     7.428600    10.230700
H       5.115800     6.569500    10.308700
C       3.793200     7.841100    11.305900
C       2.920300     8.912800    11.045300
H       2.194300     9.095200    11.677300
C       2.910600     9.564300     9.789100
H       2.171900    10.173100     9.583100
C       3.823500     7.119100    12.632300
H       4.139600     6.206000    12.468500
C       4.843200     7.809700    13.539000
H       5.694000     7.844900    13.095800
H       4.928500     7.315400    14.358200
H       4.545800     8.701500    13.734000
C       2.482200     7.027300    13.334500
H       2.135900     7.910300    13.482800
H       2.592400     6.582100    14.178800
H       1.868200     6.530500    12.789900
C      -0.330400     8.404600    10.068400
C      -0.668400     8.917800    11.310600
H      -0.318900     8.530400    12.079900
C      -1.509800     9.990700    11.415100
H      -1.748200    10.329100    12.248400
C      -1.995500    10.555500    10.265000
C      -1.653000    10.086300     9.016600
H      -1.983900    10.492600     8.248800
C      -0.807100     9.000800     8.926100
H      -0.559900     8.671300     8.092800
