72
Refcode: MEHHAL_comp_0 | Dataset: tmCAT | Charge: 0 | Potential Spins: [1, 3, 5]
Br     -1.161800     2.792400     4.601200
Br      0.453400     6.544800     3.874800
Ni      0.637200     4.265800     4.336900
N       2.013300     3.960700     5.828700
N       1.962800     3.223200     3.283300
C       4.899300     2.058400     5.014500
C       4.265000     2.832900     6.056200
C       2.972500     3.311500     5.382100
C       3.025100     2.847300     3.950500
C       4.200400     2.074800     3.771600
C       4.694200     1.304500     2.696600
H       4.241100     1.290100     1.861500
C       5.933000     0.523800     2.899100
H       6.280700    -0.022600     2.204100
C       6.566700     0.599900     4.108700
H       7.366500     0.102700     4.237700
C       6.074400     1.394900     5.176800
C       6.659900     1.540700     6.452900
H       7.490800     1.115500     6.626300
C       6.069700     2.282300     7.460000
H       6.499500     2.339800     8.304700
C       4.864900     2.941800     7.267200
H       4.471600     3.455300     7.963500
C       1.937700     4.392100     7.264400
C       1.367500     3.486100     8.157700
C       1.405100     3.931900     9.476800
H       1.066700     3.354700    10.149600
C       1.902200     5.158300     9.870800
H       1.853900     5.406900    10.786300
C       2.491300     6.064300     8.924800
H       2.870900     6.894200     9.191100
C       2.470800     5.643200     7.555700
C       0.868300     2.187800     7.784600
H       0.758600     2.177600     6.790000
C      -0.559200     1.842700     8.435100
H      -0.524700     2.005000     9.401900
H      -0.776400     0.901800     8.268700
H      -1.248300     2.413800     8.034200
C       1.846500     1.051800     8.156300
H       2.663900     1.138100     7.623600
H       1.425700     0.186900     7.973200
H       2.068700     1.113400     9.109300
C       3.081700     6.647700     6.554200
H       2.892600     6.306700     5.633100
C       4.616500     6.752500     6.702600
H       4.834400     7.124300     7.583400
H       4.973400     7.340000     6.003500
H       5.016400     5.860900     6.615200
C       2.470200     8.100100     6.659600
H       1.845300     8.246000     5.918900
H       3.192100     8.761600     6.613800
H       1.995500     8.192500     7.511300
C       1.929700     2.765100     1.865700
C       1.568300     1.452400     1.610500
C       1.575000     0.998400     0.258000
H       1.377800     0.096600     0.029100
C       1.882100     1.941300    -0.692200
C       2.258500     3.254000    -0.406400
H       2.496400     3.853900    -1.105500
C       2.276000     3.646400     0.853100
C       1.170700     0.486900     2.691000
H       1.969100     0.039000     3.040600
H       0.556100    -0.182800     2.322000
H       0.725200     0.973700     3.416500
C       1.875400     1.475000    -2.213900
H       1.785900     0.501200    -2.256900
H       2.713400     1.746200    -2.641100
H       1.120100     1.894100    -2.678500
C       2.750500     5.070000     1.204000
H       3.667500     5.033000     1.549400
H       2.160000     5.454200     1.883700
H       2.728800     5.630800     0.399500
