83
Refcode: MEKYOT_comp_0 | Dataset: tmCAT | Charge: 0 | Potential Spins: [1, 3, 5]
C       5.898600    -0.388700     3.894700
C       4.576300     0.304600     2.143800
C       4.320200    -0.991300     1.805600
H       3.773000    -1.206300     1.084900
C       4.912800    -1.972300     2.586900
C       6.759500    -0.020800     5.051500
H       7.154800    -0.813000     5.421000
H       6.226500     0.413500     5.721300
H       7.452700     0.574900     4.757900
C       3.332500     1.236200     0.158100
H       2.401000     1.412100     0.303800
H       3.441000     0.342900    -0.177100
H       3.678500     1.862000    -0.480800
C       5.394500    -4.382400     3.020400
H       5.987700    -4.014400     3.680000
H       5.903900    -4.883900     2.378100
H       4.758500    -4.960500     3.447400
C       3.893500     3.714900     1.454800
H       3.344300     3.780400     0.708200
C       4.360500     4.883700     2.202300
C       3.990100     6.188700     1.925000
H       3.416000     6.378700     1.218600
C       4.492800     7.202200     2.716600
H       4.257000     8.085300     2.548200
C       5.349100     6.901000     3.764300
H       5.688600     7.575000     4.306600
C       5.690700     5.568800     3.987900
C       6.641700     5.110200     5.040200
H       7.554300     5.228800     4.735400
H       6.518800     5.632300     5.848000
C       3.454900    -4.730600     1.017700
H       3.881900    -5.466900     1.390400
C       2.435200    -4.877000     0.011800
C       2.036200    -6.035800    -0.578200
C       1.024500    -5.839500    -1.635200
C       0.659200    -4.560100    -1.777500
H      -0.028600    -4.282700    -2.339900
C       2.534300    -7.411800    -0.237800
H       3.304600    -7.341000     0.331500
H       2.773200    -7.873500    -1.043200
H       1.842500    -7.897700     0.217000
C       0.526500    -6.992000    -2.438900
H      -0.150900    -6.689400    -3.048100
H       0.152800    -7.655700    -1.852100
H       1.253000    -7.377300    -2.933600
C       0.437200    -2.901300     0.512900
C      -0.598700    -3.725800     0.951900
H      -0.702000    -4.569200     0.576300
C      -1.473700    -3.309000     1.935500
H      -2.157700    -3.871200     2.218400
C      -1.333900    -2.061700     2.499600
H      -1.922100    -1.785300     3.164400
C      -0.329700    -1.226500     2.084700
H      -0.234500    -0.383300     2.466600
C       0.546000    -1.644300     1.090100
H       1.219700    -1.069200     0.805400
C       1.408800     1.829100     4.626000
C       8.070800     1.178100     0.828000
N       5.186900     4.601100     3.222800
N       4.308900     2.588000     1.920200
N       4.054000     1.374400     1.412800
N       5.355800     0.632400     3.208200
N       5.733200    -1.674600     3.631900
N       4.688300    -3.299100     2.341500
N       3.746100    -3.528300     1.375800
O       6.392300     3.731600     5.310100
H       6.913300     3.435500     5.849800
O       3.850800     2.483300     5.029600
O       2.551200     1.830100     6.947200
O       3.236100     0.162200     5.315100
O       7.585700     2.529300     2.987000
O       7.487400     3.695300     0.878700
O       9.622400     2.955900     1.776100
F       1.633800     1.565400     3.343200
F       0.413600     1.053400     5.024900
F       1.011800     3.073200     4.718500
F       8.812200     1.155100    -0.240400
F       8.462300     0.188400     1.635900
F       6.824100     0.921100     0.455500
P       1.638200    -3.431800    -0.769200
S       2.924700     1.522300     5.620300
S       8.197500     2.769100     1.707500
Zn      5.504800     2.617900     3.722900
