42
Refcode: MELJUJ_comp_0 | Dataset: tmCAT | Charge: 0 | Potential Spins: [1, 3, 5]
Pd      0.171900     0.005100     1.889200
Cl      0.135800    -2.292600     2.228200
Se     -2.108000    -0.070400     1.264500
O       2.142300     0.047400     2.323200
N       0.105700     1.971400     1.626700
C       2.952200     1.036500     2.104700
C       4.325800     0.851900     2.365700
C       5.200100     1.864700     2.083400
C       4.805000     3.086600     1.564500
C       3.484700     3.306800     1.373300
C       2.516700     2.326200     1.632700
C       1.152600     2.714000     1.497700
C      -1.221600     2.614100     1.652500
C      -2.209800     1.829900     0.825500
C      -3.014000    -0.033900     2.981700
C       4.841800    -0.434400     3.028800
C       4.785400    -1.633500     2.091000
C       5.572200    -1.491200     0.808800
C       4.208500    -0.701200     4.364100
C       4.207500     0.444600     5.341300
H       6.021100     1.719000     2.094000
H       5.462600     3.632800     1.380800
H       3.236500     4.047700     1.183600
H       0.976100     3.607400     1.320200
H      -1.577000     2.633500     2.488600
H      -1.262400     3.565000     1.320200
H      -3.154400     2.066200     0.925600
H      -1.978100     1.812200    -0.091000
H      -3.914900     0.067700     2.792000
H      -2.670900     0.702800     3.474900
H      -2.850000    -0.745200     3.338300
H       5.915900    -0.923000     2.488600
H       3.702100    -1.735900     1.881600
H       5.202700    -2.481100     2.746500
H       6.526200    -1.388800     1.092500
H       5.249700    -0.796000     0.288300
H       5.537800    -2.235600     0.182100
H       4.712300    -1.337900     4.795000
H       3.234700    -0.872200     4.203200
H       3.625700     1.295600     5.022600
H       3.832900     0.313300     6.206200
H       4.878000     0.719800     5.144000
