97
Refcode: MELLUL_comp_0 | Dataset: tmCAT | Charge: unknown | Potential Spins: [1, 3, 5]
Ta      3.763000     1.279500     5.347600
Si      0.751400     2.700500     3.900000
Si      6.261800     3.796900     4.718900
C       2.872800     2.977400     6.521700
H       3.107000     3.801000     6.023800
H       1.892900     2.874200     6.441100
N       4.246300     1.127500     3.175800
N       5.681100     0.073200     5.391500
N       5.622400     2.303900     5.370000
N       2.374600     2.043100     3.920900
C       3.133500     3.285100     7.958200
C       2.170100     3.185600     8.934400
H       1.306000     2.892900     8.676500
C       2.385900     3.482000    10.256300
H       1.680700     3.384500    10.885000
C       3.596500     3.911700    10.666500
H       3.738100     4.155600    11.572900
C       4.626300     3.988600     9.745900
H       5.497800     4.241900    10.025300
C       4.382600     3.699700     8.441900
H       5.099400     3.786000     7.822100
C       3.592200     0.369600     7.413700
H       4.026300     1.016800     8.022700
H       2.626200     0.395900     7.632300
C       4.059200    -0.956800     7.852600
C       5.332500    -1.140700     8.361300
H       5.911600    -0.390200     8.429300
C       5.793600    -2.380800     8.771400
H       6.685500    -2.468900     9.092100
C       4.979400    -3.480200     8.721300
H       5.291600    -4.324400     9.024000
C       3.715400    -3.350700     8.230500
H       3.152600    -4.114300     8.171400
C       3.244500    -2.110600     7.816700
H       2.348900    -2.037400     7.503300
C       2.787600    -0.701700     4.882800
H       3.348700    -1.395800     5.310900
H       1.921600    -0.705400     5.364600
C       2.504400    -1.180100     3.516100
C       1.286800    -0.924900     2.869500
H       0.591200    -0.476500     3.337000
C       1.083200    -1.322700     1.533300
H       0.277700    -1.084400     1.087300
C       2.014700    -2.035600     0.890200
H       1.834400    -2.339500     0.009000
C       3.209600    -2.335700     1.459800
H       3.866600    -2.825400     0.981600
C       3.451400    -1.896700     2.785300
H       4.286300    -2.099400     3.188300
C       6.422000     1.168800     5.550900
C       7.777500     1.099400     5.919900
H       8.280500     1.893000     6.057800
C       8.367000    -0.138800     6.079300
C       7.582500    -1.290800     5.833900
H       7.968400    -2.157500     5.884100
C       6.247900    -1.133200     5.518600
H       5.714100    -1.908000     5.386100
C       9.790900    -0.277700     6.509200
H      10.024900    -1.227000     6.564700
H       9.907800     0.140700     7.386900
H      10.371800     0.165100     5.855400
C       3.142200     1.791700     2.806800
C       2.964700     2.172500     1.474100
H       2.205800     2.686600     1.219800
C       3.894000     1.797300     0.532000
C       5.009600     1.028100     0.954700
H       5.639900     0.707300     0.322400
C       5.158300     0.759800     2.262300
H       5.937600     0.296400     2.548900
C       4.882600     4.804700     3.990800
H       4.231700     5.022300     4.689300
H       4.440300     4.290600     3.281500
H       5.246500     5.633900     3.614600
C       7.471500     3.405100     3.347700
H       8.214800     2.879800     3.707800
H       7.816300     4.241900     2.968000
H       7.015200     2.892900     2.647400
C      -0.251600     1.977400     5.300100
H      -0.283100     1.001800     5.208800
H      -1.162300     2.337600     5.269700
H       0.162900     2.211900     6.156300
C       7.160400     4.812200     6.009400
H       6.546200     5.029800     6.740200
H       7.489900     5.641400     5.601000
H       7.917700     4.298100     6.360500
C       0.833300     4.568300     4.028400
H       1.363200     4.922900     3.285000
H       1.251600     4.819700     4.877400
H      -0.074000     4.937900     3.987200
C      -0.192200     2.337600     2.299900
H       0.303800     2.703500     1.536800
H      -1.080600     2.752200     2.342900
H      -0.291100     1.367700     2.190600
C       3.721400     2.106900    -0.952900
H       4.488700     1.757900    -1.450900
H       3.661100     3.076800    -1.078300
H       2.897500     1.684700    -1.278900
