88
Refcode: MELMAU_comp_0 | Dataset: tmCAT;tmPHOTO | Charge: 0 | Potential Spins: [1, 3, 5]
Pt      5.706400     8.902500     3.845500
I       6.159300    11.546400     3.593600
P       7.942100     8.593100     4.346400
P       3.468600     9.262700     3.379100
B       4.608200     3.673000     5.744400
F       5.435700     3.659000     6.868300
F       3.289600     3.852800     6.146900
N       5.025400     4.826500     4.798600
N       4.764200     2.359100     4.955900
C       5.585700     6.004800     2.913600
C       5.416200     6.898900     3.947200
C       5.076600     6.146100     5.076900
C       4.622600     1.109500     5.456200
C       4.904900     0.187200     4.447400
H       4.868000    -0.757800     4.539100
C       5.248100     0.867100     3.296200
C       5.435200     3.412400     2.867200
C       5.155200     2.258600     3.617600
C       5.356100     4.677700     3.438700
C       5.955500     6.352500     1.509000
H       6.895900     6.122600     1.354000
H       5.825900     7.312600     1.365500
H       5.389700     5.848800     0.887900
C       4.799700     6.643100     6.473200
H       3.854500     6.501000     6.688900
H       5.006700     7.599800     6.526900
H       5.358000     6.152200     7.111800
C       4.228400     0.853600     6.865800
H       5.004500     0.985100     7.450500
H       3.906200    -0.067000     6.952600
H       3.516800     1.475800     7.123400
C       5.642300     0.194800     2.004200
H       4.929700     0.315600     1.341900
H       5.781700    -0.762200     2.162700
H       6.471400     0.594400     1.667900
C       5.845900     3.267100     1.436100
C       4.906800     3.002600     0.443900
H       3.985700     2.936900     0.665300
C       5.324400     2.834000    -0.877900
H       4.687000     2.638500    -1.555000
C       6.658200     2.949200    -1.202500
H       6.932800     2.849600    -2.106200
C       7.600800     3.210300    -0.222000
H       8.522600     3.270800    -0.446200
C       7.184800     3.383200     1.098200
H       7.825000     3.583600     1.771500
C       8.493300     6.862800     4.616400
H       7.890400     6.446400     5.281700
H       8.385400     6.367400     3.767100
C       9.922000     6.682100     5.093400
H      10.150400     5.729200     5.082700
H      10.008100     7.029100     6.005200
H      10.528500     7.170300     4.498400
C       9.086100     9.245600     3.067600
H       9.034300    10.234400     3.066000
H      10.013100     8.993400     3.308700
C       8.784500     8.735300     1.674600
H       9.393100     9.157500     1.033100
H       7.858800     8.954300     1.439900
H       8.906700     7.763000     1.649400
C       8.530800     9.470000     5.838800
H       9.511800     9.354700     5.910000
H       8.349400    10.437600     5.732300
C       7.881200     8.984600     7.139100
H       8.294600     9.441200     7.900700
H       8.009600     8.017800     7.227000
H       6.921800     9.186500     7.118700
C       3.181000    10.140400     1.800500
H       3.722700    10.968500     1.803100
H       3.515700     9.569900     1.063600
C       1.725700    10.517300     1.492400
H       1.659200    10.836600     0.568700
H       1.436100    11.226900     2.104500
H       1.152200     9.731800     1.609500
C       2.691200    10.327100     4.659400
H       3.103300    11.226900     4.626700
H       1.727700    10.427000     4.457200
C       2.850000     9.758400     6.060800
H       2.344800    10.308800     6.696000
H       3.797600     9.759900     6.309500
H       2.508000     8.840100     6.081600
C       2.321100     7.833600     3.324400
H       2.527800     7.238500     4.088200
H       1.398600     8.169400     3.451600
C       2.356500     6.993600     2.034100
H       3.242000     6.585600     1.934500
H       2.175300     7.572000     1.263500
H       1.676100     6.291000     2.082600
