81
Refcode: METTUA_comp_0 | Dataset: tmCAT | Charge: unknown | Potential Spins: [1, 3, 5]
Zr     -1.574100    -6.184300    -1.032700
Cl     -3.610600    -7.087700    -2.077500
Cl      0.101800    -5.289900     0.486200
O      -1.469000    -4.736600    -2.300800
O      -0.352400    -7.276500    -2.099200
C      -1.537700    -4.663400    -3.672600
C      -0.652100    -5.420700    -4.417900
C      -0.842100    -5.464200    -5.771800
H      -0.297500    -6.018000    -6.283500
C      -1.810000    -4.709100    -6.402200
C      -2.592500    -3.869300    -5.632700
H      -3.221800    -3.329300    -6.056400
C      -2.475800    -3.800700    -4.260900
C       0.725400    -7.036200    -2.900600
C       0.604100    -6.082000    -3.924000
C       1.748200    -5.786900    -4.636100
H       1.702400    -5.114100    -5.276700
C       2.960900    -6.425300    -4.454900
C       2.988400    -7.416100    -3.494000
H       3.782400    -7.880600    -3.363800
C       1.878600    -7.757000    -2.699000
C      -3.338500    -2.807600    -3.477400
C      -2.404900    -1.903800    -2.587900
H      -1.777900    -1.441600    -3.148100
H      -1.931200    -2.453000    -1.961400
H      -2.938000    -1.263100    -2.110700
C      -4.345300    -3.553600    -2.631300
H      -3.883100    -4.164500    -2.052000
H      -4.942500    -4.041000    -3.201700
H      -4.846400    -2.928900    -2.103000
C      -4.093600    -1.851200    -4.379600
H      -3.468900    -1.366100    -4.925700
H      -4.597000    -1.233300    -3.843600
H      -4.693100    -2.347700    -4.942300
C      -2.025100    -4.789200    -7.913100
H      -2.736700    -4.196600    -8.167000
H      -2.256200    -5.688500    -8.156800
H      -1.219600    -4.532900    -8.364800
C       2.036500    -8.919400    -1.693400
C       0.947300    -9.956000    -1.985600
H       0.084700    -9.532600    -1.949900
H       0.986200   -10.656100    -1.329700
H       1.084600   -10.328900    -2.859700
C       1.846600    -8.404600    -0.259000
H       0.988500    -7.979000    -0.183800
H       2.535300    -7.768400    -0.052300
H       1.894600    -9.141400     0.354800
C       3.379700    -9.562400    -1.744400
H       4.057000    -8.905700    -1.559400
H       3.523800    -9.933100    -2.617300
H       3.425400   -10.260300    -1.088500
C       4.180500    -6.077500    -5.263900
H       3.965500    -5.372700    -5.876400
H       4.468900    -6.850900    -5.753900
H       4.883000    -5.791400    -4.675600
O      -1.842000    -7.935500     0.408400
C      -2.416300    -9.248900     0.093200
H      -3.384200    -9.194000     0.062500
H      -2.098300    -9.555500    -0.770800
C      -2.002200   -10.159600     1.128100
H      -2.702400   -10.802600     1.319500
H      -1.201300   -10.637800     0.862600
C      -1.752800    -9.358700     2.235700
H      -0.995400    -9.713400     2.727000
H      -2.523900    -9.372500     2.824000
C      -1.469000    -7.979000     1.837600
H      -0.530900    -7.768400     1.957500
H      -1.999900    -7.352000     2.353100
O      -3.025000    -5.178200     0.393000
C      -2.855700    -3.871600     0.967300
H      -2.539900    -3.233200     0.308800
H      -2.240100    -3.889900     1.716400
C      -4.272100    -3.549000     1.417700
H      -4.260600    -2.917500     2.154100
H      -4.784600    -3.169200     0.687800
C      -4.867000    -4.853300     1.854200
H      -4.592400    -5.082100     2.756400
H      -5.837200    -4.830400     1.812100
C      -4.315500    -5.786900     0.876700
H      -4.931100    -5.908100     0.136500
H      -4.148500    -6.649500     1.287600
