43
Refcode: MEWCIC_comp_0 | Dataset: tmCAT | Charge: 0 | Potential Spins: [1, 3, 5]
Ni      6.220500     4.376900    11.156600
O       7.335600     5.400400     9.627000
C       8.565700     5.095500     9.540700
O       9.358200     5.541200     8.694400
C       9.046700     4.079400    10.568600
N       8.047300     3.632700    11.312800
C       8.259200     2.720800    12.243300
C       9.527500     2.183000    12.466200
N      10.583700     2.654600    11.753200
C      10.351900     3.587800    10.822400
C      11.551700     4.101600    10.089000
H      12.378300     3.801700    10.467700
H      11.492400     3.814100     9.194400
H      11.549000     5.036900    10.075200
N       9.698400     1.196100    13.368600
C       8.567300     0.766700    13.968700
N       7.293900     1.269800    13.861400
C       7.110400     2.285100    13.017200
O       5.990000     2.853700    12.826900
N       8.679900    -0.283100    14.781200
H       7.979800    -0.562600    15.183200
H       9.442800    -0.592800    14.928600
N       4.393100     5.369700    11.076100
C       4.301400     6.305900    12.199300
C       5.633600     6.948400    12.381500
N       6.660700     5.908100    12.516900
H       7.480900     6.246500    12.391000
H       6.674600     5.621700    13.337700
H       5.618800     7.521700    13.134000
H       5.821000     7.456000    11.585100
H       3.598900     6.956400    12.088500
H       4.103200     5.803700    13.038200
H       3.697300     4.822200    11.006900
H       4.352600     5.809000    10.311900
N       5.587000     2.940000     9.817000
C       5.647100     1.609800     9.941000
N       5.242700     1.007200     8.811800
C       4.852900     1.990500     7.980800
C       5.105000     3.147600     8.585900
H       4.950000     3.964900     8.217800
H       4.509000     1.893700     7.208100
H       5.132000     0.135800     8.664100
H       5.926200     1.150100    10.689400
