32
Refcode: MEZCOJ_comp_0 | Dataset: tmCAT | Charge: -1 | Potential Spins: [1, 3, 5]
V       3.657700     0.701600     0.453200
O       3.623000     2.928300    -2.981300
C       2.984600     0.511500     3.628000
N       2.234000    -0.573200     3.358500
H       2.031200    -1.082400     4.079200
H       2.260400    -0.885400     2.522400
O       3.386500     1.295700    -1.484200
N       3.524100     1.214000     2.598500
C       3.172100     0.916600     4.968300
H       2.840100     0.396200     5.663900
N       3.621100     2.877700     0.579000
C       3.838200     2.066700     5.237100
H       4.000800     2.317900     6.117800
O       0.044700     2.621200     1.255000
O       1.552700     1.111400     0.602800
C       4.280600     2.876200     4.179600
H       4.681200     3.699900     4.343900
O       5.264400     0.765000     0.435600
C       4.107500     2.423500     2.902800
O       3.257100    -0.904700    -0.393200
C       4.525000     3.225600     1.707400
H       4.462800     4.173400     1.904100
H       5.444000     3.021200     1.473300
O       3.338300    -1.063800     1.014900
C       4.169800     3.383200    -0.704000
H       5.139300     3.371300    -0.675500
H       3.880600     4.297600    -0.848800
C       3.678900     2.505300    -1.829500
C       2.235600     3.395100     0.822200
H       1.996200     4.001700     0.104600
H       2.229400     3.899900     1.650400
C       1.192400     2.300100     0.907100
