44
Refcode: MIBBEG_comp_0 | Dataset: tmCAT;tmPHOTO | Charge: 1 | Potential Spins: [1, 3, 5]
Ag      4.714600     3.337800    16.669900
C       4.554700     1.257700    16.499000
N       5.462100     0.324600    16.124400
C       3.552300    -0.741000    16.200300
H       2.878000    -1.409900    16.163900
C       4.861900    -0.903900    15.928000
H       5.289800    -1.707600    15.653900
N       3.381700     0.584400    16.543900
C       6.904000     0.546100    15.962600
H       7.392700    -0.237700    16.318800
H       7.171200     1.336500    16.497200
C       7.311100     0.767700    14.512000
H       6.966400     0.016000    13.969000
H       8.299300     0.749000    14.455600
C       6.814100     2.073500    13.904200
H       5.827600     2.097500    13.972600
H       7.047200     2.081500    12.941900
C       7.379400     3.337800    14.552900
H       8.365100     3.337800    14.464600
H       7.157900     3.337800    15.516900
C       2.105400     1.181600    16.909000
H       2.235300     1.795700    17.661300
H       1.476900     0.475300    17.169400
H       1.744100     1.674300    16.142200
C       4.554700     5.418000    16.499000
N       5.462100     6.351100    16.124400
C       3.552300     7.416600    16.200300
H       2.878000     8.085500    16.163900
C       4.861900     7.579500    15.928000
H       5.289800     8.383300    15.653900
N       3.381700     6.091300    16.543900
C       6.904000     6.129600    15.962600
H       7.392700     6.913300    16.318800
H       7.171200     5.339200    16.497200
C       7.311100     5.908000    14.512000
H       6.966400     6.659600    13.969000
H       8.299300     5.926600    14.455600
C       6.814100     4.602200    13.904200
H       5.827600     4.578200    13.972600
H       7.047200     4.594200    12.941900
C       2.105400     5.494100    16.909000
H       2.235300     4.879900    17.661300
H       1.476900     6.200300    17.169400
H       1.744100     5.001400    16.142200
