53
Refcode: MIGTEE_comp_0 | Dataset: tmCAT | Charge: 0 | Potential Spins: [1, 3, 5]
Ni      6.273800     5.285700     4.625100
N       6.646700     4.802600     2.873400
N       4.487400     5.332900     4.100700
O       8.038600     5.355200     5.155900
O       5.934200     5.635700     6.400500
O      10.331000     5.724300     6.313600
O       5.986600     5.995400     8.948500
C       9.083300     4.982600     4.465600
C      10.371100     5.135700     5.078200
C      11.514100     4.724800     4.425100
H      12.361400     4.845700     4.837100
C      11.432200     4.127000     3.149500
H      12.222800     3.818400     2.721600
C      10.223800     3.988600     2.524700
H      10.178900     3.582600     1.667200
C       9.032400     4.449900     3.154900
C       7.817800     4.410200     2.429200
H       7.853500     4.070100     1.543600
C       5.497900     4.812000     2.035700
C       5.482300     4.622500     0.653900
H       6.293300     4.471700     0.183300
C       4.274500     4.655500    -0.028700
H       4.258800     4.518300    -0.968300
C       3.084400     4.889500     0.658300
H       2.261100     4.896600     0.183300
C       3.087600     5.111600     2.026500
H       2.275000     5.280800     2.488700
C       4.301600     5.083100     2.715000
C       3.472400     5.657000     4.867800
H       2.620700     5.740600     4.454000
C       3.543700     5.892100     6.259500
C       2.334600     6.143000     6.971300
H       1.512900     6.197600     6.497700
C       2.346000     6.304800     8.320600
H       1.531400     6.458000     8.783300
C       3.557700     6.247500     9.039000
H       3.555000     6.357600     9.982300
C       4.747100     6.031000     8.374500
C       4.772300     5.843700     6.960600
C      11.580400     5.957600     6.979600
H      12.150800     6.558500     6.437000
H      12.062000     5.103300     7.114900
C      11.266800     6.596700     8.310600
H      10.808100     7.450500     8.162700
H      12.100300     6.753400     8.802000
H      10.688100     6.001100     8.830700
C       6.073100     5.992800    10.379500
H       5.630500     5.189100    10.750800
H       5.633600     6.797100    10.753000
C       7.544000     5.988800    10.721600
H       7.963000     5.184800    10.350000
H       7.653400     5.993800    11.695900
H       7.970100     6.785500    10.341200
