59
Refcode: MIJPAZ_comp_0 | Dataset: tmCAT | Charge: 0 | Potential Spins: [1, 3, 5]
O       6.370700     4.608600    10.164200
F       3.968700     8.113100     8.726000
Ni      5.373000     6.954800     9.231400
P       5.463000     7.881900    11.228800
P       5.127000     6.074200     7.242700
C       6.658300     5.718500     9.722800
C       8.116500     6.107800     9.593200
C       9.133100     5.255900    10.016900
H       8.916500     4.410800    10.394300
C      10.465000     5.635200     9.888900
H      11.154400     5.048800    10.176400
C      10.790800     6.873900     9.342900
H      11.701800     7.130200     9.251300
C       9.783700     7.733300     8.929700
H       9.999800     8.583000     8.565200
C       8.462400     7.346500     9.054400
H       7.775600     7.936500     8.765500
C       6.102200     6.906200    12.632100
H       5.694600     6.004500    12.591400
H       7.078000     6.794400    12.511000
C       5.858100     7.474600    14.020800
H       6.287400     8.352500    14.095200
H       6.234900     6.868900    14.693100
H       4.893900     7.569100    14.171100
C       6.466200     9.433400    11.342400
H       6.206900     9.928500    12.159900
H       7.423600     9.196400    11.421300
C       6.274100    10.327700    10.141700
H       6.624000     9.880500     9.342400
H       6.755700    11.169900    10.281100
H       5.319800    10.513000    10.020700
C       3.783400     8.360100    11.690700
H       3.789100     8.762200    12.596000
H       3.442400     9.036500    11.054600
C       2.884500     7.152500    11.679400
H       2.919500     6.727900    10.796500
H       1.964000     7.428700    11.872000
H       3.183600     6.514900    12.360500
C       6.282600     4.789500     6.656300
H       7.199100     5.161900     6.692800
H       6.247900     4.032300     7.293000
C       6.056600     4.233500     5.253100
H       5.144900     3.881800     5.184000
H       6.698900     3.514200     5.079200
H       6.181700     4.949100     4.594700
C       3.471400     5.304400     7.174900
H       2.784700     6.002500     7.320800
H       3.328900     4.924500     6.271800
C       3.283500     4.198700     8.213500
H       3.877700     3.448300     8.003600
H       2.352500     3.891500     8.199500
H       3.498600     4.546600     9.104100
C       5.061100     7.325400     5.907900
H       4.806100     6.878600     5.061700
H       4.358500     7.988000     6.123200
C       6.386600     8.055400     5.703600
H       6.638100     8.513800     6.531700
H       6.288900     8.712600     4.982600
H       7.082300     7.408400     5.463000
