85
Refcode: MIMLID_comp_0 | Dataset: tmCAT | Charge: 0 | Potential Spins: [1, 3, 5]
Pd      6.669400    10.237600     5.949800
Cl      4.446800     9.651800     5.505400
Cl      6.501400    10.032700     8.289000
O       8.936600    12.075400     7.079100
O       9.916600     9.817200     6.507400
O       9.377200    11.254400     4.710100
O      10.838200     8.473700    11.776700
O      13.578200    14.289900     9.098900
P       6.928100    10.525800     3.757100
P       8.769900    10.841200     6.119900
C       8.653000    11.195800     3.533300
H       9.127400    10.636800     2.898200
H       8.595300    12.088000     3.154900
C       5.883100    11.799500     3.007300
C       5.196300    11.628300     1.827500
H       5.193700    10.802400     1.400200
C       4.512800    12.695500     1.286900
H       4.082000    12.584900     0.469900
C       4.446100    13.887800     1.898200
H       3.977800    14.590600     1.507300
C       5.075200    14.061400     3.103000
H       5.020500    14.877800     3.545800
C       5.781000    13.029100     3.649700
H       6.203600    13.150800     4.468900
C       6.931600     9.054700     2.719400
C       7.348700     9.142000     1.391900
H       7.594100     9.965100     1.035400
C       7.399800     8.003100     0.602900
H       7.651500     8.065600    -0.290000
C       7.080000     6.795000     1.142400
H       7.143100     6.029500     0.617500
C       6.663400     6.685900     2.458500
H       6.430100     5.855000     2.805700
C       6.596600     7.818400     3.258900
H       6.330800     7.750500     4.147700
C      10.151800     9.422500     7.833800
C      10.040800     8.063800     8.188300
C      10.291200     7.729800     9.514700
H      10.205900     6.846200     9.790200
C      10.674400     8.712500    10.440900
C      10.851000    10.015800    10.031400
H      11.128100    10.656600    10.646700
C      10.621000    10.385300     8.722600
C      10.964100    11.792800     8.334900
C      12.142000    12.333400     8.870200
H      12.716200    11.804500     9.376500
C      12.440200    13.671000     8.635300
C      11.586600    14.455900     7.897200
H      11.805400    15.351400     7.773500
C      10.412700    13.978400     7.326500
C      10.148700    12.607800     7.550000
C       9.714400     6.960200     7.157100
C       9.651700     5.567000     7.802600
H      10.483800     5.379800     8.241300
H       9.491100     4.906700     7.124900
H       8.938600     5.544500     8.446100
C      10.854900     6.942000     6.108200
H      11.693800     6.795400     6.551000
H      10.877900     7.783600     5.647700
H      10.697100     6.236100     5.477200
C       8.377800     7.183700     6.482400
H       8.372200     8.047700     6.064600
H       7.677900     7.139200     7.137300
H       8.237900     6.505500     5.818200
C      10.686600     7.155100    12.264200
H      10.830300     7.146400    13.213300
H      11.327000     6.580100    11.838000
H       9.799200     6.842900    12.071900
C       9.493000    14.953700     6.587400
C      10.061700    16.352200     6.489700
H      10.166800    16.717700     7.371200
H       9.462700    16.906600     5.982400
H      10.916100    16.320800     6.052100
C       8.139500    15.022400     7.257900
H       8.249000    15.279600     8.175800
H       7.717300    14.161100     7.214300
H       7.592600    15.670100     6.807800
C       9.368900    14.561300     5.144600
H       9.014400    13.670200     5.084300
H      10.233900    14.589100     4.728800
H       8.778400    15.170800     4.696500
C      14.350300    13.696200    10.127000
H      15.098300    14.262700    10.332800
H      14.670400    12.839800     9.833800
H      13.808100    13.584900    10.910800
