38
Refcode: MIPKED_comp_0 | Dataset: tmCAT | Charge: unknown | Potential Spins: [1, 3, 5]
Ru      4.080500     5.547000    -1.160500
Cl      4.575100     7.871200    -1.483000
Cl      3.757800     3.207100    -0.798600
N       5.398900     5.569400     0.479400
C       5.055400     5.765400     1.768300
H       4.142600     5.856300     1.981100
C       8.514100     4.638600    -3.030800
O       2.384000     5.353900    -3.642900
C       6.157500     4.862600    -3.354400
H       5.422800     4.861200    -3.940200
O       1.637500     6.266500     0.405900
C       7.676400     5.527400     1.177000
H       8.586000     5.460200     0.949900
N       5.939800     5.120100    -2.052400
C       7.379700     4.606400    -3.860100
H       7.474800     4.406300    -4.773900
C       9.883100     4.413300    -3.561800
H      10.526300     4.479000    -2.838900
H      10.084700     5.082300    -4.234200
H       9.933900     3.530000    -3.959900
C       6.713400     5.423800     0.199600
C       8.378200     5.815800     3.582600
C       7.302900     5.729000     2.505400
C       3.014400     5.433600    -2.708300
C       7.006000     5.149500    -1.219800
C       5.983400     5.838100     2.790600
H       5.700700     5.961300     3.678000
C       8.293800     4.899000    -1.677200
H       9.013700     4.904500    -1.076100
C       2.543600     5.987900    -0.199600
H       9.288800     5.122900     3.345700
O       7.767400     5.964100     4.795800
O       9.164400     6.889300     3.276600
H       9.762000     6.966300     3.848100
C       8.729800     6.018700     5.968400
H       8.229900     6.122300     6.793300
H       9.328600     6.778700     5.858800
H       9.249600     5.202700     6.001400
