29
Refcode: MIRPUZ_comp_0 | Dataset: tmCAT | Charge: 0 | Potential Spins: [1, 3, 5]
Hg     10.331700     6.343000    16.014800
Br     12.675200     6.893700    15.737500
C       8.992700     3.968600    14.020500
H       8.232300     4.323100    14.421900
C       8.879800     2.904500    13.166300
H       8.041900     2.531200    13.010500
C      11.106800     2.898300    12.824700
C      11.268700     3.968600    13.689500
H      12.117700     4.309900    13.858200
C      12.332700     2.309900    12.173400
N      10.200600     4.506000    14.281000
N       9.933200     2.394500    12.566300
O      13.439500     2.779900    12.301500
O      12.053600     1.212700    11.485800
H      12.740000     0.918200    11.148500
Br      7.988100     6.893700    16.292200
C      11.670700     3.968600    18.009200
H      12.431100     4.323100    17.607800
C      11.783500     2.904500    18.863400
H      12.621500     2.531200    19.019200
C       9.556600     2.898300    19.205000
C       9.394700     3.968600    18.340200
H       8.545700     4.309900    18.171500
C       8.330600     2.309900    19.856300
N      10.462800     4.506000    17.748700
N      10.730200     2.394500    19.463400
O       7.223900     2.779900    19.728200
O       8.609800     1.212700    20.543800
H       7.923300     0.918200    20.881200
