39
Refcode: MIRSEL_comp_0 | Dataset: tmCAT | Charge: 0 | Potential Spins: [1, 3, 5]
Ti     -0.886600    -0.158700     4.168500
Cl     -2.203900    -1.969100     4.094500
Cl     -1.473400     1.012800     2.346100
Cl     -1.775300     1.054500     5.829000
C       0.848600    -1.334300     5.226100
C       1.116600     0.053400     5.400700
C       1.331300     0.614500     4.120600
C       1.222700    -0.420900     3.148200
C       0.928800    -1.631600     3.841900
C       1.264200     0.767000     6.698400
H       2.183600     0.744200     6.974000
H       0.721200     0.337000     7.363300
H       0.983500     1.678900     6.595900
C       1.655100     2.054000     3.814600
H       1.204300     2.319400     3.010400
H       2.602900     2.150100     3.697700
H       1.364400     2.609100     4.542000
C       1.492600    -0.301900     1.679000
H       2.419900    -0.480300     1.509200
H       1.278600     0.587100     1.385800
H       0.951300    -0.934800     1.201600
C       0.835500    -2.996400     3.225100
H       1.718900    -3.335000     3.063200
H       0.357400    -2.940000     2.395200
H       0.371000    -3.586600     3.822600
C       0.653500    -2.331600     6.328300
C       2.005500    -2.927800     6.732100
C       1.900300    -3.845800     7.940100
C       3.198900    -4.474100     8.372600
C       4.372800    -4.271200     7.835900
H       0.305800    -1.906100     7.113400
H       0.118900    -3.049800     5.959900
H       2.520600    -2.241600     6.857000
H       2.388600    -3.446300     5.879800
H       1.507800    -3.324300     8.715500
H       1.297900    -4.529000     7.722200
H       3.204400    -5.108400     9.180100
H       5.169800    -4.681400     8.186800
H       4.475600    -3.736000     7.065300
