39
Refcode: MIXSUJ_comp_0 | Dataset: tmCAT | Charge: unknown | Potential Spins: [1, 3, 5]
Ru      0.869900     4.156700     6.604400
Cl      1.755300     3.467600     8.769900
O       0.353900    -1.171200     7.405700
H       0.699500    -1.914900     7.224800
N       1.033200     2.099700     5.998800
C      -1.118700     4.585900     7.465200
Cl      3.177200     4.344300     5.860900
C      -0.249900     5.716900     7.666200
H      -0.135500     6.065600     8.542400
C       0.436000     6.317700     6.589800
H       1.002200     7.063000     6.752800
C       0.286900     5.815100     5.243800
C      -0.569000     4.700400     5.035000
H      -0.685600     4.353000     4.157800
C      -1.258600     4.095900     6.136700
H      -1.822800     3.349200     5.975200
C      -1.798300     3.894800     8.626900
H      -2.692000     4.275700     8.756800
H      -1.267400     4.024400     9.440300
H      -1.876500     2.936800     8.437500
C       1.083600     6.490000     4.131700
H       2.008000     6.640400     4.481800
C       0.483700     7.878100     3.823800
H       1.059900     8.349100     3.185800
H       0.420500     8.398100     4.653000
H      -0.409900     7.769200     3.437300
C       1.215800     5.663600     2.850300
H       1.592400     4.784700     3.065500
H       1.807100     6.127500     2.221600
H       0.332100     5.548900     2.442200
C       0.664700     1.103600     6.831000
H       0.354700     1.326000     7.701600
C       0.723400    -0.254800     6.457600
C       1.128300    -0.578500     5.161400
H       1.164100    -1.483200     4.873600
C       1.479100     0.460700     4.301300
H       1.741000     0.268000     3.408000
C       1.446500     1.782400     4.746400
H       1.720400     2.476800     4.157800
