88
Refcode: MIXTOC_comp_0 | Dataset: tmCAT | Charge: 1 | Potential Spins: [1, 3, 5]
Pd      2.800500     4.346900     4.660400
P       1.031600     5.288700     5.661600
N       3.593000     4.420200     6.622900
N       3.593000     4.486600     8.849900
N       4.167300     2.917200     3.804200
C       2.948900     4.069200     7.720300
C       4.723800     5.169900     8.436800
C       5.724900     5.849800     9.144700
H       5.721500     5.909500    10.093600
C       6.722600     6.427500     8.372300
H       7.426600     6.896100     8.806900
C       6.730400     6.345700     6.997300
H       7.455400     6.734200     6.521800
C       5.730400     5.727100     6.289400
H       5.721500     5.710100     5.338400
C       4.729300     5.123900     7.044700
C       3.103000     4.382700    10.252900
H       2.329200     3.832300    10.237800
C       2.672900     5.744200    10.775700
H       2.035400     6.124200    10.184000
H       3.430000     6.315000    10.836000
H       2.283700     5.643600    11.638500
C       4.130700     3.689200    11.141500
H       4.360200     2.847400    10.765000
H       3.763700     3.558000    12.008600
H       4.910000     4.229300    11.206100
C       1.620800     3.411400     7.662200
C       0.616400     3.972000     6.870400
C      -0.680700     3.389300     6.896200
H      -1.376900     3.781200     6.381900
C      -0.946800     2.274800     7.649300
H      -1.829200     1.923800     7.670800
C       0.067600     1.646100     8.385200
C      -0.167400     0.468600     9.131800
H      -1.042100     0.098800     9.153300
C       0.842500    -0.151700     9.829000
H       0.659600    -0.916800    10.362600
C       2.141800     0.356100     9.742900
H       2.851300    -0.100500    10.179700
C       2.411200     1.497800     9.045700
H       3.302500     1.823300     8.998400
C       1.380200     2.194800     8.393800
C       1.338100     6.780200     6.640100
C       2.210600     7.719100     6.149600
H       2.678400     7.557200     5.338400
C       2.407900     8.920400     6.853200
H       2.982200     9.590100     6.502400
C       1.770500     9.119800     8.040900
H       1.939000     9.915600     8.533600
C       0.906800     8.208200     8.531500
H       0.457900     8.370000     9.353400
C       0.672900     7.017100     7.823600
H       0.057600     6.374700     8.159200
C      -0.497800     5.602800     4.746700
C      -1.042100     4.599100     3.972000
H      -0.631900     3.742000     3.961300
C      -2.172900     4.820600     3.212500
H      -2.535400     4.118600     2.683200
C      -2.774900     6.056000     3.221100
H      -3.550900     6.214500     2.696100
C      -2.243800     7.061400     3.993600
H      -2.665100     7.913400     4.008600
C      -1.111900     6.851800     4.748800
H      -0.749400     7.558900     5.269500
C       2.080900     4.271900     2.810100
C       1.420100     5.236400     2.085000
H       1.220600     6.078200     2.474500
C       1.047600     4.960300     0.774600
H       0.620800     5.640200     0.264700
C       1.277100     3.748800     0.200100
H       0.954500     3.563100    -0.673500
C       1.975500     2.801400     0.897300
H       2.148500     1.954500     0.501300
C       2.432300     3.072300     2.179700
C       3.246000     2.095900     2.971500
H       3.757100     1.560900     2.375500
C       2.330300     1.187700     3.810700
H       2.860200     0.574200     4.305600
H       1.747200     0.707200     3.234000
H       1.818100     1.717600     4.408800
C       5.178300     3.573300     2.926300
H       4.734900     4.101500     2.272200
H       5.702700     2.908700     2.496000
H       5.741500     4.128800     3.453500
C       4.884500     2.109600     4.802600
H       5.458800     2.671900     5.310400
H       5.400000     1.445000     4.361500
H       4.257100     1.693800     5.381400
