81
Refcode: MOBROM_comp_0 | Dataset: tmCAT | Charge: 0 | Potential Spins: [1, 3, 5]
Zn     11.781900     1.812000     0.761800
O      10.525200     1.428900    -0.629400
O       9.317000     3.458900     4.465100
O      12.490700     0.641200     2.098400
O      12.995500     5.102200     0.426500
N       8.995600    -0.312200    -2.617200
N       9.161000     0.949300    -2.992200
N       9.512800     1.167800    -4.261300
N      10.723400     3.221200     1.672500
N      11.993300    -1.375400     4.081300
N      13.146500    -0.791100     4.393500
N      13.361700    -0.519000     5.685500
N      13.570400     2.317100    -0.006100
C       9.527300     2.222500    -0.924900
C       8.812000     2.039200    -2.124300
C       7.780900     2.857900    -2.516900
H       7.370700     2.703900    -3.335800
C       7.337500     3.903400    -1.730700
C       7.989600     4.086800    -0.544700
H       7.701800     4.774900     0.012200
C       9.066700     3.302400    -0.115200
C       9.282300    -0.998700    -3.748000
C       9.279200    -2.387400    -3.977700
H       9.071100    -2.989300    -3.299300
C       9.589000    -2.806800    -5.217600
H       9.585700    -3.716800    -5.407400
C       9.917600    -1.893500    -6.225900
H      10.138700    -2.226700    -7.064600
C       9.932900    -0.536600    -6.043800
H      10.147700     0.051900    -6.732600
C       9.603600    -0.087100    -4.744500
C       6.185000     4.786600    -2.166300
H       5.729500     5.124000    -1.392200
H       5.573200     4.275100    -2.699100
H       6.522100     5.521600    -2.683900
C       9.670700     3.695800     1.133600
H       9.241500     4.376400     1.599400
C      11.166100     3.815500     2.952600
H      10.898600     4.748100     2.979400
H      12.135000     3.781200     3.000700
C      10.596300     3.114000     4.133700
C      11.036700     2.190700     4.973900
H      11.872900     1.784700     4.956500
C       9.992900     1.934600     5.905800
H      10.012500     1.332700     6.613800
C       8.992300     2.718900     5.564000
H       8.176500     2.763300     6.010600
C      13.746400     0.387600     2.320800
C      14.133600    -0.398500     3.435400
C      15.450100    -0.678900     3.728800
H      15.646100    -1.202100     4.472100
C      16.490900    -0.201700     2.943700
C      16.149600     0.573400     1.868700
H      16.830400     0.908300     1.331300
C      14.822700     0.889000     1.534500
C      11.389200    -1.505100     5.287700
C      10.125100    -2.019900     5.623100
H       9.546500    -2.353100     4.974800
C       9.788800    -2.006600     6.937300
H       8.967500    -2.357300     7.192600
C      10.636100    -1.482500     7.921300
H      10.355300    -1.490100     8.807200
C      11.851400    -0.966000     7.624200
H      12.407100    -0.617000     8.283200
C      12.235500    -0.981100     6.268300
C      17.939600    -0.470500     3.305700
H      18.003100    -1.305100     3.774500
H      18.267200     0.237700     3.865900
H      18.466900    -0.514000     2.504100
C      14.657500     1.809000     0.439300
H      15.437800     2.066000     0.003000
C      13.659000     3.319100    -1.075100
H      13.388800     2.919000    -1.916200
H      14.576800     3.616300    -1.163700
C      12.791000     4.481900    -0.782900
C      11.825000     5.098000    -1.433000
H      11.495700     4.863600    -2.269600
C      11.377000     6.177900    -0.635800
H      10.716000     6.795700    -0.853000
C      12.088500     6.132700     0.483800
H      11.987000     6.714500     1.203300
