47
Refcode: MODVIK_comp_0 | Dataset: tmCAT | Charge: 0 | Potential Spins: [1, 3, 5]
C       7.512200     2.684200     9.677500
H       7.356400     1.777100     9.443200
C       8.349100     3.429500     8.892900
H       8.724100     3.056900     8.103900
C       8.646000     4.745300     9.265200
H       9.255300     5.267700     8.758000
C       8.034000     5.264100    10.386500
H       8.216700     6.155700    10.659300
C       7.149800     4.478000    11.114700
C       6.990200     3.621300    14.706800
C       8.294800     4.128100    14.592600
H       8.584600     4.566700    13.800600
C       9.162300     3.964000    15.696100
H      10.040600     4.324700    15.659000
C       8.752100     3.283300    16.836600
H       9.348800     3.174300    17.567800
C       7.474500     2.765700    16.901900
H       7.193500     2.298300    17.680500
C       6.590200     2.922700    15.831100
H       5.716300     2.552400    15.875600
C       4.332900     4.565500    13.926700
C       3.226500     4.590700    13.090200
H       3.259000     4.152100    12.249300
C       2.073700     5.253300    13.477300
H       1.317600     5.273700    12.901900
C       2.032300     5.880100    14.695000
H       1.242700     6.341400    14.956000
C       3.113000     5.854900    15.550800
H       3.055300     6.276700    16.399100
C       4.290400     5.209000    15.169600
H       5.049000     5.206600    15.742100
C       5.172400     8.875800    12.332300
H       4.822400     9.759000    12.316000
C       5.887000     8.426400    13.407600
H       6.036300     8.993200    14.155100
C       6.394600     7.126300    13.395700
H       6.915900     6.790800    14.116600
C       6.104400     6.346200    12.287800
C       4.973500     8.023800    11.276300
H       4.501000     8.356900    10.522900
N       6.510500     4.955000    12.267100
N       6.898000     3.182700    10.769100
N       5.403000     6.744000    11.236300
P       5.840600     3.790900    13.312500
Cl      5.726400     0.135900    10.576400
Cl      4.416100     0.973000    13.570800
Pd      5.739400     2.027800    12.009000
