89
Refcode: MOFGIZ_comp_0 | Dataset: tmCAT | Charge: unknown | Potential Spins: [1, 3, 5]
Ni      7.919600     7.010100     3.866000
O      10.367300     7.739800     7.031000
O      10.046600     5.082000     0.923200
N       9.142000     6.724800     5.338400
N       7.117800     8.425100     6.097000
N       5.399100     7.295200     5.491500
N       9.344300     6.510500     2.626400
N       6.808300     6.121300     1.504600
N       5.822800     7.978600     1.903400
C       8.874200     4.341600     5.210300
H       7.975600     4.496600     4.944700
C       9.329700     3.042800     5.332200
H       8.742000     2.316600     5.159800
C      10.649600     2.792500     5.708500
H      10.971400     1.903700     5.789600
C      11.479800     3.873300     5.964500
H      12.378400     3.713700     6.229200
C      11.033600     5.181300     5.844400
H      11.626000     5.904400     6.017200
C       9.713700     5.434600     5.471600
C       9.457200     7.708300     6.186500
C       8.497900     8.902700     6.117900
H       8.636300     9.489100     6.902600
H       8.679800     9.432300     5.300100
C       6.141000     8.678500     7.038500
H       6.217200     9.242000     7.800500
C       5.057400     7.967700     6.665300
H       4.222500     7.932400     7.114600
C       6.678900     7.568600     5.151700
C       4.502400     6.366500     4.797500
H       4.476000     6.604500     3.837900
H       3.588200     6.470900     5.159800
C       4.922100     4.926500     4.933100
C       5.225300     4.178800     3.824800
H       5.158500     4.576500     2.964900
C       5.638900     2.829400     3.934800
C       6.041500     2.077100     2.807200
H       6.004200     2.465500     1.942300
C       6.487700     0.787600     2.957500
H       6.775300     0.294800     2.198000
C       6.520400     0.188800     4.237900
H       6.822000    -0.707700     4.327400
C       6.127000     0.882700     5.344700
H       6.144100     0.462100     6.194900
C       5.691700     2.230700     5.232700
C       5.309300     3.005900     6.347600
H       5.290600     2.602200     7.208100
C       4.962600     4.324700     6.222600
H       4.751100     4.835900     6.993000
C      10.526800     8.614100     2.766000
H       9.687300     9.048500     2.855800
C      11.688200     9.370900     2.718600
H      11.638400    10.318100     2.768500
C      12.924100     8.747600     2.598600
H      13.718600     9.263500     2.537800
C      12.984800     7.359800     2.570200
H      13.829000     6.925300     2.516000
C      11.825000     6.601400     2.619200
H      11.880900     5.652600     2.609500
C      10.578100     7.221600     2.682200
C       9.196000     5.562100     1.704100
C       7.765700     5.034000     1.598100
H       7.686400     4.456700     0.798100
H       7.558900     4.481300     2.394400
C       5.921800     6.318900     0.468000
H       5.774100     5.740200    -0.271200
C       5.303000     7.494900     0.711100
H       4.640700     7.909400     0.171500
C       6.748900     7.132600     2.404100
C       5.226900     9.179000     2.526900
H       4.580100     8.884300     3.214300
H       4.720000     9.670300     1.833200
C       6.201700    10.135500     3.171600
C       5.890700    10.698900     4.381000
H       5.082300    10.459400     4.816800
C       6.772200    11.638400     4.990500
C       6.504800    12.183400     6.283100
H       5.701000    11.954700     6.734200
C       7.401900    13.037000     6.874800
H       7.216900    13.394700     7.735000
C       8.595900    13.385500     6.215100
H       9.210000    13.976600     6.634500
C       8.878800    12.880400     4.969900
H       9.685700    13.127600     4.533100
C       7.977100    11.988500     4.330200
C       8.249200    11.420400     3.061600
H       9.039000    11.670700     2.593900
C       7.395700    10.520800     2.503500
H       7.599300    10.146200     1.655500
