53
Refcode: MOHWEN_comp_0 | Dataset: tmCAT | Charge: unknown | Potential Spins: [1, 3, 5]
Ir      3.306800     4.787200     4.737400
H       4.502400     5.638300     4.043600
Cl      2.778700     6.701800     6.223500
N       4.719300     3.824200     6.054400
O       2.660900     4.117800     1.787300
O       1.760000     3.689100     5.975500
H       2.046100     3.885100     6.751600
H       2.108800     2.913600     5.978100
P       2.153000     5.245700     2.903900
C       5.092300     4.227100     7.273900
H       4.677700     4.995000     7.649200
C       6.048900     3.571900     8.004500
H       6.267600     3.864400     8.882200
C       6.697600     2.477900     7.447000
H       7.405100     2.045500     7.909600
C       6.287400     2.030600     6.200200
H       6.689800     1.260800     5.817300
C       5.290600     2.705700     5.511000
C       4.824600     2.364900     4.172300
C       5.234100     1.270600     3.403400
H       5.819000     0.620700     3.775600
C       4.788100     1.135000     2.101500
H       5.079700     0.392600     1.585300
C       3.915400     2.071000     1.530100
H       3.623900     1.977500     0.629500
C       3.488900     3.128000     2.302100
C       3.898100     3.280200     3.640800
C       2.505400     6.802400     1.945200
C       4.045600     7.082500     2.018700
H       4.266500     7.844600     1.442800
H       4.536500     6.290900     1.715500
H       4.296300     7.288500     2.943900
C       2.147200     6.697700     0.451800
H       1.173900     6.633500     0.353800
H       2.567000     5.898900     0.070500
H       2.471300     7.493400    -0.018400
C       1.775400     7.971800     2.606900
H       2.113600     8.816600     2.242400
H       1.929800     7.949000     3.573400
H       0.814700     7.900800     2.427700
C       0.307400     4.871200     2.953100
C       0.194000     3.345600     3.120000
H      -0.744000     3.101600     3.267100
H       0.729800     3.060700     3.890400
H       0.523200     2.903000     2.311300
C      -0.295800     5.571800     4.173800
H      -0.274500     6.541900     4.037500
H       0.223600     5.342300     4.971800
H      -1.223400     5.279000     4.293300
C      -0.484100     5.247000     1.706300
H      -1.389000     4.877300     1.769100
H      -0.037400     4.882100     0.912900
H      -0.533600     6.223000     1.632800
