135
Refcode: MOLGOJ_comp_0 | Dataset: tmCAT | Charge: 0 | Potential Spins: [1, 3, 5]
Co     11.526000     2.390300     4.504400
P      11.353500     2.893700     2.352700
S      13.074200     7.843000     5.631700
S       5.841600     2.744600     5.463100
O      12.006300     8.776600     5.789400
O      13.976100     8.061100     4.591000
O       5.268100     4.032800     5.388200
O       5.413000     1.781700     4.518900
N      11.739700     4.159200     5.004500
N      13.373100     2.133200     4.594500
N      11.142200     0.576800     4.566400
N       9.758700     2.772500     4.937700
F      15.271500     4.627600     7.466300
F      17.524300     5.925400     7.994300
F      18.784300     7.276400     6.092000
F      17.723100     7.319100     3.589800
F      15.496300     5.989600     3.030200
F      14.350200    -1.467100     6.709700
F      15.815000    -3.687700     6.794100
F      16.574200    -4.884600     4.555800
F      15.683800    -3.954600     2.210200
F      14.282100    -1.668900     2.111600
F       6.928800    -0.592600     3.193800
F       4.953300    -2.194700     3.936400
F       4.557200    -2.675900     6.542500
F       6.169400    -1.596200     8.400700
F       8.108000     0.024900     7.619400
C      10.611500     4.898800     5.249100
C      10.935900     6.209000     5.530700
H      10.345500     6.899000     5.731300
C      12.306000     6.293600     5.453300
C      12.813700     5.009000     5.118900
C      14.118300     4.466000     4.962300
C      14.338700     3.121400     4.670200
C      15.611100     2.508800     4.566400
H      16.428400     2.953100     4.587500
C      15.452800     1.206600     4.436200
H      16.130400     0.574500     4.353500
C      14.034100     0.939300     4.445000
C      13.419200    -0.281800     4.374600
C      12.032400    -0.455100     4.443200
C      11.354800    -1.703800     4.478400
H      11.738900    -2.546800     4.393900
C      10.060100    -1.436000     4.657900
H       9.376800    -2.063700     4.721200
C       9.903500    -0.003100     4.735300
C       8.728700     0.665000     4.979900
C       8.635700     2.043200     5.071400
C       7.549600     2.957700     5.377600
C       8.088500     4.203800     5.442700
H       7.623500     4.989400     5.618700
C       9.477800     4.099300     5.196400
C      15.301300     5.257100     5.240300
C      15.860800     5.251000     6.479200
C      17.008400     5.909600     6.757200
C      17.631000     6.634400     5.798200
C      17.113500     6.631400     4.545300
C      15.979400     5.932500     4.281300
C      14.264700    -1.494000     4.388700
C      14.700800    -2.043900     5.551800
C      15.454800    -3.167700     5.616900
C      15.835700    -3.835900     4.499500
C      15.405500    -3.293800     3.329300
C      14.654700    -2.163600     3.271300
C       7.579900    -0.198900     5.388200
C       6.751100    -0.793700     4.496000
C       5.734300    -1.624200     4.837400
C       5.560500    -1.842000     6.162400
C       6.356300    -1.325300     7.125000
C       7.345800    -0.506500     6.690300
N      13.939900     7.672400     7.005300
C      13.212600     7.364300     8.226500
H      13.781200     6.842300     8.814300
H      12.434900     6.827300     8.010100
C      12.770900     8.621600     8.946200
H      12.078600     9.054700     8.420100
H      12.381500     8.373600     9.797900
C      13.855800     9.577500     9.180300
H      14.485900     9.207700     9.819000
H      13.494600    10.397300     9.551600
C      14.563600     9.876400     7.886900
H      13.965700    10.372300     7.306200
H      15.333300    10.438100     8.068200
C      15.014400     8.649600     7.184800
H      15.368600     8.894300     6.315500
H      15.731700     8.238900     7.691600
N       5.599300     2.096500     6.943700
C       4.190600     1.675400     7.086300
H       3.972000     1.041100     6.384100
H       3.612600     2.447500     6.980700
C       3.942000     1.058200     8.393700
H       4.389400     0.197700     8.420100
H       2.989800     0.896800     8.485200
C       4.401500     1.869900     9.556900
H       3.843100     2.658700     9.643100
H       4.319500     1.349900    10.369800
C       5.823100     2.277100     9.359800
H       6.085400     2.879600    10.072400
H       6.391600     1.491900     9.407300
C       6.014300     2.943700     8.059400
H       5.500600     3.765900     8.043500
H       6.950900     3.174000     7.953800
C      10.479500     1.818000     1.267000
C       9.721900     0.756100     1.650600
H       9.668300     0.546400     2.555100
C       9.020800    -0.020300     0.746100
H       8.473700    -0.712700     1.061100
C       9.109700     0.193000    -0.603600
H       8.627200    -0.312000    -1.215900
C       9.954900     1.196500    -1.001300
H      10.057000     1.362400    -1.911000
C      10.657500     1.975100    -0.091500
H      11.251000     2.614900    -0.403000
C      10.545900     4.480400     2.118700
C      11.224300     5.683000     2.315700
H      12.125700     5.670000     2.544500
C      10.564100     6.908900     2.176700
H      11.014100     7.711800     2.312200
C       9.216800     6.893600     1.828300
H       8.784200     7.697700     1.655900
C       8.505700     5.709600     1.733300
H       7.584700     5.718100     1.601300
C       9.194800     4.507200     1.837100
H       8.737400     3.705600     1.715700
C      12.946500     2.936600     1.523900
C      13.537900     4.042500     0.960800
H      13.127100     4.873500     1.043500
C      14.739500     3.938600     0.274500
H      15.095900     4.673600    -0.170700
C      15.399200     2.718900     0.262200
H      16.243600     2.668000    -0.124900
C      14.842200     1.578000     0.804200
H      15.273200     0.756000     0.756700
C      13.609200     1.718800     1.421800
H      13.206700     0.962300     1.784300
