70
Refcode: MOPLEJ_comp_0 | Dataset: tmCAT | Charge: 0 | Potential Spins: [1, 3, 5]
C       6.051700    -1.278100     4.424400
H       6.014300    -2.164400     4.840800
C       5.328100    -0.320400     5.419100
C       3.961500    -0.937800     5.723900
H       3.442700    -0.978400     4.916900
H       3.504400    -0.397300     6.372400
H       4.082400    -1.824300     6.072200
C       6.151500    -0.258900     6.706600
H       7.011000     0.124100     6.518200
H       6.265500    -1.145400     7.055600
H       5.694400     0.282800     7.353600
C       4.479000    -2.394400     2.785700
H       4.247600    -3.145100     3.283000
C       3.976600    -2.042300     1.568200
C       4.627500    -0.849900     1.234900
C       4.078900    -0.343600    -0.071400
C       2.644800     0.115700     0.312600
H       2.665800     0.712300     1.076900
H       2.216800     0.570300    -0.430800
C       1.899300    -1.196700     0.658600
H       1.572500    -1.181200     1.570800
H       1.151400    -1.341100     0.058700
C       2.977500    -2.290800     0.474700
H       2.648300    -3.210800     0.393800
C       3.761400    -1.739600    -0.744100
C       5.005900    -2.556900    -1.056700
H       5.549100    -2.627300    -0.267600
H       5.507200    -2.125000    -1.753600
H       4.747700    -3.435100    -1.346700
C       2.913500    -1.641800    -2.015900
H       2.121500    -1.128700    -1.834100
H       2.664600    -2.523500    -2.304000
H       3.420600    -1.211000    -2.706500
C       4.911700     0.643100    -0.869200
H       4.445300     0.877000    -1.675200
H       5.754900     0.242200    -1.092200
H       5.061700     1.433000    -0.345900
C       8.482500    -1.587600     4.945200
H       8.438100    -2.391100     5.410800
C       9.570900    -0.774100     4.831400
C       9.150600     0.299500     4.031400
C      10.326200     1.219500     3.786500
C      11.274900     0.367800     2.883100
H      10.798000     0.019100     2.114700
H      12.023900     0.900800     2.571600
C      11.765700    -0.789900     3.801000
H      11.527300    -1.654900     3.431000
H      12.727600    -0.754100     3.924800
C      11.022500    -0.530000     5.131900
H      11.380700    -0.991500     5.919900
C      11.026000     1.037600     5.197100
C      10.204900     1.602400     6.362200
H       9.320900     1.228900     6.342000
H      10.150200     2.558100     6.281000
H      10.629400     1.374500     7.192600
C      12.433300     1.644000     5.258300
H      12.962500     1.297000     4.536200
H      12.843900     1.416300     6.096100
H      12.372800     2.598700     5.180200
C      10.063000     2.619800     3.289100
H      10.898100     3.083100     3.180800
H       9.517500     3.087900     3.924800
H       9.608200     2.579600     2.445400
Cl      6.730200     2.955400     1.535800
N       5.470500    -0.445500     2.175000
N       5.391700    -1.428600     3.137300
N       7.884900     0.206100     3.682700
N       7.470500    -0.995000     4.244400
S       5.049900     1.398800     4.788600
Zn      6.311800     1.300900     2.907600
