85
Refcode: MORDOM_comp_0 | Dataset: tmCAT | Charge: 0 | Potential Spins: [1, 3, 5]
Ni      2.419700    14.321700     3.086000
P       3.558700    12.623700     3.802500
Si      0.185200    13.607800     1.117000
O       2.277700    17.858700     5.056900
N       0.914000    15.497900     2.852400
C       3.933900    12.674700     5.575200
N       2.932200    15.717100     4.436600
C       5.215500    12.276900     3.146800
C       2.677900    11.034500     3.775000
C       2.046500    13.589100     1.230900
C       2.670100    12.314300     0.665500
C       2.686800    14.748300     0.439700
C      -0.151200    15.203800     2.051400
C      -1.237200    16.079200     2.053400
C      -1.230700    17.229900     2.809200
C      -0.124700    17.508600     3.590500
C       0.910400    16.599300     3.610100
C       2.124100    16.777700     4.458200
C       4.186000    15.888800     5.131500
C       5.353100    16.058800     4.352200
C       6.577600    16.179400     5.011800
C       6.653300    16.155600     6.382000
C       5.509700    16.026500     7.131900
C       4.253800    15.885400     6.539100
C       3.038200    15.752800     7.438200
C       3.193200    14.651400     8.506100
C       2.740300    17.078600     8.135100
C       5.274400    16.169200     2.840600
C       6.566500    15.832700     2.100500
C       4.800700    17.578300     2.440100
C      -0.462600    13.786300    -0.663500
C      -0.624400    12.232700     2.151600
C      -0.000200    12.735900    -1.627400
C      -1.673900    14.245200    -0.973700
C      -0.616700    10.849200     1.374200
C      -1.985100    12.508100     2.612900
H       3.132900    12.866700     6.066000
H       4.585500    13.357900     5.746000
H       4.283000    11.823100     5.852000
H       5.158000    12.110400     2.202600
H       5.580500    11.505300     3.586600
H       5.787400    13.033300     3.301900
H       2.399900    10.839000     2.877900
H       1.908600    11.085400     4.344300
H       3.262900    10.339300     4.087200
H       2.251300    11.549500     1.066000
H       3.609900    12.304100     0.861800
H       2.540400    12.288800    -0.284600
H       2.321200    15.582800     0.744000
H       2.499800    14.639500    -0.494700
H       3.636800    14.744900     0.579100
H      -1.981200    15.880300     1.533200
H      -1.958000    17.809500     2.795500
H      -0.081200    18.292200     4.089100
H       7.357000    16.279700     4.513200
H       7.478300    16.227000     6.802100
H       5.574800    16.033300     8.058500
H       2.268200    15.525100     6.876700
H       2.355000    14.520500     8.953700
H       3.860100    14.918300     9.144100
H       3.463900    13.832200     8.084000
H       1.998100    16.966400     8.731900
H       2.525300    17.744900     7.479400
H       3.512000    17.357300     8.633700
H       4.590700    15.535300     2.538300
H       7.208500    16.531300     2.243800
H       6.386100    15.752800     1.162200
H       6.917600    15.003300     2.432300
H       4.653200    17.608900     1.492000
H       5.470200    18.220800     2.681600
H       3.981700    17.782300     2.897500
H       0.084200    14.542600    -0.965800
H      -0.068700    12.113800     2.950500
H      -0.311100    11.875800    -1.334900
H       0.959200    12.734200    -1.660800
H      -0.351200    12.926200    -2.499000
H      -1.720300    15.185100    -0.781300
H      -2.335400    13.779500    -0.457400
H      -1.839700    14.102400    -1.908100
H      -0.954100    10.159100     1.947400
H       0.279600    10.636700     1.109200
H      -1.172600    10.918900     0.594800
H      -2.507400    12.846300     1.884600
H      -1.958200    13.159100     3.317600
H      -2.381200    11.697300     2.942700
