80
Refcode: MORLAH_comp_0 | Dataset: tmCAT | Charge: 0 | Potential Spins: [1, 3, 5]
Pd      4.609000     4.906200     7.262800
F       4.533500     6.915200    11.486500
F       6.098800     7.445400    10.089800
F       5.382100     5.417000    10.177600
F       0.254700     5.815100     5.657800
F       0.949400     3.781500     5.838600
F       2.296500     5.326600     5.173300
O       4.355000     6.813600     7.889600
O       2.744600     4.506500     7.889300
N       6.473400     5.344000     6.370800
N       4.912300     2.901200     6.701100
C       6.773700     6.803600     6.587100
C       7.925700     7.354100     5.752100
C       7.630800     7.160600     4.270800
C       7.406800     5.673200     4.013800
C       6.296800     5.067300     4.893300
C       6.185100     3.552600     4.617800
C       4.937000     2.893000     5.205900
C       3.793000     1.985300     7.134700
C       3.691700     1.853700     8.646400
C       5.011400     1.436200     9.281700
C       6.137300     2.344700     8.788900
C       6.194100     2.341900     7.263700
C       7.419900     3.025400     6.667600
C       7.561400     4.520300     6.978700
C       7.419700     2.817400     5.160900
C       3.905900     7.022000     9.183100
C       4.975900     6.697800    10.229000
C       3.490300     8.478600     9.368500
C       4.235000     9.493800     8.759500
C       3.915300    10.830900     8.966300
C       2.838300    11.173000     9.783600
C       2.065200    10.175500    10.366000
C       2.396400     8.828700    10.157000
C       1.722600     5.349400     7.504900
C       1.304300     5.064100     6.051900
C       0.510000     5.167100     8.422500
C       0.197100     3.895000     8.895700
C      -0.893200     3.696200     9.729500
C      -1.683000     4.801700    10.109900
C      -1.360200     6.064600     9.658900
C      -0.272200     6.252500     8.814000
H       6.882300     6.857300     7.401100
H       5.962800     7.288700     6.265000
H       8.074100     8.259300     5.956200
H       8.884800     6.865200     6.022400
H       8.288800     7.457100     3.772200
H       6.945300     7.654300     3.992800
H       8.251200     5.198900     4.136200
H       7.262200     5.497500     3.132500
H       5.473500     5.444800     4.555400
H       6.090600     3.412900     3.584700
H       4.133000     3.323500     4.842200
H       4.888300     2.038500     4.875200
H       3.988200     1.117900     6.662100
H       2.929500     2.288400     6.750300
H       3.124000     1.315200     9.011500
H       3.339200     2.669800     9.088700
H       5.319300     0.486600     9.055600
H       4.995700     1.354600    10.246800
H       6.023800     3.222200     9.154900
H       6.908600     2.091100     9.033500
H       6.256900     1.433500     6.982000
H       8.101300     2.525100     7.125400
H       7.493700     4.634700     7.908500
H       8.411100     4.813600     6.635600
H       7.317300     1.920200     5.007600
H       8.131600     3.209000     4.753900
H       3.201500     6.394400     9.540900
H       4.937700     9.258900     8.228300
H       4.304700    11.402600     8.603400
H       2.670100    11.994400     9.860800
H       1.314600    10.350500    10.776300
H       1.999500     8.219900    10.677000
H       1.971300     6.247100     7.478300
H       0.692300     3.156400     8.658500
H      -1.124200     2.932900    10.103400
H      -2.620500     4.597900    10.599800
H      -1.860500     6.707400     9.772500
H      -0.142800     7.117800     8.448900
