58
Refcode: MOTGAF_comp_0 | Dataset: tmCAT | Charge: 0 | Potential Spins: [1, 3, 5]
Ni      2.753700     3.111700     8.521200
Cl      3.748700     2.158300    10.262800
Cl      0.590200     3.413800     8.385600
N       3.999500     4.540500     7.879200
N       3.477900     2.155700     6.923400
C       3.348900    -0.892100     4.839300
H       3.814100    -1.304000     4.120100
C       1.994400     0.266400     7.003200
H       1.541100     0.636700     7.751100
C       3.106900     0.933400     6.446500
C       3.812700     0.346800     5.363600
C       4.486100     2.815100     6.355000
C       4.708300     4.192700     6.868600
C       5.717900     5.024000     6.140300
H       6.031800     5.757500     6.727500
H       5.301600     5.427300     5.338500
C       5.282700     2.274900     5.320200
C       4.929800     1.025700     4.847100
H       5.449800     0.619700     4.163100
C       2.248800    -1.486900     5.360000
H       1.929200    -2.296500     4.981200
C       1.570900    -0.914400     6.461500
H       0.813000    -1.355100     6.828300
C       6.446200     3.056500     4.771700
H       6.185800     3.462700     3.907800
H       7.200500     2.439500     4.602300
C       6.904400     4.156800     5.722700
H       7.585800     4.719100     5.275300
H       7.318700     3.750400     6.524700
C       4.130500     5.853700     8.474900
C       5.137100     6.076500     9.420300
C       5.209400     7.341100    10.001500
H       5.886700     7.519500    10.643400
C       2.114100     6.619100     7.084300
H       2.109000     5.645200     6.855100
C       4.322000     8.338200     9.665400
H       4.390800     9.194700    10.071100
C       3.329300     8.089100     8.735800
H       2.721700     8.782700     8.510100
C       6.160400     5.017800     9.806500
H       5.934900     4.172600     9.320200
C       3.200100     6.849100     8.124200
C       2.418500     7.400300     5.806000
H       3.304500     7.148400     5.471500
H       2.404900     8.362200     5.999400
H       1.742500     7.194300     5.127600
C       6.114800     4.732700    11.304300
H       5.210400     4.451800    11.555500
H       6.355200     5.544700    11.798700
H       6.750600     4.019400    11.520600
C       0.730100     6.981900     7.626200
H       0.551900     6.464000     8.438900
H       0.050000     6.775600     6.951900
H       0.702300     7.938300     7.835800
C       7.565500     5.451100     9.383300
H       7.576500     5.628100     8.420100
H       8.204300     4.736100     9.590200
H       7.817000     6.264800     9.868300
