53
Refcode: MOTVUN_comp_0 | Dataset: tmCAT | Charge: 0 | Potential Spins: [1, 3, 5]
Br     16.626500    -4.393000    -4.207000
Br     16.935400    -0.816600    -6.009000
Ni     16.026300    -2.144300    -4.293500
N      14.004000    -1.813500    -4.063200
N      16.079100    -1.280200    -2.478800
C      14.975300    -0.724400    -2.196900
H      14.880900    -0.320800    -1.363900
C      13.822800    -0.690700    -3.142900
C      12.524100    -0.600800    -2.413000
H      12.377900    -1.411000    -1.919200
H      11.810000    -0.477100    -3.042700
H      12.548400     0.143000    -1.806200
C      13.994800     0.660000    -3.920100
H      14.824600     0.648800    -4.402400
H      13.997900     1.389500    -3.296100
H      13.267100     0.769300    -4.535500
C      13.282300    -1.720500    -5.382700
H      12.347500    -1.565200    -5.225300
H      13.393400    -2.542000    -5.866500
H      13.644600    -0.994100    -5.895100
C      13.439100    -3.091700    -3.394800
H      12.492100    -2.992600    -3.263100
H      13.866900    -3.225500    -2.546100
H      13.605100    -3.849800    -3.958700
C      17.181400    -1.219900    -1.555700
C      18.053800    -0.100100    -1.617300
C      19.099800    -0.089900    -0.691300
H      19.698100     0.622200    -0.698400
C      19.274900    -1.089100     0.223300
H      19.976700    -1.041100     0.831500
C      18.429900    -2.153700     0.251900
H      18.565400    -2.832200     0.873000
C      17.353500    -2.241600    -0.648300
C      17.858900     1.003300    -2.617700
H      17.248400     0.661000    -3.304600
C      16.348600    -3.384900    -0.516700
H      15.872100    -3.463600    -1.369700
C      19.093700     1.429400    -3.311800
H      19.512400     0.666100    -3.716800
H      19.696600     1.825800    -2.679200
H      18.874400     2.072000    -3.990200
C      17.138800     2.228300    -1.933600
H      17.020000     2.930200    -2.579000
H      17.676200     2.550200    -1.206500
H      16.281600     1.951400    -1.601500
C      15.331600    -3.083500     0.551000
H      14.925100    -2.231400     0.375000
H      15.764000    -3.060000     1.406900
H      14.657100    -3.766000     0.552400
C      16.988100    -4.744800    -0.211800
H      16.301400    -5.411900    -0.143100
H      17.469200    -4.692700     0.616800
H      17.592500    -4.978700    -0.920300
