47
Refcode: MOYWIG_comp_0 | Dataset: tmCAT | Charge: 0 | Potential Spins: [1, 3, 5]
Pd      3.805600    11.156200    14.573700
Cl      4.151000    13.411300    14.746800
Cl      3.201500    11.084600    16.771000
N       3.645100     9.157900    14.269800
C       3.359900     8.239400    15.198200
H       3.135300     8.541100    16.070900
C       3.372100     6.890500    14.965400
H       3.148500     6.287100    15.663600
C       3.710400     6.400500    13.713900
C       3.989600     7.367000    12.728700
H       4.192400     7.084600    11.845600
C       3.975100     8.715900    13.019600
C       4.236100     9.786200    12.062900
C       4.463500     9.607500    10.713100
H       4.476400     8.725500    10.360100
C       4.673700    10.677800     9.855900
C       4.671300    11.936400    10.450600
H       4.824900    12.706900     9.914000
C       4.450300    12.086200    11.796500
H       4.443500    12.960500    12.167600
N       4.245400    11.048600    12.595500
C       3.785100     4.903700    13.460500
C       2.467900     4.244600    13.971200
H       2.510000     3.276200    13.826400
H       1.705600     4.615400    13.479900
H       2.359700     4.427100    14.927900
C       3.950600     4.571200    11.986600
H       4.791200     4.953600    11.658200
H       3.201100     4.949800    11.479700
H       3.966300     3.599000    11.870200
C       4.961900     4.327200    14.272400
H       5.801500     4.717300    13.953100
H       4.990700     3.353000    14.158700
H       4.841300     4.540500    15.220100
C       4.833700    10.535600     8.339300
C       6.061600    11.323400     7.837600
H       6.870200    10.975600     8.269500
H       5.954500    12.270700     8.057400
H       6.140400    11.219600     6.866600
C       3.554400    11.112000     7.695400
H       2.773200    10.618200     8.022500
H       3.611300    11.023600     6.720500
H       3.465100    12.057400     7.933300
C       4.979900     9.065600     7.930700
H       4.196100     8.562200     8.235800
H       5.788200     8.692900     8.339300
H       5.048100     9.004100     6.954600
