139
Refcode: MOZMAR_comp_0 | Dataset: tmCAT | Charge: unknown | Potential Spins: [1, 3, 5]
C       8.933800    11.204500    11.495000
C       8.904900    12.501900    10.984300
H       9.319200    13.205200    11.472300
C       8.279300    12.785900     9.773100
H       8.253300    13.679000     9.452000
C       7.692000    11.767300     9.030800
H       7.280400    11.956500     8.195000
C       7.712900    10.474500     9.523000
H       7.317700     9.772200     9.018900
C       8.313100    10.190000    10.760700
H       8.296200     9.302400    11.099800
C       9.235400     9.184100    13.402100
C      10.051300     8.127800    12.981000
H      10.905700     8.320100    12.611800
C       9.640900     6.803200    13.089800
H      10.204800     6.104000    12.780600
C       8.407700     6.503200    13.649500
H       8.126400     5.599400    13.736600
C       7.586800     7.540700    14.081400
H       6.742500     7.339300    14.466900
C       7.987800     8.874900    13.956600
H       7.412800     9.572300    14.248600
C       8.670300    11.837100    14.244700
C       7.452800    12.394900    13.845300
H       7.156900    12.279800    12.949400
C       6.666100    13.119800    14.740700
H       5.846200    13.500400    14.448600
C       7.075400    13.287600    16.057900
H       6.543800    13.789600    16.665200
C       8.268900    12.713700    16.479500
H       8.548200    12.809400    17.382700
C       9.055300    11.998600    15.581900
H       9.869800    11.612100    15.881700
C      13.332800     8.526600    11.697600
C      13.582400     7.924000    12.938200
H      13.763200     8.473200    13.692600
C      13.572800     6.543300    13.093500
H      13.753000     6.159100    13.944000
C      13.298700     5.722500    11.998400
H      13.281700     4.778300    12.099800
C      13.051900     6.298000    10.757500
H      12.863700     5.744000    10.008000
C      13.078800     7.685400    10.605400
H      12.922400     8.065700     9.749200
C      12.898900    10.567500     9.817700
C      11.561500    10.401700     9.432100
H      10.902800    10.231200    10.094200
C      11.182200    10.481600     8.095500
H      10.271400    10.360900     7.851900
C      12.138600    10.738800     7.114400
H      11.883700    10.793100     6.200400
C      13.464400    10.914300     7.482800
H      14.118600    11.097800     6.818800
C      13.846200    10.823100     8.825500
H      14.758600    10.935900     9.064800
C      15.143200    10.695600    11.515800
C      16.100400     9.688800    11.341600
H      15.824600     8.783100    11.268600
C      17.458100    10.007600    11.274100
H      18.100700     9.315500    11.171300
C      17.876800    11.329600    11.355000
H      18.800400    11.545200    11.297900
C      16.932700    12.333700    11.520500
H      17.210000    13.240500    11.573200
C      15.581800    12.016300    11.611000
H      14.946800    12.711600    11.740200
C      13.168000    14.376100    11.114600
C      12.581000    13.853300     9.953100
H      11.842300    13.260600    10.026300
C      13.068500    14.192100     8.694300
H      12.659200    13.834700     7.916100
C      14.154500    15.053200     8.573700
H      14.495200    15.273600     7.714200
C      14.736500    15.586400     9.709200
H      15.474800    16.179300     9.628100
C      14.247200    15.258600    10.971500
H      14.649800    15.638100    11.743800
C      10.991800    14.958600    12.816000
C      10.686400    15.856000    11.791000
H      11.257300    15.909200    11.033700
C       9.558300    16.676300    11.856000
H       9.366100    17.277400    11.145600
C       8.721300    16.612600    12.957100
H       7.944200    17.157100    12.999000
C       9.024300    15.749400    13.998800
H       8.461700    15.716200    14.764200
C      10.150700    14.929200    13.929800
H      10.347800    14.342500    14.650400
C      13.611100    14.874300    13.838800
C      13.355500    16.226000    14.103600
H      12.550200    16.621900    13.791700
C      14.272000    16.997600    14.822000
H      14.086900    17.914000    14.991700
C      15.445100    16.436100    15.287000
H      16.069300    16.963300    15.771600
C      15.705300    15.093600    15.039800
H      16.509200    14.701500    15.360600
C      14.791300    14.317700    14.321800
H      14.977600    13.400600    14.162300
C      12.281900    11.855400    16.785600
C      12.249000    13.251100    16.723200
H      12.519100    13.688800    15.923900
C      11.828300    14.012800    17.810400
H      11.823900    14.960900    17.753400
C      11.415000    13.383900    18.977900
H      11.120400    13.900100    19.718600
C      11.434100    12.002900    19.056800
H      11.144500    11.572100    19.852600
C      11.877500    11.235500    17.971600
H      11.904000    10.288200    18.041500
C      14.733900    11.072300    15.662800
C      15.250900    11.671900    16.815200
H      14.661900    12.074800    17.441400
C      16.626600    11.683100    17.050800
H      16.965100    12.105300    17.832300
C      17.501000    11.088200    16.165200
H      18.433400    11.082200    16.344100
C      17.004600    10.496700    15.006100
H      17.597500    10.091300    14.384400
C      15.635600    10.502800    14.762600
H      15.306200    10.109700    13.964200
C      12.658900     9.211400    15.946300
C      13.684000     8.379500    16.417700
H      14.585100     8.680900    16.384500
C      13.399000     7.115600    16.935900
H      14.105600     6.555400    17.235900
C      12.082000     6.673400    17.012600
H      11.883200     5.821600    17.382700
C      11.057200     7.489500    16.542100
H      10.155600     7.191000    16.588200
C      11.345400     8.735600    16.005000
H      10.638600     9.274300    15.670700
P       9.814200    10.914500    13.106300
P      13.322400    10.378200    11.607700
P      12.487000    13.858200    12.759700
P      12.923400    10.930600    15.311400
Ru     12.050900    11.664100    13.205800
H      11.179600    12.689800    14.215600
H      11.322100    12.320500    11.784200
