53
Refcode: MUBBAO_comp_0 | Dataset: tmCAT | Charge: unknown | Potential Spins: [1, 3, 5]
C      -2.480100     2.520900     5.953900
C      -2.429000     2.956300     4.614000
C      -1.117300     2.719700     4.128100
C      -0.361200     2.115000     5.151300
C      -1.212300     1.997400     6.288500
C      -3.701800     2.448200     6.829700
H      -3.676600     3.176000     7.485600
H      -3.717500     1.587300     7.298400
H      -4.506400     2.533500     6.276800
C      -3.616100     3.468600     3.841100
H      -3.375500     3.561000     2.895800
H      -3.885600     4.340600     4.196700
H      -4.359700     2.835900     3.928400
C      -0.584800     3.071100     2.753100
H      -1.333200     3.374800     2.180600
H      -0.192900     2.262000     2.338200
C       1.002900     1.506100     5.028100
H       1.589700     1.875700     5.720700
H       1.373600     1.709100     4.143700
H       0.938200     0.534700     5.139600
C      -0.876700     1.265400     7.562800
H       0.085600     1.334000     7.736000
H      -1.126600     0.321900     7.473100
H      -1.372200     1.664300     8.309200
C       0.473600     4.164300     2.816300
H       1.278300     3.807300     3.269400
H       0.732800     4.413400     1.893600
C      -1.094700     6.011900     2.804600
H      -1.889200     5.440800     2.862300
H      -0.845100     6.129500     1.864000
H      -1.289900     6.885400     3.203900
C       1.149800     6.340900     3.509600
H       1.928100     5.941900     3.951800
H       0.890100     7.159700     3.980700
H       1.377100     6.556400     2.580700
C       0.078000     4.570200     8.284300
H      -0.343400     5.405800     8.120500
H      -0.226800     4.015900     8.992400
C       1.135800     4.160100     7.490300
H       1.524400     3.317400     7.693100
C       1.679000     4.858500     6.433500
H       1.324600     5.706800     6.192500
H       2.407300     4.493200     5.946100
C      -2.976300     5.837000     6.729900
H      -2.534600     5.389000     7.441900
H      -3.873300     5.611600     6.511500
C      -2.330700     6.793000     6.028000
H      -2.841400     7.191900     5.333800
C      -1.057200     7.280100     6.156600
H      -0.481300     6.933000     6.828200
H      -0.749300     7.964600     5.574800
N       0.019200     5.376400     3.531500
Y      -0.855100     4.642300     5.848400
