77
Refcode: MUFJON_comp_0 | Dataset: tmCAT | Charge: -2 | Potential Spins: [1, 3, 5]
Pd      2.884000    12.608800     5.994600
Cl      4.221100    14.180200     4.671800
O       0.351500    14.883900     2.679200
N       1.586200    15.058100     7.143700
N       0.415800    14.201000     5.530100
N       4.231200    10.964000     5.750000
C       1.543900    14.018800     6.266300
C       0.514100    15.907400     6.955400
C       0.140500    17.076700     7.596500
H       0.634800    17.428400     8.302400
C      -1.019000    17.700900     7.129300
H      -1.310700    18.488400     7.531800
C      -1.745600    17.160600     6.065500
H      -2.501000    17.613800     5.766200
C      -1.393600    15.997700     5.452700
H      -1.900400    15.639600     4.761000
C      -0.234700    15.367100     5.909800
C       0.008800    13.323200     4.437400
H      -0.946200    13.418300     4.295800
H       0.180600    12.402700     4.692200
C       0.726900    13.616300     3.153100
H       1.685200    13.592600     3.300700
H       0.505000    12.941400     2.491700
C       1.054000    15.235600     1.531000
H       0.759300    16.097500     1.227700
H       0.894000    14.582800     0.845400
H       1.992700    15.270400     1.729200
C       2.699300    15.325900     8.077900
H       2.443200    16.053100     8.666400
H       3.470700    15.619000     7.568200
C       3.103900    14.134400     8.928200
C       4.456800    13.725700     8.941500
C       4.803300    12.573800     9.675700
C       3.834100    11.843400    10.357300
C       2.508800    12.294900    10.381500
C       2.156600    13.465800     9.704600
C       5.522500    14.519400     8.219500
H       6.376400    14.099600     8.346900
H       5.549700    15.413000     8.573400
H       5.317900    14.552700     7.283100
C       6.255000    12.146000     9.724200
H       6.339300    11.358600    10.264200
H       6.785300    12.852700    10.100400
H       6.562200    11.957500     8.834300
C       4.207200    10.567900    11.051000
H       3.429800    10.192400    11.471700
H       4.874800    10.748600    11.716400
H       4.554900     9.943700    10.409900
C       1.437100    11.507500    11.093500
H       0.594500    11.957500    11.004500
H       1.661600    11.429900    12.023800
H       1.374000    10.629700    10.707200
C       0.745100    14.002900     9.791000
H       0.671200    14.796700     9.257000
H       0.537000    14.212100    10.705100
H       0.130700    13.340600     9.465300
C       3.856700    10.238400     4.508200
H       3.897200    10.840500     3.761900
H       2.964000     9.896200     4.595100
H       4.465600     9.509600     4.366600
C       5.664400    11.292000     5.667100
H       5.940100    11.727700     6.476100
H       5.816800    11.876700     4.920800
H       6.172000    10.485600     5.549800
C       3.989700    10.083100     6.910900
H       4.484700    10.407900     7.677400
H       4.298100     9.184800     6.708700
C       2.520900    10.056200     7.228400
C       1.920800     8.936000     7.782600
H       2.421300     8.170800     7.956500
C       0.559700     8.969300     8.079900
H       0.142500     8.229400     8.456100
C      -0.151900    10.099000     7.813000
H      -1.061800    10.113200     8.003100
C       0.432200    11.216000     7.277000
H      -0.088700    11.971700     7.125300
C       1.796900    11.247700     6.947300
