116
Refcode: MUQLAN_comp_1 | Dataset: tmCAT | Charge: unknown | Potential Spins: [1, 3, 5]
C       0.423100     4.716100    12.718700
H       0.783400     5.436200    12.146200
H       0.095200     5.130200    13.558300
C      -0.744400     4.029000    12.000600
H      -1.159000     3.364200    12.604000
H      -1.432100     4.703100    11.765600
C      -0.266400     3.339400    10.742400
H      -1.030800     2.895200    10.298300
H       0.107200     4.010400    10.116300
C       1.970800     2.958800    11.791500
H       2.428800     3.580100    11.169800
H       2.618500     2.255200    12.052400
C       3.347300     6.012600    12.917900
H       3.388600     5.796500    11.953100
H       2.621700     6.671000    13.056300
C       4.654500     6.594000    13.366300
C       5.028700     7.904900    13.520800
H       4.507300     8.670000    13.304500
C       5.680600     2.632700    11.777200
H       4.765800     2.805100    11.440100
H       6.270700     3.222900    11.247100
C       6.001100     1.225900    11.243800
C       4.935400     0.234500    11.712600
H       4.942200     0.184800    12.692300
H       5.124100    -0.650800    11.340800
H       4.052500     0.535900    11.407000
C       7.351000     0.764200    11.778800
H       7.320300     0.731600    12.758400
H       8.047700     1.391700    11.495300
H       7.553100    -0.128900    11.429100
C       2.332200     5.131900    15.494900
H       1.549200     5.715800    15.284800
C       3.358200     5.984000    16.254500
H       4.172000     5.445500    16.421100
H       3.614200     6.762600    15.698500
C       1.830900     3.982100    16.385800
H       1.117400     3.486900    15.908100
H       2.576300     3.353400    16.559000
C       0.792200     2.312700    11.072200
H       1.108600     1.885600    10.237600
H       0.400000     1.609100    11.644200
C       1.284300     4.494500    17.724500
H       0.479100     5.047900    17.562900
H       1.018800     3.724600    18.285500
C       2.325800     5.320500    18.457600
H       3.098200     4.748100    18.693600
H       1.938200     5.676900    19.294900
C       2.792000     6.471900    17.578300
H       2.028200     7.077900    17.402900
H       3.486500     6.987800    18.059300
C       6.052000     1.208400     9.714200
H       6.338000     0.323100     9.404700
H       6.689000     1.884000     9.399200
H       5.161600     1.407200     9.355100
C       1.534200     3.728000    13.045800
H       1.148100     3.056700    13.679600
N       5.681000     5.750900    13.789900
P       3.002100     4.480700    13.888800
Sc      5.681000     3.576700    13.789900
C      10.938900     4.716100    14.861100
H      10.578600     5.436200    15.433700
H      11.266800     5.130200    14.021600
C      12.106400     4.029000    15.579300
H      12.521000     3.364200    14.975900
H      12.794100     4.703100    15.814300
C      11.628400     3.339400    16.837500
H      12.392800     2.895200    17.281500
H      11.254800     4.010400    17.463600
C       9.391200     2.958800    15.788400
H       8.933200     3.580100    16.410000
H       8.743500     2.255200    15.527500
C       8.014700     6.012600    14.662000
H       7.973400     5.796500    15.626800
H       8.740200     6.671000    14.523600
C       6.707500     6.594000    14.213600
C       6.333300     7.904900    14.059100
H       6.854700     8.670000    14.275300
C       9.029800     5.131900    12.084900
H       9.812800     5.715800    12.295100
C       8.003700     5.984000    11.325400
H       7.189900     5.445500    11.158800
H       7.747700     6.762600    11.881400
C       9.531100     3.982100    11.194100
H      10.244500     3.486900    11.671800
H       8.785700     3.353400    11.020900
C      10.569700     2.312700    16.507700
H      10.253400     1.885600    17.342200
H      10.962000     1.609100    15.935600
C      10.077700     4.494500     9.855400
H      10.882900     5.047900    10.017000
H      10.343200     3.724600     9.294400
C       9.036200     5.320500     9.122300
H       8.263800     4.748100     8.886200
H       9.423800     5.676900     8.285000
C       8.569900     6.471900    10.001600
H       9.333800     7.077900    10.177000
H       7.875500     6.987800     9.520600
C       9.827800     3.728000    14.534000
H      10.213900     3.056700    13.900300
P       8.359900     4.480700    13.691100
C       5.681400     2.632700    15.802700
H       6.596200     2.805100    16.139700
H       5.091300     3.222900    16.332800
C       5.360900     1.225900    16.336100
C       6.426600     0.234500    15.867300
H       6.419800     0.184800    14.887600
H       6.237900    -0.650800    16.239000
H       7.309500     0.535900    16.172800
C       4.010900     0.764200    15.801100
H       4.041600     0.731600    14.821400
H       3.314300     1.391700    16.084600
H       3.808900    -0.128900    16.150800
C       5.310000     1.208400    17.865700
H       5.024000     0.323100    18.175100
H       4.673000     1.884000    18.180700
H       6.200400     1.407200    18.224800
