63
Refcode: NABYUN_comp_0 | Dataset: tmCAT | Charge: unknown | Potential Spins: [1, 3, 5]
Ru      7.429800     6.033000     2.306700
Cl      5.107800     6.027600     3.014900
C      10.732800     5.524300     5.491300
C       9.489400     6.402000     5.786300
C       8.198400     6.318300     5.229600
C      11.826400     6.428100     4.900100
H      11.529900     6.779200     4.057200
H      12.627900     5.916200     4.770600
H      12.002900     7.153600     5.504700
C      11.249800     4.912900     6.808300
H      11.454100     5.616500     7.428400
H      12.041500     4.400100     6.634200
H      10.574900     4.341800     7.182600
C       7.205600     7.236700     5.601000
H       6.363300     7.172300     5.212400
C      10.518500     4.356900     4.514100
H      11.362600     3.944200     4.318500
H      10.127000     4.687000     3.701300
H       9.932100     3.709700     4.911600
C       9.686700     7.430900     6.722400
H      10.527200     7.516300     7.110400
C       7.442100     8.234600     6.527800
H       6.770300     8.833000     6.763100
C       8.700900     8.324200     7.099500
H       8.881600     8.981100     7.732700
N       7.777200     5.340600     4.259200
O       7.059800     4.090300     1.715700
C       7.375300     4.169000     4.699600
C       6.960700     3.069500     2.493400
C       7.011400     3.082800     3.869800
H       6.781600     2.291600     4.301300
C       7.319400     3.908500     6.189900
H       6.733800     4.545900     6.604900
H       8.199300     3.993100     6.563700
H       6.989400     3.020500     6.347100
C       6.793100     1.756000     1.771400
H       7.586000     1.565100     1.265300
H       6.040500     1.811100     1.177600
H       6.645400     1.055400     2.412000
C       6.940900     7.738900     1.044400
H       5.998100     7.987400     0.940400
C       8.885100     7.643100     2.463500
H       9.287400     7.818300     3.340300
C       7.078500     9.352400     3.008200
H       7.588600     9.440600     3.816500
H       6.165300     9.150200     3.225100
H       7.114900    10.175300     2.516800
C       7.654100     8.241000     2.170600
C       7.462300     6.727700     0.218700
H       6.874400     6.296400    -0.436700
C       8.711700     6.109900     0.544300
C       9.441600     6.587900     1.662800
H      10.214800     6.083000     1.990800
C       9.165200     4.930200    -0.281800
H       8.361400     4.439800    -0.553600
C      10.056600     3.952700     0.473600
H       9.632300     3.705100     1.298000
H      10.901700     4.368700     0.660200
H      10.198200     3.168600    -0.061900
C       9.848700     5.427600    -1.564200
H      10.651200     5.902200    -1.335800
H       9.254000     6.014200    -2.037200
H      10.068000     4.677700    -2.121400
