106
Refcode: NAKCOR_comp_0 | Dataset: tmCAT | Charge: 1 | Potential Spins: [1, 3, 5]
Rh     -0.575600    -0.000400     4.464000
P      -0.395500    -2.337100     4.664900
P      -0.222200    -0.103400     2.116600
P       1.710100     0.167500     4.736600
C      -2.604100    -0.080600     5.350700
C      -2.702600     0.671900     4.144800
C      -2.416900     2.044900     4.498100
C      -1.021500     2.065000     4.988000
C      -1.040600     1.395000     6.179100
C      -2.403000     0.999600     6.442700
C      -3.172700     2.147400     5.886000
C       1.799700    -1.991800     2.869400
C       1.260500    -2.914500     4.024400
C       0.759800    -1.634800     1.778600
C       2.588700    -0.787200     3.430100
C       1.438300    -4.388200     3.685800
C       1.001200    -4.937400     2.475900
C       1.282400    -6.240900     2.152000
C       2.010800    -7.029900     3.016600
C       2.454600    -6.511800     4.243900
C       2.145600    -5.184500     4.551700
C      -0.522700    -3.002300     6.361100
C      -1.804200    -3.165300     6.920500
C      -1.965900    -3.500300     8.248100
C      -0.870200    -3.710800     9.029700
C       0.369400    -3.582700     8.545300
C       0.564400    -3.222000     7.217600
C      -1.705600    -3.355700     3.894500
C      -1.794500    -4.726900     4.162200
C      -2.871900    -5.451800     3.668400
C      -3.864200    -4.827600     2.936300
C      -3.773500    -3.498500     2.645900
C      -2.682600    -2.757000     3.150400
C       0.685500     1.299800     1.367800
C       0.358100     2.597800     1.723800
C       0.957800     3.687000     1.092100
C       1.921900     3.494800     0.168600
C       2.265500     2.217000    -0.244900
C       1.640100     1.116700     0.386800
C      -1.645700    -0.247100     0.942200
C      -1.929600    -1.380300     0.224800
C      -3.101000    -1.457200    -0.536700
C      -3.952000    -0.388100    -0.623700
C      -3.604600     0.783500     0.009400
C      -2.488500     0.856800     0.805700
C       2.437100    -0.393600     6.320900
C       1.708600    -0.366100     7.485300
C       2.260500    -0.633400     8.744700
C       3.603500    -0.981300     8.783500
C       4.326000    -1.071000     7.655300
C       3.765500    -0.778000     6.430700
C       2.448900     1.841700     4.682800
C       2.313800     2.643500     5.837800
C       2.808000     3.937800     5.845800
C       3.467900     4.428500     4.756400
C       3.633000     3.674200     3.651000
C       3.107100     2.359800     3.586700
H      -3.096900    -0.926300     5.507200
H      -3.257200     0.404600     3.369900
H      -2.652100     2.727700     3.820900
H      -0.398300     2.812000     4.803300
H      -0.392200     1.581700     6.904500
H      -2.614500     0.734100     7.372900
H      -3.007300     2.991400     6.357100
H      -4.135300     1.971700     5.817700
H       2.477100    -2.541000     2.402300
H       1.884600    -2.758900     4.776500
H       0.139500    -2.387200     1.679600
H       1.228400    -1.523100     0.924800
H       2.801300    -0.181200     2.690000
H       3.437200    -1.113100     3.798200
H       0.508100    -4.406500     1.877700
H       0.976300    -6.596000     1.338300
H       2.211200    -7.917800     2.783700
H       2.945600    -7.042700     4.843400
H       2.429600    -4.827600     5.372100
H      -2.563200    -3.040800     6.379800
H      -2.829300    -3.584500     8.612200
H      -0.988500    -3.952500     9.931800
H       1.110000    -3.736500     9.104700
H       1.439200    -3.125000     6.888400
H      -1.130500    -5.153400     4.672100
H      -2.926600    -6.376300     3.833000
H      -4.605700    -5.321800     2.636500
H      -4.427500    -3.081100     2.115900
H      -2.628700    -1.836200     2.973800
H      -0.277700     2.747900     2.401000
H       0.689800     4.560300     1.312900
H       2.365900     4.236200    -0.200700
H       2.897400     2.085200    -0.927500
H       1.880000     0.245300     0.133800
H      -1.334300    -2.107100     0.243600
H      -3.306700    -2.253600    -0.994400
H      -4.757100    -0.454000    -1.104100
H      -4.141000     1.546900    -0.107100
H      -2.291000     1.655000     1.260700
H       0.792900    -0.159300     7.433100
H       1.744300    -0.578500     9.528900
H       4.012900    -1.157000     9.611900
H       5.226400    -1.338200     7.702100
H       4.294500    -0.838500     5.655800
H       1.888800     2.299400     6.600700
H       2.687900     4.481600     6.603300
H       3.811400     5.301700     4.776500
H       4.102900     4.023900     2.916200
H       3.206400     1.847200     2.805100
