63
Refcode: NANFIT_comp_0 | Dataset: tmCAT | Charge: unknown | Potential Spins: [1, 3, 5]
Pd     14.402900     5.829600     3.596100
O      15.316400     6.302100     7.600500
N      14.758100     5.708400     5.533900
N      14.993300     7.706400     3.599300
C      15.488800     8.451400     4.597700
C      15.952100     9.766600     4.371000
H      15.926100    10.107800     3.506400
C      16.441200    10.561000     5.380500
H      16.744400    11.418700     5.186400
C      16.487400    10.092000     6.691000
H      16.805400    10.637000     7.373700
C      16.063300     8.829700     6.959300
H      16.085500     8.522300     7.836200
C      15.588000     7.972000     5.942100
C      14.888700     8.263500     2.287000
C      15.911100     8.024800     1.357500
C      15.754900     8.526500     0.068700
H      16.416200     8.369100    -0.565900
C      14.644400     9.245900    -0.281800
H      14.561400     9.572300    -1.149300
C      13.652100     9.492000     0.636300
H      12.908300     9.988500     0.382400
C      13.740900     9.010300     1.942800
C      17.144200     7.224100     1.747100
H      16.922600     6.735000     2.567800
C      18.318300     8.101900     2.062500
H      19.070500     7.555800     2.300500
H      18.097400     8.679700     2.798100
H      18.538200     8.632200     1.293700
C      17.540700     6.204800     0.722000
H      18.322500     5.734700     1.022400
H      17.731600     6.644200    -0.109300
H      16.821800     5.581500     0.595100
C      12.623400     9.263800     2.942300
H      12.983300     9.069500     3.832200
C      11.485700     8.311000     2.706400
H      11.817900     7.410000     2.704400
H      11.077000     8.502200     1.859500
H      10.835500     8.410300     3.404900
C      12.160300    10.717300     2.952200
H      11.454500    10.823000     3.596100
H      11.836700    10.956000     2.082000
H      12.896600    11.285600     3.186400
C      15.203200     6.644200     6.305400
C      15.009300     4.925600     7.713100
H      14.343300     4.783000     8.402000
H      15.804200     4.419600     7.943500
C      14.469000     4.479800     6.341900
C      15.282000     3.304100     5.819000
H      14.938900     3.033700     4.964000
H      15.217900     2.571100     6.435200
H      16.200400     3.566100     5.726900
C      13.003000     4.194600     6.328800
H      12.737100     3.923100     5.445900
H      12.521400     4.985800     6.579600
H      12.809800     3.490000     6.952300
O      13.725500     3.928100     3.038700
O      13.913000     5.535800     1.593000
C      13.619500     4.328800     1.847600
C      13.164800     3.418200     0.751000
H      12.505000     3.866100     0.214600
H      12.781700     2.624900     1.131700
H      13.914200     3.178400     0.202900
