43
Refcode: NANGEQ_comp_0 | Dataset: tmCAT | Charge: 0 | Potential Spins: [1, 3, 5]
Pd     -2.429600     4.115300   -10.264000
Cl     -4.546900     3.530700   -11.002400
O      -0.536600     0.944100    -8.459400
O      -2.824400     6.066300   -10.845900
N      -1.803200     2.327900    -9.653100
N      -0.709000     4.913000    -9.697600
C      -0.078400     4.568500    -8.531400
C       0.696900     5.492500    -7.742200
H       0.826800     6.360500    -8.051000
C       1.247000     5.114400    -6.547500
H       1.737400     5.734100    -6.056800
C       1.091800     3.820100    -6.048200
H       1.454000     3.588600    -5.224900
C       0.391000     2.886100    -6.790100
H       0.309500     2.013500    -6.478400
C      -0.196400     3.249600    -8.011300
C      -0.499900     6.146900   -10.345700
C       0.746600     6.757600   -10.551200
H       1.517300     6.366100   -10.208300
C       0.831800     7.953500   -11.269400
H       1.663800     8.353900   -11.388800
C      -0.292800     8.556400   -11.806600
H      -0.219900     9.358500   -12.270800
C      -1.547400     7.937800   -11.641700
H      -2.317800     8.313700   -12.003600
C      -1.598800     6.756500   -10.925500
C      -3.887300     6.775500   -10.151400
H      -3.970700     7.661500   -10.510500
H      -3.680400     6.827000    -9.215400
H      -4.716500     6.303500   -10.268900
C      -0.880100     2.201500    -8.752100
C      -1.122100     0.083900    -9.485400
H      -1.479400    -0.729300    -9.096000
H      -0.465400    -0.149900   -10.160000
C      -2.245300     0.955300   -10.081300
C      -2.309700     0.849000   -11.582000
H      -3.017400     1.408400   -11.911700
H      -2.479500    -0.062600   -11.831200
H      -1.473700     1.133200   -11.960000
C      -3.596100     0.634300    -9.430500
H      -4.277900     1.184600    -9.821700
H      -3.546200     0.808800    -8.487800
H      -3.808400    -0.290800    -9.573500
