35
Refcode: NARLUO_comp_0 | Dataset: tmCAT | Charge: unknown | Potential Spins: [1, 3, 5]
W       2.987800     4.152100    11.290900
P       1.435200     2.239300    11.670300
O       0.411200     5.991000    10.969300
O       2.992300     4.684800    14.441600
O       5.435000     2.108900    11.342900
O       4.932400     6.591800    10.865600
O       2.935200     3.690000     8.154200
C      -0.318100     2.484700    11.181700
H      -0.394500     3.152400    10.454500
H      -0.727500     1.634600    10.884300
C      -0.962400     2.984600    12.449900
C      -0.320800     2.662300    13.603200
C       0.934100     1.948400    13.384600
C       1.653000     1.150500    14.179200
H       1.421000     1.072700    15.096400
C       2.801300     0.390400    13.653200
H       3.452200     0.071800    14.266700
C       2.969800     0.128900    12.360000
H       3.742300    -0.361200    12.103800
C       2.019700     0.557000    11.272900
H       1.253800    -0.068100    11.225400
H       2.481200     0.554600    10.397000
C      -2.267800     3.708200    12.327500
H      -2.636300     3.871200    13.219600
H      -2.895700     3.163300    11.808900
H      -2.124400     4.564400    11.871400
C      -0.820100     2.912800    15.000100
H      -1.685300     3.371300    14.961400
H      -0.175700     3.472300    15.482400
H      -0.924200     2.057800    15.467500
C       1.352100     5.346400    11.110500
C       3.011800     4.484100    13.314600
C       4.566400     2.854400    11.380400
C       4.231300     5.705200    11.021800
C       2.930200     3.839500     9.275000
