106
Refcode: NASJOH_comp_0 | Dataset: tmCAT | Charge: unknown | Potential Spins: [1, 3, 5]
Fe      4.033700     1.259300     1.374200
Si      2.289300     4.975600    -1.419200
N       3.871900    -0.567200     2.047200
C       4.674800    -1.153100     2.926500
C       2.723800    -1.125500     1.391400
N       5.585400     1.709000     2.491800
C       1.461800    -0.993800     2.006600
C       2.832900    -1.660000     0.095100
C       7.444100     1.234700     4.207300
C       5.741000    -0.437900     3.502800
H       6.249200    -0.943600     4.125800
C       5.942100     3.049100     2.173500
C       1.683100    -2.054000    -0.557000
H       1.745800    -2.411600    -1.434100
C       3.203900     2.493200     0.097000
C       6.195500     0.870800     3.339800
C       4.593900    -2.636300     3.394100
C       4.648800     4.643900     5.208600
H       5.540800     4.375300     5.511400
H       3.990400     4.434300     5.903400
H       4.639300     5.607500     5.030100
C       6.783800     3.281200     1.069300
C       4.179000    -1.770500    -0.599700
H       4.886700    -1.508200     0.056300
C       0.341500    -1.404100     1.298300
H      -0.517700    -1.313700     1.692200
C       2.813400     3.431800    -0.588000
C       3.394700    -3.468200     2.881800
H       3.461100    -4.382900     3.227300
H       3.406300    -3.488200     1.901800
H       2.558600    -3.061600     3.190400
C       0.451900    -1.942400     0.033000
H      -0.324500    -2.234700    -0.426900
C       5.304700     4.109300     2.821700
C       5.866300    -3.345200     2.883800
H       5.910300    -4.248600     3.260200
H       6.657000    -2.837000     3.163200
H       5.840700    -3.397900     1.905700
C       1.312300    -0.405300     3.398000
H       2.211000    -0.447900     3.834700
C       7.389900     2.155700     0.234800
H       7.155000     1.294900     0.685000
C       4.475100    -3.199600    -1.065400
H       4.456100    -3.804400    -0.296900
H       5.361700    -3.229800    -1.482600
H       3.797900    -3.476900    -1.717400
C       7.024400     4.602500     0.694700
H       7.608600     4.784400    -0.031000
C       4.540800    -2.706500     4.925300
H       4.530200    -3.643800     5.208600
H       3.728400    -2.259800     5.245500
H       5.328500    -2.259800     5.299800
C       4.297000     3.884700     3.922000
H       4.278900     2.907300     4.133500
C       4.268200    -0.810600    -1.795100
H       4.099700     0.106700    -1.492300
H       3.598000    -1.060300    -2.466500
H       5.163000    -0.863300    -2.191000
C       0.346500    -1.198300     4.282900
H       0.614000    -2.141900     4.294600
H      -0.563400    -1.121800     3.922000
H       0.368000    -0.840700     5.193100
C       7.994700     2.660100     4.086900
H       8.769300     2.763000     4.678800
H       7.299900     3.301300     4.345000
H       8.266500     2.828200     3.161300
C       2.885100     4.303800     3.473700
H       2.659400     3.847100     2.637300
H       2.861600     5.272500     3.334000
H       2.235300     4.057900     4.166500
C       0.909900     1.046500     3.345600
H       1.521000     1.533300     2.753700
H       0.953500     1.430400     4.248000
H      -0.005400     1.120500     3.004100
C       0.620000     4.739200    -2.233700
H      -0.019200     4.394200    -1.573800
H       0.702900     4.099300    -2.971100
H       0.299400     5.597500    -2.579100
C       7.076700     1.045200     5.682100
H       6.845800     0.106700     5.843200
H       6.309700     1.613600     5.903400
H       7.839900     1.294900     6.243000
C       5.568100     5.386700     2.388900
H       5.137000     6.115700     2.821700
C       6.425800     5.646400     1.362300
H       6.610500     6.542300     1.108100
C       8.599200     0.304900     3.854100
H       8.316400    -0.626100     3.974400
H       9.362100     0.494400     4.438200
H       8.859300     0.447900     2.920600
C       6.765100     2.124300    -1.158500
H       5.789900     2.185800    -1.080900
H       7.005000     1.284900    -1.604900
H       7.099200     2.880900    -1.684500
C       8.899000     2.213400     0.133900
H       9.284800     2.253500     1.032400
H       9.161700     3.011400    -0.370700
H       9.225500     1.412900    -0.328000
C       3.531300     5.455700    -2.670300
H       4.404700     5.569900    -2.237500
H       3.262600     6.298900    -3.091400
H       3.594900     4.755500    -3.353400
C       2.119200     6.260000    -0.112600
H       2.989200     6.409300     0.312400
H       1.473000     5.957600     0.560800
H       1.804500     7.095700    -0.516200
