66
Refcode: NAYMUY_comp_0 | Dataset: tmCAT | Charge: unknown | Potential Spins: [1, 3, 5]
Mn      6.240600     9.160600    11.752700
P       8.001100     9.555600    13.149600
P       4.749900     8.323500    10.223400
N       7.128000     7.255200    11.570800
O       5.111900    11.849200    11.963000
O       4.435300     8.351900    13.902500
C       5.564500    10.790800    11.859400
C       6.172200     6.200200    11.175500
H       5.541300     6.041100    11.895300
H       6.647500     5.373000    11.001100
C       5.179900     8.663300    13.064000
C       9.329700    10.754900    12.660000
H       9.692600    10.420600    11.813300
C       5.433600     6.638600     9.934500
H       4.713800     6.017700     9.740800
H       6.038500     6.652100     9.176500
C       8.903600     7.950300    13.109600
H       9.615100     7.986900    12.452000
H       9.298600     7.771500    13.977300
C       7.922100     6.849600    12.750200
H       8.405700     6.030800    12.555000
H       7.330500     6.679900    13.500600
C       3.030900     7.988200    10.836500
H       3.141400     7.441900    11.643600
C       7.713300     9.934900    14.942000
H       8.567400    10.247700    15.308100
C       4.653300     9.094500     8.544600
H       5.610100     9.235300     8.387100
C       6.713700    11.080000    15.107900
H       6.981300    11.819900    14.556900
H       6.692200    11.355500    16.026900
H       5.840700    10.782600    14.842900
C      10.514200    10.816300    13.624400
H      10.232800    11.213300    14.452000
H      11.215100    11.346700    13.237500
H      10.838300     9.928300    13.788500
C       7.286800     8.734200    15.780200
H       6.460000     8.384000    15.439600
H       7.167100     9.006700    16.692300
H       7.965300     8.055800    15.735200
C       2.339700     9.274800    11.300400
H       2.931500     9.767200    11.874300
H       1.539700     9.052100    11.782800
H       2.114300     9.811100    10.535900
C       8.796400    12.136900    12.360500
H       8.092600    12.074900    11.710300
H       9.505000    12.685900    12.015400
H       8.452200    12.529100    13.167000
B       8.063200     9.519500     9.582800
C       2.130200     7.182500     9.917900
H       1.882100     7.718800     9.161200
H       1.340200     6.918800    10.394800
H       2.597800     6.400100     9.616900
C       4.216600    10.493900     8.562000
H       3.270400    10.532000     8.717000
H       4.419600    10.902700     7.717900
H       4.674200    10.964200     9.262300
C       4.350800     8.269700     7.381600
H       4.854900     7.455000     7.426200
H       4.583100     8.745900     6.581600
H       3.413200     8.064600     7.369000
H       7.242800     9.724700    10.402400
H       8.904600     9.091700    10.066800
H       7.717600     8.719500     8.905700
H       8.268100    10.479300     9.084900
H       7.657400     7.374500    10.921000
