48
Refcode: NEBVAU_comp_0 | Dataset: tmCAT | Charge: 0 | Potential Spins: [1, 3, 5]
C       3.218600     1.875300     6.241400
C       3.100000     0.783900     7.135500
H       2.757100    -0.023800     6.825200
C       3.480000     0.888600     8.456300
H       3.375300     0.157600     9.023400
C       4.013900     2.060800     8.950100
H       4.270400     2.121800     9.842100
C       4.160700     3.135000     8.110400
H       4.535800     3.918100     8.442700
C       3.756900     3.085400     6.746600
C       3.933700     4.285800     5.972000
H       4.279900     5.023900     6.418500
C       3.258200     6.667700     4.446700
H       2.495200     6.531600     4.959300
C       3.581100     8.015400     3.932000
C       2.935900     9.131900     4.430000
H       2.253100     9.041700     5.054700
C       3.317300    10.385300     3.986500
H       2.894700    11.126900     4.355500
C       4.864000     9.500300     2.575600
H       5.524300     9.620700     1.931900
C       4.574500     8.204900     2.965500
H       5.026400     7.481200     2.595500
C       1.745800     1.621100     2.368000
H       1.371700     1.372300     3.182500
C       3.072600     1.282200     2.133200
H       3.533300     0.849300     2.814600
C       3.825300     1.566100     0.847000
H       3.197500     1.577300     0.106900
H       4.460800     0.851700     0.685600
C       4.573600     2.901000     0.887900
H       5.476200     2.748300     1.208600
H       4.635300     3.257000    -0.012600
C       3.907600     3.913500     1.769500
H       4.451900     4.375100     2.365900
C       2.546300     4.229600     1.778900
H       2.237900     4.846000     2.403700
C       1.547900     3.613200     0.817600
H       2.004500     3.376100    -0.004200
H       0.869000     4.271200     0.600700
C       0.870900     2.367200     1.388900
H       0.050000     2.629400     1.834500
H       0.635100     1.772800     0.659400
N       3.659800     4.439200     4.718200
N       4.026100     5.708900     4.182600
N       4.258100    10.592900     3.060900
O       2.829300     1.694700     5.001200
Rh      3.005800     2.970300     3.433900
