32
Refcode: NEMCUE_comp_0 | Dataset: tmCAT | Charge: 0 | Potential Spins: [1, 3, 5]
Pt      1.808300     2.904900     1.458600
Cl      0.530300     3.149100     3.338600
Cl      3.057100     2.488200    -0.418500
S       0.742200     4.617300     0.566200
O       2.285600     0.058100     1.882800
H       2.221400     0.077700     1.066100
O      -0.655200     4.336000     0.251500
N       2.709000     1.288700     2.342000
C       0.834700     5.969500     1.669800
H       0.408800     6.734000     1.272700
H       1.751800     6.172200     1.852900
H       0.383900     5.744400     2.488700
C       1.528100     5.294300    -0.844600
H       1.622400     4.614600    -1.516800
H       2.397700     5.623900    -0.600500
H       0.999500     6.015900    -1.191400
C       3.505600     1.245000     3.340700
C       3.947800     2.561400     3.885600
C       3.871800     2.795400     5.243900
H       3.573000     2.120200     5.814400
C       4.238000     4.019000     5.755600
H       4.141400     4.180600     6.665400
C       4.730400     4.983500     4.959200
H       5.005800     5.790900     5.323100
C       4.836200     4.762000     3.609400
H       5.164400     5.434500     3.058200
C       4.451800     3.541100     3.056000
H       4.534300     3.390200     2.141900
C       3.980900    -0.033900     3.905900
H       3.227500    -0.589400     4.118900
H       4.487800     0.137500     4.703400
H       4.536100    -0.481400     3.263700
