48
Refcode: NEQYOA_comp_0 | Dataset: tmCAT | Charge: 0 | Potential Spins: [1, 3, 5]
Ti      0.872200     4.973100     1.186500
Cl      0.874600     2.639200     1.097900
Cl     -0.055600     5.034000     3.316700
N       0.887600     7.112200     1.126400
O       2.610800     5.254200     1.935100
O      -0.631700     5.331400     0.264800
C       4.447800     5.829900     3.307700
H       4.280200     5.103900     3.912300
H       4.792900     6.580600     3.796600
H       5.089000     5.554800     2.647600
C       3.170000     6.220100     2.629600
C       2.657700     7.464500     2.691100
H       3.039500     8.060900     3.292800
C       1.567500     7.931300     1.894700
C       1.274100     9.408700     1.970000
H       1.221600     9.770000     1.082200
H       1.976300     9.849900     2.454800
H       0.438200     9.546600     2.421400
C      -0.097500     7.671300     0.186600
H      -0.509900     8.476600     0.565500
C      -1.177400     6.595100    -0.087900
H      -1.988600     6.778500     0.429300
C      -1.465200     6.677200    -1.592700
H      -1.556400     5.789900    -1.974100
H      -2.281600     7.174300    -1.758200
C      -0.285400     7.385900    -2.178500
C       0.087600     7.546500    -3.509800
H      -0.402000     7.135600    -4.184800
C       1.191700     8.321500    -3.824100
H       1.428600     8.450400    -4.714300
C       1.951600     8.909600    -2.811600
H       2.687200     9.433500    -3.033200
C       1.619200     8.720000    -1.481100
H       2.144700     9.085400    -0.807100
C       0.484800     7.971200    -1.168000
O       1.890300     4.887400    -0.657000
C       3.243700     5.292800    -0.940000
H       3.879700     4.683300    -0.534700
H       3.412800     6.189700    -0.611800
C       3.332400     5.243800    -2.462500
H       4.246700     5.117700    -2.763300
H       2.969400     6.047700    -2.866100
C       2.464700     4.018000    -2.767400
H       2.168200     4.016000    -3.691200
H       2.940800     3.193500    -2.583400
C       1.315500     4.207600    -1.824300
H       0.622900     4.750900    -2.231200
H       0.934600     3.352000    -1.570600
