40
Refcode: NEYTES_comp_0 | Dataset: tmCAT | Charge: 0 | Potential Spins: [1, 3, 5]
Zn      0.869300     1.505700     9.474000
O       1.291300     1.691500    11.563800
C       0.752700     2.757300    11.983300
O      -0.322800     3.030600     9.889200
C      -0.154400     3.484900    11.116400
O      -0.517700     5.084800    12.851900
C      -0.767200     4.603900    11.582300
C       0.366300     4.454700    13.633500
H       0.556900     4.823300    14.487600
C       0.995800     3.330500    13.270200
H       1.605200     2.913200    13.868000
C      -1.759500     5.429000    10.858200
H      -2.382100     5.829300    11.499500
H      -2.256300     4.865400    10.230000
H      -1.296800     6.138800    10.364600
N      -0.148000    -0.256300     9.474000
C      -0.691300    -0.736400    10.600300
H      -0.594000    -0.237100    11.402900
C      -1.380400    -1.919700    10.642000
H      -1.748400    -2.229200    11.461600
C      -1.539500    -2.666500     9.474000
H      -2.014500    -3.489300     9.474000
C      -0.292100    -0.966900     8.347700
H       0.091700    -0.633000     7.545100
C      -0.972300    -2.155300     8.306000
H      -1.056300    -2.628800     7.486400
O       0.819200     1.964000     7.384200
C       2.011600     2.030500     6.964700
O       2.786000     1.235700     9.058800
C       3.095200     1.608700     7.831600
O       4.662400     2.094000     6.096100
C       4.370700     1.637500     7.365700
C       3.674700     2.544600     5.314500
H       3.898600     2.894000     4.460400
C       2.386400     2.527600     5.677800
H       1.720300     2.846700     5.080000
C       5.581400     1.190700     8.089800
H       6.239400     0.851600     7.448500
H       5.341700     0.478600     8.718000
H       5.964800     1.946300     8.583400
