76
Refcode: NICCOS_comp_0 | Dataset: tmCAT | Charge: 0 | Potential Spins: [1, 3, 5]
Pt     11.228500     1.220100    10.228600
Cl     11.793500     0.231300     8.160000
P      10.544200     2.139000    12.119000
P      11.677300     3.354300     9.539700
O      13.246000    -1.007600    11.235300
O      12.141700    -2.576600    10.016200
C      10.914600    -0.738200    10.995300
H      10.833200    -0.681700    11.980200
C      12.110500    -1.555600    10.665800
C       9.651100    -1.413700    10.435300
H       9.557600    -2.297000    10.825800
H       9.725500    -1.491900     9.471400
H       8.872200    -0.878100    10.656200
C      14.533700    -1.652300    11.088700
C      14.583900    -3.008500    11.648700
H      14.016200    -3.595500    11.126800
H      14.274100    -2.989900    12.568800
H      15.497800    -3.335400    11.622000
C      15.445800    -0.673500    11.909700
H      15.187900    -0.698100    12.843100
H      15.342000     0.229300    11.568700
H      16.373600    -0.945900    11.822100
C      14.949100    -1.606000     9.661900
H      14.402200    -2.218800     9.145600
H      15.882000    -1.865100     9.587600
H      14.836600    -0.705300     9.319000
C      10.184100     3.898900    11.757300
H       9.370700     3.979100    11.216300
H      10.057800     4.401600    12.587800
C      11.404400     4.438700    10.980100
H      12.197100     4.439700    11.555400
H      11.236500     5.356800    10.682900
C       9.031400     1.493900    12.860200
C       7.854500     1.599800    12.205000
H       7.818100     2.003900    11.357300
C       6.696500     1.105300    12.795500
H       5.872700     1.217400    12.357300
C       6.731200     0.466800    13.984200
H       5.950600     0.080200    14.338500
C       7.845800     0.393800    14.635700
H       7.852700     0.025700    15.500500
C       9.007200     0.836900    14.094700
H       9.812000     0.700200    14.559500
C      11.714200     2.211600    13.502200
C      11.463200     3.056800    14.567100
H      10.699900     3.605800    14.555600
C      12.321700     3.100000    15.645300
H      12.141700     3.672700    16.369100
C      13.426000     2.313400    15.658600
H      14.024800     2.347300    16.382500
C      13.656200     1.490900    14.629900
H      14.409100     0.930500    14.662300
C      12.832300     1.430200    13.523200
H      13.036500     0.863700    12.801200
C      10.629000     4.070600     8.216000
C      10.269000     3.246000     7.155000
H      10.566700     2.354500     7.141600
C       9.488400     3.707600     6.126300
H       9.289300     3.148300     5.398600
C       9.003700     4.970200     6.162500
H       8.446400     5.275600     5.469100
C       9.320500     5.811300     7.202600
H       8.981200     6.688300     7.221600
C      10.154700     5.353700     8.237000
H      10.386700     5.928500     8.943700
C      13.403500     3.653100     9.042800
C      14.303500     2.614700     9.111300
H      14.016200     1.760200     9.376100
C      15.646600     2.832600     8.787500
H      16.266200     2.130400     8.869400
C      16.063700     4.052100     8.357000
H      16.956800     4.188800     8.097900
C      15.160300     5.073000     8.307400
H      15.466600     5.925400     8.052200
C      13.827500     4.922900     8.610300
H      13.223500     5.639600     8.532200
