51
Refcode: NIGMUL_comp_0 | Dataset: tmCAT | Charge: 1 | Potential Spins: [1, 3, 5]
Ru      4.070600     7.436900     4.002900
Cl      4.876100     6.277200     2.060200
N       3.930100     9.192800     2.826100
N       2.209200     7.228000     3.013900
O       2.643200    10.400200     1.452700
C       5.811900     9.601500     0.451900
C       6.902500    11.371400     1.869400
C       6.039500    10.137000     1.866500
C       4.722900    10.415100     2.594300
C       3.718600    11.301400     1.843000
C       2.848800     9.289900     2.145300
C       1.873300     8.218800     2.159900
C       0.725100     8.178700     1.402800
C      -0.100700     7.110400     1.514300
C       0.222500     6.084100     2.383000
C       1.410400     6.183000     3.104900
C       5.046100     5.907800     5.279500
C       5.836400     7.103900     5.259000
C       5.324500     8.338200     5.608200
C       3.955500     8.447400     5.939800
C       3.135600     7.314700     5.978000
C       3.711800     6.038400     5.666900
C       5.624000     4.565200     4.945000
C       6.218000     9.562300     5.605300
C       1.684600     7.426700     6.294900
H       6.647000     9.429800     0.008800
H       5.311000     8.785100     0.516500
H       5.309300    10.245300    -0.052800
H       7.721500    11.192300     1.402800
H       6.436300    12.088900     1.432100
H       7.098800    11.621400     2.776200
H       6.506500     9.457800     2.356600
H       4.920900    10.817200     3.442400
H       3.380200    12.002100     2.403500
H       4.131500    11.693300     1.068200
H       0.504300     8.899900     0.810000
H      -0.902800     7.060900     0.991900
H      -0.355400     5.323700     2.479800
H       1.662600     5.471100     3.694800
H       6.688400     7.064700     4.818800
H       3.550200     9.316000     5.992700
H       3.123000     5.294800     5.526000
H       5.977700     4.167700     5.743200
H       4.937000     4.000700     4.584000
H       6.327100     4.667800     4.299300
H       6.627500     9.658400     6.468100
H       6.900800     9.460600     4.939100
H       5.693400    10.341400     5.411600
H       1.564400     7.333400     7.242800
H       1.359700     8.286000     6.013200
H       1.197200     6.736300     5.840100
