110
Refcode: NIJVOT_comp_0 | Dataset: tmCAT | Charge: unknown | Potential Spins: [1, 3, 5]
Y      17.651300     3.988300     4.086900
O      18.615500     6.180800     3.705800
N      16.022700     2.343700     4.598400
N      15.906300     5.279600     4.983300
N      18.170800     3.684700     1.894200
N      19.107500     3.745600     5.787600
Si     19.727400     3.608200     1.214300
H      20.355300     3.776100     1.948300
Si     16.705900     3.707700     1.036400
H      16.015400     3.870400     1.712000
Si     19.117900     4.540900     7.299500
H      18.472700     5.276700     7.253300
Si     20.180300     2.509500     5.383800
H      19.902400     2.208800     4.494200
C      15.224200     1.130500     6.595100
H      14.451200     0.766200     6.155300
H      15.002300     1.343800     7.504500
H      15.935400     0.486200     6.582000
C      15.668000     2.387300     5.876200
C      15.602500     3.583100     6.624700
H      15.624400     3.475700     7.548800
C      15.507900     4.900800     6.179900
C      14.845900     5.865900     7.145000
H      15.504300     6.469600     7.496300
H      14.447500     5.372500     7.867200
H      14.167400     6.363600     6.685400
C      15.442500     1.284300     3.793300
C      14.160100     1.525200     3.248300
C      13.592600     0.512300     2.488400
H      12.741400     0.641400     2.138700
C      14.234700    -0.667600     2.230700
H      13.829100    -1.322100     1.710300
C      15.504300    -0.873600     2.759200
H      15.949900    -1.670400     2.583600
C      16.111800     0.088500     3.543800
C      13.401700     2.815400     3.504400
H      14.056500     3.494600     3.771900
C      12.690500     3.329100     2.270100
H      13.312500     3.379900     1.541300
H      12.334000     4.202800     2.447300
H      11.975600     2.731200     2.041900
C      12.397600     2.664500     4.650100
H      11.742800     2.002700     4.417000
H      11.961100     3.504700     4.804400
H      12.857800     2.391600     5.446200
C      17.488700    -0.216200     4.082200
H      17.736100     0.503600     4.699300
C      18.518200    -0.245300     2.967700
H      18.349100    -0.997000     2.394800
H      19.396700    -0.322200     3.345200
H      18.460000     0.566000     2.457200
C      17.554200    -1.541200     4.855300
H      16.808500    -1.599300     5.456000
H      18.372700    -1.580400     5.355900
H      17.523300    -2.275500     4.236500
C      15.555200     6.587100     4.476100
C      14.758600     6.665500     3.374700
H      14.405700     5.893400     2.992300
C      14.471200     7.931000     2.819900
H      13.921900     7.983200     2.071400
C      14.967700     9.045500     3.340200
H      14.762200     9.866900     2.956200
C      15.768000     8.991800     4.425200
H      16.097300     9.781300     4.789600
C      16.115500     7.752500     5.024300
H      16.693900     7.714700     5.751500
C      20.111600     4.844200    -0.078800
H      19.662300     4.604800    -0.894600
H      21.059200     4.866000    -0.229800
H      19.811500     5.710600     0.206800
C      20.191600     1.976600     0.502300
H      20.362600     1.354000     1.213000
H      20.982800     2.073800    -0.034500
H      19.473100     1.650000    -0.044300
C      16.479200     5.067700    -0.238000
H      16.715700     5.912300     0.151000
H      15.562500     5.090900    -0.520300
H      17.043100     4.893500    -0.994700
C      16.219100     2.117300     0.211700
H      16.866700     1.895300    -0.462900
H      15.355200     2.218900    -0.195300
H      16.184600     1.414900     0.865000
C      20.784600     5.275200     7.735900
H      21.383000     4.574300     8.001800
H      20.680900     5.897800     8.458100
H      21.144700     5.729500     6.971000
C      18.647400     3.467000     8.747000
H      19.244000     2.716700     8.797900
H      17.747000     3.153500     8.633800
H      18.707400     3.979300     9.557900
C      21.961400     3.004000     5.196700
H      22.443400     2.301700     4.755100
H      22.343400     3.159300     6.063300
H      22.017800     3.808000     4.674700
C      20.129800     0.989700     6.449100
H      20.488100     1.195800     7.315700
H      20.655400     0.297500     6.042000
H      19.222100     0.693700     6.539300
C      18.398200     7.024000     2.531000
H      17.556000     7.501400     2.600000
H      18.389100     6.489900     1.720200
C      19.564100     7.983200     2.532700
H      20.297100     7.630600     2.004100
H      19.300300     8.840900     2.166600
C      19.955200     8.119600     3.926200
H      19.445900     8.822000     4.359600
H      20.901000     8.327200     4.000100
C      19.653200     6.787400     4.535200
H      20.448100     6.230100     4.546700
H      19.338500     6.894800     5.447800
