81
Refcode: NIKNAW_comp_0 | Dataset: tmCAT;tmPHOTO | Charge: 0 | Potential Spins: [1, 3, 5]
Zn      2.057800     5.539100     0.000000
N       1.475200     4.339300     1.545600
N       3.750400     6.079400     1.060600
C       4.691600     6.938100     0.648200
C       4.732800     7.661400    -0.551200
C       0.375900     3.525600     1.598600
C       0.329200     2.872400     2.870800
H      -0.316300     2.266400     3.153000
C       1.391300     3.297600     3.585200
H       1.601200     3.048400     4.456100
C       2.115900     4.172200     2.789200
C       3.287300     4.838400     3.124400
C       4.045700     5.711400     2.341600
C       5.262000     6.351800     2.712000
H       5.704500     6.251300     3.523500
C       5.647800     7.097900     1.722000
H       6.403200     7.638900     1.706600
C       5.859200     8.560000    -0.831300
C       5.608900     9.919700    -0.996600
H       4.742600    10.245700    -0.904000
C       6.648100    10.794800    -1.303100
H       6.484500    11.707000    -1.380300
C       7.925500    10.297900    -1.488300
C       8.143600     8.985600    -1.283300
H       9.009700     8.656900    -1.364800
C       7.140700     8.118200    -0.956900
H       7.335100     7.218800    -0.822400
C       8.967400    11.182500    -1.913900
N       9.720800    11.912200    -2.313000
C       3.787700     4.647600     4.555400
C       3.655400     5.641200     5.468200
H       3.283700     6.450800     5.201400
C       4.056000     5.490700     6.777900
H       3.946000     6.181100     7.390900
C       4.625600     4.288300     7.161600
C       4.776800     3.282100     6.284000
H       5.190800     2.488500     6.537600
C       4.286300     3.461400     4.952200
H       4.312600     2.750600     4.352500
C       5.108500     4.151600     8.546200
N       5.486700     4.087900     9.602400
C      -0.617200     3.416900     0.551200
C      -0.576000     4.140200    -0.648200
N       0.365100     4.998800    -1.060600
N       2.640400     6.738900    -1.545600
C       3.739700     7.552700    -1.598600
C       3.786300     8.205800    -2.870800
H       4.431900     8.811800    -3.153000
C       2.724300     7.780600    -3.585200
H       2.514300     8.029900    -4.456100
C       1.999700     6.906000    -2.789200
C       0.828300     6.239800    -3.124400
C       0.069900     5.366800    -2.341600
C      -1.146400     4.726500    -2.712000
H      -1.588900     4.827000    -3.523500
C      -1.532200     3.980300    -1.722000
H      -2.287600     3.439400    -1.706600
C       0.327900     6.430700    -4.555400
C       0.460100     5.437000    -5.468200
H       0.831900     4.627500    -5.201400
C       0.059600     5.587500    -6.777900
H       0.169500     4.897200    -7.390900
C      -0.510100     6.789900    -7.161600
C      -0.661300     7.796200    -6.284000
H      -1.075300     8.589700    -6.537600
C      -0.170800     7.616900    -4.952200
H      -0.197000     8.327600    -4.352500
C      -0.993000     6.926600    -8.546200
N      -1.371200     6.990300    -9.602400
C      -1.743700     2.518300     0.831300
C      -1.493300     1.158500     0.996600
H      -0.627000     0.832600     0.904000
C      -2.532500     0.283400     1.303100
H      -2.369000    -0.628800     1.380300
C      -3.809900     0.780300     1.488300
C      -4.028100     2.092600     1.283300
H      -4.894100     2.421400     1.364800
C      -3.025100     2.960100     0.956900
H      -3.219600     3.859400     0.822400
C      -4.851800    -0.104200     1.913900
N      -5.605300    -0.833900     2.313000
