57
Refcode: NILGAS_comp_1 | Dataset: tmCAT | Charge: 0 | Potential Spins: [1, 3, 5]
C       8.803300     0.286300     3.164800
C       7.407500     0.368000     3.204900
H       6.987700     1.048200     3.718200
C       6.636300    -0.536400     2.501400
H       5.689200    -0.464700     2.536300
C       7.212800    -1.551100     1.742900
C       8.597800    -1.643300     1.700900
H       9.011000    -2.337900     1.201400
C       9.385200    -0.716100     2.391100
C       6.364500    -2.510700     0.937100
H       6.493200    -2.336400    -0.019600
H       5.420200    -2.385900     1.167600
H       6.631400    -3.432200     1.139100
C      12.599500    -1.109500     1.145400
C      13.624800    -1.572200     0.285000
H      13.488900    -2.296200    -0.315000
C      14.823300    -0.915200     0.368400
H      15.545400    -1.201900    -0.178000
C      15.019200     0.180800     1.246100
H      15.863000     0.618000     1.245900
C      14.048400     0.634800     2.091500
H      14.192500     1.371200     2.673400
C      12.816700    -0.055100     2.049900
C      13.789500     0.098800     5.249000
C      15.168600     0.207000     5.051700
H      15.532600     1.002500     4.681100
C      16.008000    -0.841800     5.395300
H      16.942400    -0.751600     5.252400
C      15.517200    -2.020500     5.942700
C      14.145000    -2.131400     6.145000
H      13.786800    -2.927400     6.517900
C      13.292500    -1.082700     5.803500
C      16.446000    -3.135000     6.358600
H      16.596500    -3.091700     7.326000
H      17.301100    -3.038600     5.889600
H      16.043200    -3.998600     6.129900
C      10.172400    -1.933600     7.073400
C       9.226300    -2.642100     7.847800
H       9.460900    -3.423600     8.333400
C       7.950900    -2.138800     7.859400
H       7.279100    -2.593500     8.353000
C       7.607200    -0.959000     7.154900
H       6.716100    -0.634800     7.215600
C       8.509700    -0.263800     6.387100
H       8.268200     0.527000     5.919900
C       9.818400    -0.793700     6.331700
Cl     11.777200     3.276600     3.119800
Cl     10.608700     2.683400     6.292200
N      11.651000     0.156300     2.726400
N      10.794200    -0.732800     2.164200
N      11.307800    -1.513400     1.227900
N      10.943400    -0.339800     5.699900
N      11.903700    -1.201700     6.124400
N      11.496500    -2.162500     6.935800
O       9.534300     1.183400     3.843500
O      12.987700     1.128100     4.927600
Ti     11.242500     1.495500     4.446200
