64
Refcode: NIMWAK_comp_0 | Dataset: tmCAT | Charge: -2 | Potential Spins: [1, 3, 5]
Pd      4.631600     1.951000     3.353400
Cl      6.136900     2.833400     4.865000
Cl      3.053400     1.227300     1.874400
Cl      8.769300    -1.640100     4.765400
O       3.080300     2.125900     6.798700
H       3.244100     1.531000     7.338500
N       2.257200     3.396100     4.404500
N       3.687700     4.747300     3.446600
N       5.911700     0.314100     2.935400
C       3.453100     3.445500     3.750200
C       1.648900     2.201400     4.938600
H       2.062700     1.429700     4.523400
H       0.709500     2.197000     4.696600
C       1.761800     2.063300     6.436400
H       1.266700     2.774700     6.870300
H       1.384000     1.215300     6.717100
C       1.698400     4.665400     4.560600
C       0.576000     5.112700     5.144800
H      -0.046400     4.536100     5.524300
C       0.402200     6.487300     5.147700
H      -0.354600     6.833500     5.562900
C       1.288100     7.364700     4.570600
H       1.120300     8.279600     4.597800
C       2.403300     6.901600     3.964900
H       2.999500     7.485300     3.555400
C       2.638000     5.537900     3.966400
C       4.873000     5.210900     2.740700
H       5.244800     4.467900     2.240900
H       5.535100     5.482100     3.396500
C       4.638000     6.368500     1.785600
C       5.153300     7.637000     2.023300
C       4.900700     8.683100     1.118300
C       4.170700     8.413800     0.015800
C       3.703300     7.120700    -0.272100
C       3.920200     6.087300     0.634300
C       3.460900     4.717600     0.312200
H       3.796700     4.105200     0.970800
H       3.786300     4.465900    -0.555600
H       2.501100     4.693200     0.313600
C       2.961700     6.862900    -1.520700
H       3.528600     7.057200    -2.271000
H       2.179900     7.418700    -1.557900
H       2.699700     5.940700    -1.547900
C       3.889200     9.541000    -0.965100
H       3.477500    10.272900    -0.499700
H       3.299000     9.226900    -1.653800
H       4.713800     9.835100    -1.358900
C       5.538300    10.027200     1.407600
H       5.027600    10.486000     2.079100
H       5.555800    10.552500     0.604300
H       6.436000     9.895300     1.722600
C       5.920100     7.905200     3.342100
H       6.846400     7.676200     3.233200
H       5.539500     7.374100     4.045100
H       5.845300     8.834800     3.568300
C       5.848800    -0.339900     1.769800
H       5.240400    -0.044400     1.132600
C       6.635500    -1.423100     1.463400
H       6.552900    -1.852500     0.642900
C       7.543200    -1.855400     2.392700
H       8.082500    -2.593300     2.223700
C       7.636300    -1.187200     3.555400
C       6.818400    -0.124500     3.813200
H       6.894700     0.310400     4.630800
