59
Refcode: NIPZIY_comp_0 | Dataset: tmCAT | Charge: unknown | Potential Spins: [1, 3, 5]
Ir      1.336300     8.507800     6.218400
Cl      3.650600     7.871800     5.970800
O       1.203000     8.085100     4.170500
N       1.068000    10.897500     4.456100
N       2.485000    11.349300     6.017400
C       1.704200    10.364000     5.521500
C       2.323800    12.511500     5.262200
H       2.753400    13.323600     5.401300
C       1.434300    12.237900     4.300200
H       1.121200    12.826000     3.651500
C       0.033100     9.153500     7.801300
C       1.083100     8.317800     8.348000
C       0.905400     6.983400     7.808300
C      -0.168600     7.007600     6.902300
C      -0.711800     8.354100     6.853300
C      -1.930500     8.789300     6.096300
H      -1.842400     9.712200     5.848900
H      -2.707400     8.678500     6.649500
H      -2.023700     8.253400     5.304400
C      -0.691800     5.884700     6.043700
H      -0.716100     6.166500     5.126300
H      -1.578000     5.649100     6.329300
H      -0.115600     5.121200     6.128500
C       1.774300     5.807700     8.157000
H       1.710300     5.146900     7.463100
H       1.482000     5.428900     8.988200
H       2.686100     6.097300     8.239100
C       2.037700     8.695600     9.444900
H       2.859900     8.212400     9.335600
H       1.650100     8.478800    10.296400
H       2.214100     9.639200     9.405900
C      -0.253200    10.578600     8.157000
H       0.566700    11.021200     8.388700
H      -0.854600    10.607100     8.904500
H      -0.654500    11.020800     7.405700
C       3.453500    11.231500     7.105600
H       3.460200    10.316000     7.425000
H       3.175300    11.800800     7.839500
C       4.849800    11.616800     6.683300
C       5.623000    12.420800     7.496400
H       5.287700    12.723100     8.309700
C       6.899600    12.772900     7.096800
H       7.419200    13.321100     7.639300
C       7.398400    12.325600     5.919300
H       8.258800    12.564000     5.657000
C       6.636800    11.520100     5.115000
H       6.975000    11.216800     4.302900
C       5.370200    11.163500     5.511000
H       4.861500    10.604200     4.970000
C       0.306000     8.789300     3.476600
C      -0.548200     8.163700     2.568900
H      -0.471200     7.246400     2.434400
C      -1.496300     8.861900     1.868000
H      -2.058000     8.412000     1.278600
C      -1.623000    10.209900     2.025700
H      -2.273400    10.676400     1.552000
C      -0.794000    10.874800     2.882500
H      -0.884400    11.794700     2.984300
C       0.179100    10.202300     3.602700
