133
Refcode: NISDUP_comp_0 | Dataset: tmCAT | Charge: 0 | Potential Spins: [1, 3, 5]
Zr      8.791800     5.433700    14.177000
O       8.344900     3.702000    15.131300
O       7.328400     4.779900    15.432900
O      10.033600     6.966600    13.665500
O       9.442500     6.298800    12.454900
N       7.117900     4.662700    12.560300
N       7.060100     7.113500    13.833700
N      10.111000     5.730200    16.205600
N      10.914800     4.253300    14.042000
C       6.159300     5.457700    12.388000
C       6.149900     6.785000    13.010900
C      11.213900     5.119600    16.236000
C      11.686400     4.386200    15.042300
C       6.987100     3.376500    11.884500
C       7.704200     3.182300    10.693000
C       7.517600     1.964700    10.037600
C       6.658300     1.002900    10.541100
C       5.972400     1.215400    11.713100
C       6.118300     2.407900    12.422700
C       9.726200     3.703200     9.249800
C       8.603900     4.253700    10.126600
C       7.806500     5.288600     9.327900
C       9.555700    10.017500    12.153600
C       8.247600     9.261400    12.279500
C       7.328300     9.578900    11.098900
C       6.979900     8.473200    14.343500
C       7.535100     9.514900    13.594700
C       7.371100    10.817100    14.080900
C       6.702700    11.052400    15.263700
C       6.189400    10.010700    16.001600
C       6.313100     8.685700    15.567500
C       5.873000     1.585400    14.773200
C       5.391100     2.588300    13.744500
C       3.868300     2.499200    13.573000
C       5.885700     7.648500    17.831100
C       5.664400     7.548000    16.329300
C       4.179600     7.474900    16.016800
C       9.728000     6.398900    17.447000
C       9.166000     5.629000    18.471400
C       8.854600     6.302900    19.662800
C       9.088500     7.639400    19.810400
C       9.623400     8.381800    18.766500
C       9.959700     7.771900    17.559800
C       7.452500     3.778600    18.584200
C       8.912700     4.134900    18.341100
C       9.824200     3.342200    19.263500
C      12.192500     6.444600    10.827600
C      12.542400     5.713500    12.125400
C      14.000400     5.971700    12.537800
C      11.487500     3.522700    12.915400
C      12.282000     4.230900    11.997400
C      12.847400     3.479300    10.962100
C      12.643100     2.138300    10.842800
C      11.832800     1.478100    11.745600
C      11.225500     2.154300    12.802500
C      10.179200     9.999300    16.344500
C      10.629600     8.553200    16.429100
C      12.146500     8.496100    16.557200
C       9.415900     0.427200    13.186700
C      10.360200     1.423200    13.818200
C      11.224700     0.737900    14.866500
H       5.427500     5.195000    11.841100
H       5.459800     7.401800    12.800400
H      11.741800     5.133300    17.025900
H      12.561200     4.016200    15.024900
H       7.988100     1.791000     9.230200
H       6.539800     0.187300    10.070200
H       5.391900     0.541400    12.047300
H       9.028900     4.728900    10.897000
H       8.460600     8.285900    12.238300
H       9.351000     3.381100     8.403400
H      10.168400     2.960700     9.712100
H      10.379100     4.411400     9.069600
H       7.357300     4.847700     8.577000
H       8.414700     5.976300     8.985000
H       7.137100     5.706700     9.909600
H       9.379800    10.981600    12.175300
H       9.987400     9.782200    11.305000
H      10.144300     9.775400    12.898000
H       6.525600     9.021500    11.151000
H       7.799800     9.393900    10.259000
H       7.072100    10.524700    11.129300
H       7.723400    11.548100    13.588200
H       6.595600    11.943400    15.574000
H       5.743500    10.193400    16.819800
H       5.605800     3.502100    14.087400
H       6.084100     6.695900    16.016800
H       5.710400     0.676200    14.445500
H       5.386300     1.720200    15.613100
H       6.832400     1.711100    14.927300
H       3.619200     1.580900    13.336400
H       3.583900     3.109200    12.861100
H       3.430600     2.750500    14.412900
H       6.845400     7.717000    18.015600
H       5.525300     6.848900    18.267300
H       5.428800     8.443500    18.176200
H       3.741500     8.299600    16.316300
H       3.785700     6.707300    16.483400
H       4.054800     7.369800    15.051000
H       8.470100     5.816300    20.383400
H       8.884300     8.064300    20.635100
H       9.762400     9.313900    18.875000
H       9.133700     3.872200    17.401400
H      11.950300     6.069900    12.848100
H       7.196500     4.048100    19.491400
H       7.331200     2.809900    18.484400
H       6.888800     4.246900    17.935300
H      10.759100     3.543300    19.050800
H       9.658600     2.385000    19.142000
H       9.640300     3.588900    20.194600
H      12.776200     6.129300    10.107000
H      12.318200     7.408600    10.951300
H      11.257800     6.264100    10.593200
H      14.177200     5.535300    13.397200
H      14.149800     6.935700    12.624600
H      14.602200     5.606200    11.856300
H      13.391500     3.920200    10.319700
H      13.058600     1.656300    10.137400
H      11.685000     0.543700    11.643600
H      10.381900     8.107700    15.567500
H       9.803800     2.108600    14.289200
H      10.492500    10.485900    17.136600
H       9.200800    10.033500    16.305400
H      10.552700    10.410500    15.539300
H      12.555500     8.968900    15.801900
H      12.440400     7.561700    16.555000
H      12.420000     8.923300    17.394900
H       8.929900     0.856700    12.453100
H       8.776600     0.109700    13.859500
H       9.926700    -0.333500    12.839400
H      11.819900     1.395800    15.281000
H      11.761400     0.036600    14.438900
H      10.651600     0.335800    15.552300
