96
Refcode: NOHFOI_comp_0 | Dataset: tmCAT | Charge: unknown | Potential Spins: [1, 3, 5]
Br      5.184100     7.311500     2.763600
Mn      6.997000     8.349400     4.221300
P       5.679800     8.154500     6.106300
P       8.289900     8.551100     2.307400
O       8.947100     9.975800     5.692900
O       8.248100     5.720900     4.938300
O       5.569300    10.905500     3.556000
O       4.075600     4.667800     4.231000
H       4.307900     5.375700     3.846000
O       7.252200     4.685400     2.226000
H       6.815400     5.390900     2.080600
C       8.199700     9.304400     5.129400
C       7.759800     6.706700     4.635800
C       6.112700     9.938800     3.802100
C       6.532000     8.093200     7.729700
C       7.874700     7.742600     7.839700
H       8.391200     7.611100     7.053300
C       8.469400     7.582100     9.087900
H       9.387800     7.346800     9.148700
C       7.722700     7.765600    10.244500
H       8.127400     7.650700    11.096400
C       6.382100     8.117900    10.151600
H       5.869900     8.244800    10.941600
C       5.787900     8.285000     8.906400
H       4.871900     8.530600     8.850200
C       4.576300     9.596500     6.297700
C       5.074700    10.759000     6.875400
H       5.932700    10.750400     7.283200
C       4.331700    11.932700     6.862700
H       4.677200    12.717900     7.270800
C       3.087500    11.958200     6.255500
H       2.580100    12.761200     6.241000
C       2.588500    10.813600     5.672000
H       1.737200    10.831300     5.250500
C       3.322700     9.632900     5.696000
H       2.966400     8.846700     5.299300
C       4.505800     6.725500     6.260600
H       3.969800     6.849500     7.083600
H       3.881000     6.750800     5.493000
C       5.145900     5.353800     6.309900
C       5.946700     4.968500     7.394200
H       6.091400     5.586500     8.101000
C       6.534800     3.713800     7.468700
C       6.263100     2.800600     6.452200
H       6.639900     1.929800     6.501000
C       5.458900     3.126800     5.372200
C       4.916800     4.410600     5.296300
C       7.465200     3.366700     8.604200
H       8.373000     3.663700     8.385100
H       7.463400     2.396600     8.743000
H       7.163400     3.814300     9.422100
C       5.152300     2.129700     4.285900
H       5.631900     1.294000     4.464700
H       5.437200     2.491100     3.420700
H       4.188200     1.955000     4.265400
C       7.820000    10.014500     1.324600
C       7.050000     9.929000     0.166600
H       6.805500     9.079800    -0.182000
C       6.639300    11.097100    -0.479200
H       6.118300    11.037500    -1.271400
C       6.981600    12.335800     0.020000
H       6.687600    13.124800    -0.420000
C       7.757200    12.426500     1.168000
H       8.006800    13.277900     1.507500
C       8.166300    11.274900     1.817000
H       8.689000    11.342300     2.607400
C      10.084500     8.800000     2.565600
C      10.747300     8.096200     3.572600
H      10.247000     7.580500     4.194000
C      12.135500     8.143600     3.674200
H      12.578000     7.645600     4.351500
C      12.871700     8.913700     2.791700
H      13.818500     8.946600     2.862300
C      12.220500     9.637800     1.802800
H      12.721900    10.182700     1.207600
C      10.841800     9.569300     1.680200
H      10.407300    10.051100     0.986200
C       8.307900     7.203200     1.021600
H       7.377100     6.909800     0.855400
H       8.660600     7.576000     0.175000
C       9.134000     6.000500     1.402800
C      10.510900     6.025000     1.147700
H      10.882300     6.784000     0.713400
C      11.351200     4.983500     1.505100
C      10.783400     3.871400     2.104600
H      11.345800     3.149000     2.358300
C       9.418500     3.777400     2.347400
C       8.594600     4.858900     1.989200
C      12.839700     5.092000     1.250100
H      13.049500     4.710500     0.372200
H      13.326800     4.601300     1.944500
H      13.106400     6.035000     1.268600
C       8.798500     2.560300     2.975900
H       8.173900     2.148200     2.343300
H       8.316500     2.821600     3.788000
H       9.501800     1.917500     3.206100
