44
Refcode: NOHPUY_comp_0 | Dataset: tmCAT | Charge: unknown | Potential Spins: [1, 3, 5]
N       6.633000    12.114200     9.063100
H       6.598600    12.923700     8.716500
C       8.529800    11.542800     7.596600
H       8.356800    11.024200     6.783300
H       9.402300    11.291400     7.965100
H       8.531000    12.499200     7.379200
Cl      3.530200    10.998800     9.188000
Rh      5.384900    11.586000    10.618000
C       7.446300    11.257100     8.619800
Cl      6.419800     5.911400    11.026100
C       7.306100     9.924900     9.214400
C       6.296400     9.824900    10.163300
C       6.007000     8.546400    10.694200
H       5.290000     8.433100    11.307400
C       6.770700     7.474900    10.318600
C       7.841700     7.585700     9.430700
H       8.387100     6.835900     9.225900
C       8.088400     8.839200     8.850800
H       8.785600     8.943200     8.214000
C       5.755800    11.439200    12.757900
C       4.358900    11.621300    12.540300
C       4.166400    12.935600    11.937700
C       5.379200    13.514200    11.721400
C       6.424100    12.553500    12.171300
C       6.376000    10.296300    13.465300
H       6.565500    10.550600    14.393000
H       7.210700    10.048000    13.017500
H       5.760100     9.533700    13.455900
C       3.260400    10.724900    13.002100
H       2.853200    11.098500    13.811300
H       3.624800     9.836800    13.199900
H       2.582000    10.650500    12.299100
C       2.806500    13.485600    11.656400
H       2.271700    13.471300    12.476800
H       2.368300    12.938300    10.971000
H       2.887500    14.407700    11.334500
C       5.708900    14.867700    11.138800
H       5.745500    15.532300    11.858900
H       5.011600    15.124100    10.496700
H       6.573100    14.828000    10.684200
C       7.887500    12.849900    12.192500
H       8.082600    13.483200    12.914100
H       8.155200    13.237600    11.334400
H       8.385500    12.018400    12.345100
