81
Refcode: NOLPOV_comp_0 | Dataset: tmCAT | Charge: unknown | Potential Spins: [1, 3, 5]
Ni     12.447500    15.589300    16.393200
O      14.014600    17.714600    19.534900
O      10.566700    14.856000    12.835800
O      13.256800    13.990500    16.888200
N      13.263800    16.223700    18.003500
N      11.323100    17.159400    16.312600
N      11.936300    15.118000    14.636400
N      13.241400    12.813000    16.131600
C      14.174500    15.459500    18.911700
H      14.810200    14.902800    18.377300
C      14.928100    16.596400    19.621300
H      15.117500    16.364000    20.564500
H      15.782700    16.799100    19.162800
C      13.207700    17.435400    18.494100
C      12.302600    18.450700    18.091100
H      12.337600    19.292800    18.529100
C      11.397400    18.266700    17.112800
C      10.295900    19.246000    16.803200
H      10.660700    20.074100    16.400200
H       9.793500    19.483100    17.623800
C       9.418800    18.509900    15.824900
H       8.562800    18.246400    16.245500
H       9.228000    19.069800    15.030600
C      10.228500    17.306000    15.451100
C       9.931000    16.476300    14.437800
H       9.100300    16.577700    13.988100
C      10.810900    15.465800    14.029000
C      11.574300    13.840700    12.711900
H      11.890000    13.765900    11.777400
H      11.229000    12.961200    13.006900
C      12.694100    14.321100    13.626000
H      13.151500    13.544400    14.061100
C      13.700200    15.189700    12.875500
C      14.648800    14.551900    12.101600
H      14.668500    13.602100    12.066600
C      15.575000    15.283300    11.371500
H      16.241600    14.838800    10.860500
C      15.518900    16.688400    11.392000
H      16.126500    17.203100    10.875100
C      14.574500    17.306000    12.174600
H      14.549200    18.254200    12.215500
C      13.652500    16.566800    12.910500
H      12.993000    17.008100    13.433200
C      13.416800    14.589300    19.901600
C      12.033100    14.626700    20.062300
H      11.508300    15.197500    19.516200
C      11.426900    13.834500    21.011300
H      10.482500    13.875000    21.113600
C      12.146800    12.990800    21.814400
H      11.710400    12.443400    22.456900
C      13.533200    12.951800    21.671300
H      14.052400    12.376400    22.220300
C      14.147900    13.744000    20.733900
H      15.093700    13.714400    20.649200
C      12.144000    11.906900    16.619300
C      12.183300    10.679600    15.714000
H      11.522300    10.018400    16.044000
H      11.912400    10.947800    14.799900
C      13.552900    10.012100    15.646800
H      13.794200     9.650300    16.534600
H      13.527600     9.260400    15.001400
C      14.589900    11.024200    15.208800
H      14.387800    11.317400    14.283000
H      15.481000    10.593800    15.200000
C      14.634800    12.253100    16.125700
C      12.214100    11.507700    18.091100
H      12.849800    10.768500    18.199100
H      11.327300    11.220700    18.394800
H      12.510200    12.273400    18.625500
C      10.809500    12.610300    16.397300
H      10.760400    13.405600    16.969700
H      10.077000    12.000500    16.625100
H      10.733700    12.877000    15.459900
C      15.222800    11.905400    17.492400
H      14.944900    12.579100    18.149500
H      16.200900    11.891300    17.436900
H      14.898600    11.024200    17.772800
C      15.549700    13.305800    15.492000
H      15.184900    13.575600    14.621800
H      16.445000    12.926900    15.366500
H      15.605900    14.087100    16.079000
