86
Refcode: NOLXEU_comp_0 | Dataset: tmCAT | Charge: 0 | Potential Spins: [1, 3, 5]
Ru      9.361000     4.778100     2.999300
Cl     10.009900     4.442300     0.659200
P       8.758100     5.142700     5.205200
Cl      9.810200     2.420700     3.380100
N       7.381700     4.649500     2.377700
N       9.024500     6.603200     2.441400
N      11.238900     5.650500     3.312400
C       6.928300     5.758000     1.903100
H       6.064600     5.819200     1.564100
C       7.818000     6.915000     1.919300
C      12.490000     5.009800     3.779300
H      12.250500     4.125900     4.125500
C      10.046500     7.486700     2.435900
C      11.273500     6.890200     2.934500
H      12.060200     7.384400     2.981100
C       6.545600     3.423500     2.301300
H       6.920300     2.794800     2.954200
C       7.254500     4.328000     5.894100
C       9.851200     8.778200     1.982000
H      10.547800     9.393700     1.983800
C       8.446700     6.934900     5.375700
C       7.575200     8.200800     1.461900
H       6.740200     8.429700     1.121100
C       8.588400     9.134700     1.519300
H       8.425500    10.008700     1.248400
C       9.908200     4.748100     6.584700
C       7.210800     7.482700     5.074400
H       6.489800     6.918500     4.904000
C       7.058300     2.977800     5.637600
H       7.650300     2.531800     5.076200
C      13.456000     4.793800     2.633200
H      13.681500     5.650400     2.238500
H      13.026300     4.253600     1.951600
C       5.094200     3.606800     2.678000
H       4.655600     4.176000     2.026900
H       5.030700     4.034500     3.546200
C       6.682000     2.758800     0.945300
H       7.620400     2.660800     0.719300
H       6.259400     3.306000     0.265500
C       9.527100     7.800600     5.587400
H      10.369900     7.456500     5.773900
C      13.169900     5.766000     4.918300
H      13.416000     6.655000     4.617000
H      12.550500     5.860800     5.659100
C       6.016400     1.392200     1.000900
H       6.059100     0.983300     0.122000
H       6.503800     0.824700     1.617900
C       4.410400     2.239700     2.719300
H       4.782200     1.720500     3.449300
H       3.464900     2.364500     2.896800
C      10.711800     3.618600     6.487800
H      10.716400     3.107900     5.709400
C       9.332100     9.184200     5.515600
H      10.050600     9.758500     5.650200
C       4.575600     1.476500     1.438600
H       4.055500     1.907700     0.740800
H       4.226300     0.578900     1.555100
C       6.400800     4.944000     6.776600
H       6.544300     5.832200     7.009800
C      14.409800     5.024700     5.381100
H      14.842300     5.529300     6.089600
H      14.154100     4.160800     5.741700
C      15.375300     4.829000     4.245700
H      16.140800     4.321000     4.557800
H      15.693000     5.692700     3.940800
C       8.093800     9.692700     5.248400
H       7.971100    10.614700     5.219700
C       7.026900     8.856000     5.020600
H       6.187200     9.208500     4.832200
C       6.005800     2.285100     6.197300
H       5.886400     1.384800     5.998200
C      14.729300     4.100000     3.094100
H      14.520500     3.193600     3.366800
H      15.354900     4.053300     2.353300
C       9.895700     5.473700     7.761400
H       9.348800     6.222900     7.836700
C       5.142500     2.912000     7.033100
H       4.433500     2.444300     7.413400
C       5.327400     4.256300     7.320100
H       4.730400     4.698600     7.879800
C      11.510600     3.257900     7.574800
H      12.067800     2.516400     7.508500
C      10.688200     5.095300     8.823200
H      10.682700     5.595900     9.607100
C      11.485000     3.979700     8.731800
H      12.006200     3.718700     9.456400
