75
Refcode: NONQUE_comp_0 | Dataset: tmCAT;tmPHOTO | Charge: 1 | Potential Spins: [1, 3, 5]
C       5.575400     5.801200     9.348600
C       4.696900     4.656700     9.623400
H       4.668200     4.000400     8.965500
C       3.925800     4.435300    10.707600
C       3.922800     5.314800    11.900000
C       3.966700     4.745600    13.183000
H       3.985900     3.820500    13.272000
C       3.982100     5.536000    14.312800
H       4.011400     5.142200    15.154700
C       3.952800     6.924000    14.195800
C       3.917200     7.508800    12.935900
H       3.914400     8.434900    12.849900
C       3.886400     6.701300    11.805600
H       3.840100     7.098100    10.966100
C       4.114000     9.026900    15.295900
H       4.934100     9.224900    14.837500
H       4.145700     9.393500    16.182700
H       3.378400     9.414600    14.816300
C       2.967200     3.300800    10.721400
C       3.219200     2.103000    10.043000
H       4.025300     1.991900     9.593800
C       2.289600     1.088700    10.031100
H       2.472600     0.298800     9.575000
C       1.077100     1.236300    10.698200
C       0.812600     2.411300    11.394900
H       0.010000     2.517600    11.851400
C       1.760900     3.421600    11.399400
H       1.584500     4.203400    11.870300
C      -1.014000     0.303800    11.342100
H      -0.832000     0.417600    12.278200
H      -1.541000    -0.488500    11.213600
H      -1.496500     1.065200    11.014400
C       6.987800     5.246600    11.258300
H       6.548500     5.485400    12.077800
H       7.938100     5.331600    11.368100
H       6.771200     4.339200    11.032100
C       7.027300     9.539400     8.767500
H       6.936700    10.497200     8.638900
H       7.574100     9.398600     9.556100
C       7.739300     8.950200     7.567200
H       8.664500     9.241600     7.561400
H       7.319000     9.264800     6.751500
C       8.233800     6.703500     5.950000
H       7.860100     7.339300     5.319200
H       9.200600     6.779200     5.909800
C       7.823900     5.293200     5.542100
H       7.935100     4.706300     6.307100
H       8.427400     4.986200     4.847600
C       6.391900     5.159700     5.033200
H       6.327800     4.382200     4.456200
H       6.164600     5.942100     4.506900
C       3.619900     5.351600     5.580600
H       3.698200     6.156200     5.045700
H       3.375100     4.617900     4.995000
C       2.558100     5.539700     6.649700
H       2.376300     4.680800     7.063900
H       1.739700     5.841800     6.226900
C       2.417000     8.318200     7.317700
H       2.801100     8.484300     6.442600
H       1.452400     8.279900     7.220700
C       2.790200     9.458000     8.263300
H       2.199400    10.203500     8.076600
H       2.603100     9.164400     9.169400
C       4.225200     9.980000     8.228700
H       4.264300    10.844900     8.667200
H       4.502200    10.099500     7.306800
Cl      5.219300     8.259100     5.562000
O       6.542200     6.129500    10.196700
O       3.939600     7.612000    15.371800
O       0.217900     0.177000    10.630000
Ru      5.360500     6.871200     7.772900
S       5.369300     8.824400     9.061900
S       7.669800     7.124400     7.630100
S       5.209800     4.991700     6.401900
S       3.025300     6.737000     7.955600
