77
Refcode: NONRIT_comp_0 | Dataset: tmCAT | Charge: unknown | Potential Spins: [1, 3, 5]
Pd      8.472600     8.202600    19.260800
Br      9.090900     6.318700    17.849900
Br      5.701000     4.339300    23.546300
N       5.836500     7.917100    17.772500
N       5.699800     7.107600    19.775400
C       6.530900     7.744100    18.921400
C       4.556400     7.361000    17.881700
C       3.495400     7.287200    16.983000
H       3.546600     7.673500    16.117400
C       2.362900     6.622800    17.415600
H       1.616500     6.550600    16.833900
C       2.292900     6.054300    18.694500
H       1.504700     5.588400    18.948800
C       3.335700     6.152000    19.595900
H       3.278500     5.777100    20.468400
C       4.474600     6.826200    19.162600
C       6.385100     8.505300    16.546900
H       6.186300     7.904000    15.786100
H       7.368500     8.568400    16.633600
C       5.828800     9.880000    16.245700
C       6.196500    10.972600    17.022700
H       6.803700    10.857800    17.745000
C       5.672800    12.250600    16.741500
H       5.930400    12.998700    17.267300
C       4.800600    12.406400    15.720700
H       4.444500    13.267700    15.535800
C       4.418500    11.331900    14.940600
H       3.792800    11.450800    14.233700
C       4.955600    10.076100    15.194800
H       4.720000     9.342800    14.640100
C       6.057700     6.700700    21.127700
H       5.238100     6.618700    21.676100
H       6.635900     7.391400    21.539300
C       6.793900     5.366100    21.104100
H       6.202700     4.679600    20.705400
H       7.594300     5.449000    20.528200
C       7.225200     4.906000    22.488900
H       7.689400     5.647500    22.953100
H       7.862900     4.153000    22.402200
Br      7.854400    10.086500    20.671600
Br     11.244200    12.065900    14.975300
N      11.108700     8.488100    20.749100
N      11.245500     9.297600    18.746100
C      10.414400     8.661100    19.600200
C      12.388800     9.044200    20.639900
C      13.449900     9.118000    21.538600
H      13.398600     8.731700    22.404200
C      14.582400     9.782400    21.106000
H      15.328800     9.854600    21.687700
C      14.652400    10.350900    19.827100
H      15.440600    10.816800    19.572800
C      13.609600    10.253300    18.925700
H      13.666800    10.628100    18.053100
C      12.470700     9.579000    19.359000
C      10.560100     7.899900    21.974600
H      10.759000     8.501200    22.735400
H       9.576700     7.836800    21.888000
C      11.116500     6.525200    22.275900
C      10.748800     5.432600    21.498900
H      10.141600     5.547400    20.776600
C      11.272500     4.154600    21.780100
H      11.014900     3.406500    21.254300
C      12.144700     3.998800    22.800900
H      12.500800     3.137500    22.985800
C      12.526800     5.073300    23.581000
H      13.152500     4.954400    24.287900
C      11.989700     6.329100    23.326700
H      12.225300     7.062400    23.881500
C      10.887600     9.704500    17.393800
H      11.707100     9.786500    16.845500
H      10.309300     9.013800    16.982200
C      10.151300    11.039100    17.417500
H      10.742500    11.725600    17.816200
H       9.351000    10.956200    17.993400
C       9.720100    11.499200    16.032700
H       9.255900    10.757700    15.568500
H       9.082400    12.252200    16.119400
