85
Refcode: NONSEQ_comp_0 | Dataset: tmCAT | Charge: -4 | Potential Spins: [1, 3, 5]
Pd      6.646400     4.804800    18.228200
S       8.217100     3.864300    19.657800
S       7.911800     2.310600    13.933600
N       4.386900     3.198000    19.444200
N       5.300300     2.139100    17.787900
N       6.952600     1.669200    20.898600
N       7.050700     4.782600    13.016700
C       5.348400     3.285500    18.498500
C       3.730400     1.966100    19.360100
C       2.724900     1.396300    20.116600
H       2.318300     1.855600    20.829300
C       2.348400     0.115300    19.768400
H       1.674600    -0.314200    20.264200
C       2.939000    -0.557400    18.702100
H       2.650100    -1.428000    18.497900
C       3.930100     0.009600    17.942000
H       4.324100    -0.447800    17.222000
C       4.318300     1.292500    18.295600
C       4.283800     4.117700    20.577800
H       4.991000     4.790300    20.497600
H       4.450700     3.613200    21.401700
C       2.962800     4.830700    20.718100
C       2.480300     5.054600    22.008700
H       2.937900     4.703900    22.750600
C       1.322200     5.798400    22.191000
H       1.004200     5.956000    23.062300
C       0.649200     6.296100    21.137400
H      -0.135000     6.796800    21.279600
C       1.093800     6.079900    19.868700
H       0.612100     6.421100    19.135900
C       2.284400     5.340000    19.650000
H       2.602900     5.200700    18.776800
C       6.186900     1.797000    16.676900
H       6.470500     0.862900    16.764400
H       6.988300     2.361100    16.717000
C       5.509100     1.989200    15.337200
H       5.351300     2.945300    15.189500
H       4.638400     1.539400    15.349900
C       6.339000     1.436600    14.188800
H       5.812500     1.489500    13.363100
H       6.528400     0.491000    14.360100
C       7.328600     3.713100    13.388600
C       7.438300     2.562900    20.379100
S       5.075700     5.745200    16.798500
S       5.381000     7.298900    22.522700
N       8.906000     6.411500    17.012200
N       7.992600     7.470400    18.668400
N       6.340200     7.940300    15.557700
N       6.242100     4.826900    23.439600
C       7.944400     6.324000    17.957800
C       9.562400     7.643400    17.096200
C      10.568000     8.213200    16.339700
H      10.974500     7.753900    15.627000
C      10.944400     9.494200    16.687900
H      11.618200     9.923700    16.192100
C      10.353800    10.166900    17.754200
H      10.642800    11.037500    17.958400
C       9.362800     9.599900    18.514300
H       8.968700    10.057300    19.234400
C       8.974500     8.317000    18.160700
C       9.009000     5.491800    15.878500
H       8.301800     4.819200    15.958800
H       8.842100     5.996300    15.054600
C      10.330000     4.778800    15.738200
C      10.812600     4.554900    14.447600
H      10.354900     4.905600    13.705800
C      11.970600     3.811100    14.265400
H      12.288600     3.653500    13.394100
C      12.643600     3.313400    15.318900
H      13.427800     2.812700    15.176800
C      12.199100     3.529600    16.587600
H      12.680700     3.188400    17.320400
C      11.008400     4.269500    16.806400
H      10.689900     4.408800    17.679500
C       7.105900     7.812500    19.779400
H       6.822300     8.746600    19.691900
H       6.304500     7.248400    19.739300
C       7.783700     7.620300    21.119100
H       7.941500     6.664200    21.266800
H       8.654400     8.070100    21.106400
C       6.953900     8.172900    22.267500
H       7.480400     8.120000    23.093300
H       6.764500     9.118500    22.096200
C       5.964300     5.896400    23.067700
C       5.854500     7.046600    16.077200
