34
Refcode: NONYIA_comp_0 | Dataset: tmCAT | Charge: unknown | Potential Spins: [1, 3, 5]
Pd      1.150800     4.139500     2.255800
Br      0.471000     1.947000     1.443100
Br      1.897500     6.358500     2.908900
N       3.903800     3.940500     1.300900
N       4.728900     4.072200     0.188300
N      -0.344300     4.164600     3.706600
C       2.614900     4.095300     0.978800
C       2.578500     4.265000    -0.420400
C       1.526000     4.429000    -1.331000
H       0.634900     4.542200    -1.023800
C       1.806600     4.425600    -2.682100
H       1.097200     4.429000    -3.313500
C       3.147000     4.415200    -3.127300
H       3.323700     4.537600    -4.051900
C       4.215300     4.232700    -2.257100
H       5.104100     4.117200    -2.573500
C       3.912500     4.226900    -0.885800
C       6.068900     3.507400     0.183000
H       6.626800     3.997100    -0.470000
H       6.021400     2.561600    -0.105500
C       6.710300     3.577900     1.524900
H       6.989200     4.511000     1.700200
H       7.523200     3.013100     1.524900
C       5.794100     3.121700     2.629400
H       6.247800     3.246400     3.501200
H       5.608900     2.155000     2.520800
C       4.490400     3.879300     2.637100
H       3.856300     3.435800     3.254500
H       4.647100     4.798600     2.969100
C      -1.012000     4.170300     4.613400
C      -1.868000     4.170300     5.797000
H      -2.249400     3.276500     5.924200
H      -2.591000     4.820600     5.677600
H      -1.336900     4.414000     6.583500
