38
Refcode: NOXHIT_comp_0 | Dataset: tmCAT | Charge: unknown | Potential Spins: [1, 3, 5]
W      12.140600     3.212000     3.986700
O      11.634700     1.093800     1.660200
O      15.212000     3.212000     3.284100
O      12.825900     5.410900     6.176500
N       9.150800     2.140900     4.868700
C       9.959400     3.212000     4.598800
C       7.903100     2.541300     5.299800
H       7.181700     1.974700     5.548200
C       9.489900     0.725300     4.695900
H       9.361300     0.253100     5.557000
H      10.445500     0.648800     4.446600
C       8.643700     0.054000     3.630700
H       8.753100     0.533200     2.771600
H       7.689400     0.101500     3.888900
C       9.048300    -1.404300     3.453000
H       9.974700    -1.449300     3.134900
H       8.456600    -1.830800     2.799100
H       8.975800    -1.870700     4.312100
C      11.796900     1.833400     2.528100
C      14.084600     3.212000     3.522700
C      12.551300     4.625300     5.388100
N       9.150800     4.283100     4.868700
C       7.903100     3.882700     5.299800
H       7.181700     4.449300     5.548200
C       9.489900     5.698700     4.695900
H       9.361300     6.170900     5.557000
H      10.445500     5.775200     4.446600
C       8.643700     6.370000     3.630700
H       8.753100     5.890800     2.771600
H       7.689400     6.322500     3.888900
C       9.048300     7.828300     3.453000
H       9.974700     7.873300     3.134900
H       8.456600     8.254800     2.799100
H       8.975800     8.294700     4.312100
O      11.634700     5.330200     1.660200
O      12.825900     1.013100     6.176500
C      11.796900     4.590600     2.528100
C      12.551300     1.798700     5.388100
