90
Refcode: NUWHIY_comp_0 | Dataset: tmCAT | Charge: 1 | Potential Spins: [1, 3, 5]
Ir     12.334400     5.024700     1.652200
S       9.603700     4.846000    -2.038900
S      16.659100     4.791000     0.296600
N      11.575600     5.202100    -0.402000
N      13.636600     4.211200     4.309600
C      12.664000     4.829400     3.620800
N      11.005800     7.182200     3.286900
C      10.727000     6.181600     4.278900
H      10.020700     5.594200     3.948200
H      10.406900     6.602800     5.087600
N      11.919000     5.400900     4.557600
C      13.466200     4.389400     5.688900
H      14.020600     4.044300     6.361600
N      11.637300     8.160800     1.549500
C      10.335100     4.794500    -0.405200
C      15.069300     4.481600     0.599700
C      11.613100     6.905000     2.107000
C      14.954200     2.187700    -0.275500
H      15.802100     2.290700    -0.643400
C      14.299000     0.965300    -0.369500
H      14.708600     0.251600    -0.800700
C      13.033100     0.811100     0.183100
H      12.594600    -0.007300     0.119900
C      12.422400     1.879200     0.829800
H      11.574600     1.776200     1.197800
C      13.077600     3.101600     0.923800
C      14.343500     3.255800     0.371200
C      12.404200     5.117300     5.883400
H      12.045200     5.392900     6.693800
C       9.690000     4.228400     0.685600
C      10.468700     4.063600     1.825000
C       9.981800     3.328400     2.899600
H      10.504400     3.217800     3.663000
C       8.716400     2.758000     2.834700
H       8.390700     2.265900     3.554400
C       7.936900     2.923500     1.697000
H       7.090200     2.541900     1.653200
C       8.423700     3.658600     0.622400
H       7.902700     3.769200    -0.141000
C      13.287600     6.084300    -1.893100
H      13.928500     6.152900    -1.222100
C      13.615900     6.414300    -3.204300
H      14.476200     6.701500    -3.408500
C      12.658900     6.312500    -4.205900
H      12.879500     6.533600    -5.082800
C      11.374100     5.882500    -3.899600
H      10.733300     5.815500    -4.570600
C      11.045200     5.553400    -2.590000
C      12.002800     5.654300    -1.586700
C      11.044100     9.154000     2.366300
H      10.957400    10.053200     2.176700
C      10.667500     8.551800     3.419800
H      10.225800     8.931800     4.137800
C      14.692800     3.256700     3.873700
H      15.521100     3.475700     4.311300
H      14.820100     3.350500     2.914200
C      15.881100     8.660600     2.392300
H      15.668500     9.448100     2.841200
C      14.907300     7.688600     2.192900
H      14.042200     7.825200     2.505700
C      15.226100     6.512300     1.523500
C      16.519500     6.308600     1.055100
C      17.492400     7.281200     1.256100
H      18.356800     7.144000     0.941700
C      17.172900     8.456900     1.923900
H      17.824600     9.107200     2.058400
C      14.309800     1.819800     4.181600
H      14.354600     1.662600     5.141100
H      13.416200     1.628600     3.878500
C      12.144500     8.538300     0.259300
H      12.718300     9.318600     0.361400
H      12.700400     7.819300    -0.087500
C      11.123000     8.847900    -0.713100
H      10.469300     9.436500    -0.322500
H      10.675500     8.024900    -0.978900
C      11.732600     9.518600    -1.961100
H      12.421100     8.941300    -2.335500
H      12.133500    10.355300    -1.718000
C      10.611100     9.766600    -3.047100
H      11.029000     9.899900    -3.907700
H      10.104400    10.537600    -2.813700
H      10.036300     8.996600    -3.098900
C      15.286300     0.929800     3.500900
H      15.299700     1.156800     2.549500
H      16.165400     1.074800     3.859100
C      14.898500    -0.468000     3.663000
H      15.103800    -0.951600     2.852600
H      13.953600    -0.527900     3.829900
H      15.381900    -0.848900     4.392300
N      14.310500     5.439900     1.248000
