75
Refcode: NUXLOJ_comp_0 | Dataset: tmCAT | Charge: 1 | Potential Spins: [1, 3, 5]
C       8.477800    11.160700     7.655900
H       7.860100    10.400000     7.650800
H       8.484600    11.582000     6.771000
H       8.186300    11.813900     8.326500
C      10.317000     9.714700     6.883400
H      10.304400    10.189600     6.025600
H       9.693700     8.959200     6.846900
H      11.222200     9.383900     7.060900
C      10.878500    11.845300     8.043300
H      11.783100    11.508500     8.214500
H      10.618200    12.462600     8.758400
H      10.862600    12.316400     7.184100
C       9.895300    10.669000     8.000400
C      10.947200    11.417300    11.655200
H      10.765500    12.035900    12.393400
H      11.394100    11.898600    10.927400
H      11.526000    10.692600    11.971500
C       8.648600    11.980400    10.839900
H       9.044600    12.575200    10.169600
H       8.475600    12.483700    11.662900
H       7.806600    11.616300    10.495600
C       9.009700     9.982500    12.273400
H       8.144000     9.625900    11.983900
H       8.882900    10.543000    13.066600
H       9.613100     9.240600    12.490400
C       9.620900    10.827200    11.140700
C      11.701400     9.210100     9.779900
H      11.989000     8.794400     8.928900
H      12.261800    10.012700     9.926900
C      11.949000     8.216300    10.927200
H      12.717600     8.533100    11.465000
H      11.153800     8.202600    11.517300
C      12.233600     6.791800    10.447200
H      12.137900     6.178000    11.218600
H      13.176100     6.747000    10.147200
C      11.337400     6.279700     9.307700
H      11.615900     5.349500     9.115500
H      11.555400     6.815200     8.504500
C       9.742000     6.026800     6.691000
H       9.390100     5.668400     5.850100
H      10.690900     5.795400     6.772200
H       9.641400     7.002000     6.698800
C       9.264100     3.919000     7.891000
H      10.207900     3.776000     8.113700
H       9.074900     3.535400     7.009900
H       8.700100     3.485400     8.564200
C       7.475400     5.646700     7.610100
H       6.960900     5.343900     8.387500
H       7.201200     5.139100     6.818300
H       7.309200     6.600500     7.460400
C       8.967300     5.423400     7.867600
C       9.227600     6.124300    12.234800
H      10.145500     6.461500    12.305000
H       9.009600     5.602200    13.035500
H       8.606800     6.878900    12.158200
C      10.087400     4.054200    11.129400
H       9.849500     3.521500    11.916700
H      10.998100     4.401000    11.232300
H      10.040900     3.492600    10.327600
C       7.668400     4.679400    10.942900
H       7.036500     5.422100    10.849000
H       7.478200     4.192600    11.771100
H       7.575600     4.072400    10.178300
C       9.103100     5.229700    10.989600
C       4.758600     8.775600     8.254700
F       4.113900     9.919000     8.139400
F       3.878800     7.785900     8.120500
F       5.646000     8.680300     7.268100
O       6.634400     9.674500     9.843300
O       6.222400     7.335100     9.875700
O       4.527200     8.845300    10.830600
P       9.958900     9.728300     9.621500
P       9.516400     6.271900     9.469700
S       5.576500     8.654900     9.887200
Pd      8.301600     8.190900     9.642600
