142
Refcode: NUZHEW_comp_0 | Dataset: tmCAT | Charge: unknown | Potential Spins: [1, 3, 5]
S       5.376900    -2.320300    18.521000
Sc      7.836300    -2.696700    17.290100
Si     10.325800    -0.760300    21.050800
Si      6.272400    -1.188900    12.936900
Si      8.754300    -5.720400    18.358900
H       8.464800    -5.098900    19.653500
C      10.571100    -6.149000    18.403000
H      10.771700    -6.795300    17.694300
H      10.795000    -6.538000    19.274400
H      11.101600    -5.336000    18.260800
C       7.809100    -7.333500    18.300000
H       6.848700    -7.152900    18.370000
H       8.089000    -7.904200    19.045700
H       7.994200    -7.790000    17.453300
Si      8.373400    -5.146600    15.411500
H       8.715700    -3.872100    14.647400
C       6.734300    -5.804900    14.839000
H       6.531400    -6.635900    15.316900
H       6.771000    -5.982200    13.876900
H       6.035400    -5.143100    15.022300
C       9.641800    -6.462300    14.993500
H      10.539900    -6.127800    15.199500
H       9.586500    -6.678300    14.037600
H       9.463900    -7.267400    15.520900
O       6.557100    -2.303800    15.792600
N       8.347200    -4.646500    17.071700
O       9.546100    -1.730800    16.480900
O       8.307000    -2.201600    19.166900
C       6.752600    -3.008100    20.813300
C       7.945900    -2.336800    20.450700
C       8.817400    -1.809300    21.464300
C       8.517300    -2.077200    22.791000
H       9.100200    -1.746400    23.464700
C       7.126400    -3.124500    24.552400
H       7.733700    -2.830100    25.219900
C       6.006400    -3.835900    24.910900
H       5.862400    -4.067900    25.819400
C       5.069900    -4.219800    23.928200
H       4.279000    -4.680000    24.187800
C       5.287200    -3.934800    22.605600
H       4.645900    -4.201900    21.958700
C       6.453400    -3.250900    22.187400
C       7.376600    -2.826100    23.186600
C       5.883300    -3.471700    19.731700
C       5.443000    -4.706800    19.381500
H       5.554600    -5.468000    19.935700
C      10.863200    -2.365700    16.433500
H      10.927100    -2.974100    15.656800
H      11.027000    -2.886200    17.259600
C      11.862800    -1.233700    16.309900
H      12.660900    -1.513100    15.796900
H      12.146400    -0.905400    17.199900
C      11.066400    -0.175400    15.558000
H      11.428500     0.728600    15.731000
H      11.083500    -0.347300    14.583500
C       9.661900    -0.309600    16.106000
H       9.534800     0.275100    16.895000
H       8.992100    -0.070800    15.417900
C       4.793500    -4.764600    18.102200
H       4.449800    -5.567700    17.727300
C       4.720800    -3.558000    17.480000
C       4.346500    -3.175700    16.095700
C       5.313400    -2.510400    15.331400
C       4.993300    -2.086300    13.990200
C       3.763400    -2.389700    13.475200
H       3.551600    -2.091200    12.599600
C       1.554200    -3.516400    13.596700
H       1.362300    -3.251200    12.704700
C       0.636100    -4.265900    14.301300
H      -0.181400    -4.528000    13.895500
C       0.925200    -4.644900    15.640400
H       0.295000    -5.164500    16.126600
C       2.084300    -4.276100    16.235700
H       2.242000    -4.526100    17.138100
C       3.070500    -3.524200    15.543500
C       2.779900    -3.138800    14.198300
C      10.824800     0.178700    22.609700
C      10.478000     1.519600    22.801300
H       9.971800     1.972000    22.135900
C      10.867200     2.207500    23.955000
H      10.616000     3.117000    24.070300
C      11.612900     1.570600    24.929400
H      11.880000     2.041400    25.710200
C      11.970100     0.251800    24.760500
H      12.483100    -0.190000    25.425900
C      11.847000    -1.772400    20.572300
C      13.105800    -1.199400    20.646400
H      13.184100    -0.284100    20.891600
C      14.267500    -1.935700    20.372400
H      15.120600    -1.519900    20.419800
C      14.161400    -3.259900    20.032500
H      14.943500    -3.774200    19.867700
C      12.914300    -3.845700    19.935700
H      12.843500    -4.761100    19.690500
C      11.761100    -3.109800    20.191200
H      10.908900    -3.521100    20.104600
C      11.580100    -0.432900    23.621200
H      11.831900    -1.343800    23.520300
C       9.936200     0.578000    19.793600
C      10.959000     1.231200    19.093100
H      11.843800     0.888500    19.136400
C      10.707000     2.365800    18.337100
H      11.412000     2.786400    17.859100
C       9.430200     2.881600    18.279400
H       9.263800     3.670400    17.774600
C       8.392700     2.269100    18.946800
H       7.512700     2.623600    18.895300
C       8.651300     1.121100    19.696700
H       7.935300     0.696200    20.154100
C       6.880000     0.372800    13.776000
C       6.332800     0.826600    15.007900
H       5.644900     0.325300    15.430200
C       6.795200     1.990900    15.597100
H       6.408600     2.294400    16.408800
C       7.814800     2.713300    15.010000
H       8.132200     3.506100    15.428200
C       8.378200     2.292700    13.819200
H       9.084400     2.788600    13.419600
C       7.901400     1.141100    13.213600
H       8.282000     0.866600    12.387500
C       7.668900    -2.345600    12.451300
C       9.023300    -2.038300    12.527500
H       9.285800    -1.196000    12.879800
C      10.006500    -2.923300    12.105200
H      10.924100    -2.692900    12.177300
C       9.631000    -4.147200    11.579900
H      10.297600    -4.746500    11.268800
C       8.308400    -4.507500    11.501600
H       8.061900    -5.359800    11.161700
C       7.324800    -3.602100    11.932200
H       6.408200    -3.844900    11.870400
C       5.411200    -0.627000    11.357400
C       5.609100    -1.198700    10.090400
H       6.172600    -1.961200    10.010100
C       5.009300    -0.684900     8.959400
H       5.170800    -1.087000     8.114800
C       4.174200     0.412400     9.052100
H       3.771500     0.769400     8.269300
C       3.923000     0.989100    10.277900
H       3.331900     1.729700    10.350000
C       4.550300     0.471000    11.413000
H       4.385200     0.880500    12.253500
