94
Refcode: OBABAX_comp_0 | Dataset: tmCAT | Charge: 0 | Potential Spins: [1, 3, 5]
Y       7.653700    26.002800    10.743000
O       6.496400    26.517900     8.973300
O       4.532800    28.684700     8.791400
H       5.203700    29.168700     9.070800
O       7.088200    28.344900    11.312800
O       5.652600    26.815600    11.807800
O       5.166000    28.918400    12.154400
O       7.890800    24.775300    12.849500
O       9.002900    26.618400    12.697900
O       9.419500    25.245200    14.333200
O       9.826700    24.898800    10.661700
O       8.586700    24.660700     8.922900
O      10.526200    23.677000     8.993600
O       5.972500    24.323100    10.872100
O       5.455800    22.355300    11.585100
O       7.362600    22.676000    10.646500
N       9.074600    27.573500     9.337300
N       8.898400    27.861500     8.036300
N       9.712700    28.780800     7.531300
N       6.419800    30.388900     8.501500
N       6.195000    30.391100     7.176000
N       7.033500    31.113200     6.430200
N       3.918400    25.954100     8.304000
H       4.478800    26.420500     8.661700
N       3.183200    24.802700    11.734700
H       4.060100    24.605100    11.689100
N       5.948800    28.070400    11.774500
N       8.790700    25.533500    13.328000
N       9.676400    24.384300     9.504400
N       6.270600    23.085300    11.046200
C       6.789900    26.615500     7.683300
C       7.936700    27.245600     7.170100
C       8.169200    27.304300     5.797800
H       8.968000    27.708200     5.479900
C       7.267000    26.787300     4.890700
C       6.124300    26.176800     5.384000
H       5.487100    25.826900     4.772700
C       5.892300    26.065900     6.732900
C       4.743300    25.251500     7.247300
H       5.094600    24.407200     7.627200
H       4.153300    25.016600     6.487500
C       2.853000    26.862700     7.734700
H       2.211400    26.326300     7.204000
H       2.356000    27.293600     8.474600
C       3.469600    27.920500     6.859200
C       4.390900    28.788400     7.446000
C       5.140500    29.625700     6.619600
C       4.902700    29.651400     5.251900
H       5.414600    30.233400     4.702500
C       3.932800    28.847700     4.669800
C       3.231500    27.972400     5.493900
H       2.577300    27.400400     5.112800
C      10.102600    28.389800     9.697300
C      10.758700    28.566000    10.941000
H      10.500400    28.085100    11.718400
C      11.783500    29.467700    10.958600
H      12.254200    29.605300    11.773300
C      12.176400    30.205200     9.823600
H      12.893200    30.823900     9.899500
C      11.555300    30.055000     8.617200
H      11.821700    30.547500     7.850400
C      10.501200    29.133200     8.576300
C       7.514200    31.174100     8.637100
C       8.209700    31.562000     9.797800
H       7.956800    31.254200    10.660500
C       9.265900    32.402500     9.613200
H       9.753000    32.711500    10.368300
C       9.648700    32.823300     8.320300
H      10.408400    33.386800     8.239700
C       9.000200    32.470300     7.199300
H       9.282100    32.771200     6.343700
C       7.883800    31.632700     7.353600
C       7.499500    26.862400     3.400400
H       8.349000    27.318800     3.225000
H       6.767500    27.359600     2.980700
H       7.533300    25.955700     3.028700
C       3.679000    28.867800     3.180600
H       4.257300    29.539300     2.759800
H       2.740600    29.093300     3.012300
H       3.873900    27.984600     2.804200
C       3.338400    24.970100     9.260100
H       4.016100    24.281600     9.475200
H       2.564600    24.517200     8.839300
C       2.890100    25.660100    10.543600
H       3.360500    26.527300    10.636000
H       1.917300    25.842600    10.498000
C       2.492800    23.478200    11.651700
H       2.716300    22.943600    12.441900
H       2.785000    23.006400    10.844000
H       1.523200    23.615800    11.615500
C       2.813000    25.529800    12.985500
H       3.013200    24.966300    13.762800
H       1.854300    25.735800    12.971400
H       3.325800    26.360800    13.043900
