52
Refcode: OBELIT_comp_0 | Dataset: tmCAT | Charge: 1 | Potential Spins: [1, 3, 5]
Rh      8.224500     2.600300     9.765100
P       6.889200     1.549800    11.182300
N       9.722300     2.013500    11.033100
N       9.951900     3.089200     8.559400
H       9.846200     3.825800     8.198900
C       6.841700     3.195400     8.710000
O       5.972400     3.572300     8.078500
C      11.143100     3.170100     9.439200
H      11.296500     4.114900     9.690900
H      11.937700     2.856200     8.939500
C      10.990400     2.345700    10.690800
C      12.065200     1.983500    11.479700
H      12.950900     2.209700    11.221800
C      11.829900     1.282900    12.657100
H      12.556200     1.023500    13.211600
C      10.531100     0.965800    13.016500
H      10.357800     0.504600    13.829300
C       9.482300     1.328600    12.176100
C       8.059400     0.997800    12.503700
H       7.812800     1.433600    13.357900
H       7.973100     0.018700    12.625100
C       9.984600     2.037200     7.562500
C      10.508700     0.782400     7.854600
H      10.879400     0.603600     8.710800
C      10.484600    -0.207100     6.878500
H      10.828200    -1.070800     7.075700
C       9.966400     0.052300     5.622400
H       9.955300    -0.629900     4.961400
C       9.465400     1.307700     5.332700
H       9.123700     1.490700     4.465100
C       9.457500     2.302400     6.299500
H       9.095600     3.158500     6.101700
C       6.207900    -0.015000    10.494600
H       5.856700    -0.560700    11.256000
C       5.044400     0.271500     9.540000
H       5.352100     0.853100     8.815000
H       4.321900     0.715700    10.030100
H       4.713900    -0.571700     9.165100
C       7.311300    -0.816600     9.806000
H       6.937200    -1.651300     9.452900
H       8.017700    -1.022400    10.453200
H       7.686900    -0.290200     9.070200
C       5.498100     2.370100    12.055400
H       4.830900     2.641800    11.361800
C       4.778800     1.434500    13.034700
H       5.412500     1.125800    13.715700
H       4.421000     0.662900    12.547300
H       4.043300     1.917300    13.466800
C       5.963600     3.644400    12.761400
H       5.184600     4.131400    13.102700
H       6.450200     4.210600    12.127200
H       6.553600     3.408000    13.507200
