61
Refcode: OCODER_comp_0 | Dataset: tmCAT | Charge: unknown | Potential Spins: [1, 3, 5]
Os      2.384300     8.790400     8.399000
H       1.082900     9.060500     7.393000
Cl      4.171600     7.904500     9.981200
P       3.312900     7.484400     6.710000
P       1.057400     9.571400    10.145000
O       3.645100    11.421900     7.686100
N       1.380300     6.917300     8.912500
H       1.854200     6.564400     9.632400
C       2.765500     5.788000     7.199000
H       2.711300     5.207900     6.399400
H       3.421500     5.390100     7.826200
C       1.395000     5.871400     7.871500
H       0.705700     6.074100     7.190400
H       1.174300     4.996100     8.278900
C      -0.001200     7.141900     9.410400
H      -0.392700     6.280800     9.701400
H      -0.561400     7.503800     8.679800
C      -0.000100     8.110800    10.572200
H       0.353600     7.665500    11.380500
H      -0.925000     8.409900    10.759700
C      -0.177000    10.916300     9.923400
H      -0.707500    10.971400    10.770500
C       0.478600    12.276600     9.716500
H      -0.213700    12.953000     9.561300
H       1.075300    12.236800     8.940600
H       0.995400    12.515300    10.514000
C      -1.149800    10.592900     8.809100
H      -1.831600    11.294900     8.755200
H      -1.580800     9.731700     8.990100
H      -0.666600    10.542800     7.957700
C       1.901200     9.862600    11.766300
H       2.329300     8.993800    12.016300
C       3.049100    10.890600    11.652000
H       3.569000    10.894400    12.481900
H       2.675000    11.782500    11.496900
H       3.632600    10.646800    10.902000
C       0.972500    10.232200    12.930200
H       1.458200    10.142400    13.777300
H       0.197100     9.632900    12.934500
H       0.669300    11.157500    12.824600
C       5.141900     7.275400     6.610600
H       5.451900     7.134200     7.550300
C       5.610400     6.062600     5.836800
H       6.587000     5.997100     5.890700
H       5.341700     6.149900     4.897100
H       5.207100     5.255400     6.218300
C       5.833100     8.544600     6.132100
H       6.795600     8.477900     6.304500
H       5.467100     9.315900     6.612700
H       5.682400     8.656300     5.170800
C       2.764800     7.736100     4.955200
H       3.416800     7.253600     4.371100
C       1.382200     7.131600     4.688000
H       1.162300     7.229200     3.737400
H       0.711400     7.598800     5.226800
H       1.389800     6.180700     4.925100
C       2.813800     9.215800     4.563000
H       2.613000     9.305600     3.608100
H       3.708300     9.571300     4.744000
H       2.151300     9.713800     5.084600
C       3.172800    10.392600     7.959900
