80
Refcode: OCUKUS_comp_0 | Dataset: tmCAT | Charge: unknown | Potential Spins: [1, 3, 5]
Zr      6.091400     4.215400     4.152200
Cl      7.286500     5.829700     5.483800
Cl      6.392800     5.313600     2.032400
C       4.097900     3.027900     4.933200
C       3.732300     3.652000     3.708500
H       3.553800     3.192100     2.896500
C       3.671600     5.074300     3.873900
C       4.074700     5.345400     5.183500
H       4.152100     6.207600     5.573900
C       4.351300     4.102100     5.834700
H       4.655300     4.006000     6.730100
C       6.068300     1.835300     4.572700
C       7.168600     2.310300     5.389200
C       8.249900     2.673800     4.526500
C       7.846600     2.439700     3.166200
C       6.489900     1.935700     3.209400
C       7.319400     2.525500     6.792700
H       6.612800     2.320500     7.393200
C       8.505000     3.035800     7.256100
H       8.614400     3.170600     8.190300
C       9.560000     3.366200     6.396400
H      10.364200     3.719600     6.756900
C       9.451500     3.187300     5.042000
H      10.172800     3.405700     4.463900
C       5.844300     1.710600     1.959300
H       4.943500     1.409800     1.935500
C       6.523300     1.930000     0.791200
H       6.076400     1.788300    -0.034300
C       7.868400     2.360400     0.777800
H       8.323800     2.466400    -0.049200
C       8.517000     2.625300     1.954800
H       9.415500     2.933900     1.947400
C       3.221000     5.985500     2.771300
H       3.797400     5.791400     1.977200
C       1.756900     5.678600     2.354100
H       1.657300     4.691900     2.224500
C       0.876000     7.649200     3.611600
H       0.213500     7.954500     4.295500
C       2.310900     7.971500     4.081000
H       2.402600     8.945900     4.227000
H       2.490200     7.514100     4.940700
C       3.319400     7.512400     3.038000
H       4.242700     7.736500     3.347900
C       3.045900     8.212700     1.707500
H       3.699800     7.907300     1.029600
H       3.152400     9.191700     1.819200
C       1.615900     7.898100     1.229200
H       1.434700     8.369800     0.366500
C       0.612900     8.342800     2.281100
H      -0.303900     8.128700     1.974200
H       0.674900     9.323600     2.401800
C       1.477500     6.383500     1.032500
H       0.562700     6.166500     0.721100
H       2.120300     6.073900     0.344200
C       0.782700     6.133000     3.426900
H       0.992200     5.679800     4.280600
H      -0.139500     5.884800     3.164700
C       4.623700     1.618600     5.062900
C       3.845500     0.597200     4.188300
C       2.473500     0.779700     3.976700
H       2.035400     1.549300     4.320900
C       1.762000    -0.164900     3.266000
H       0.834900    -0.031400     3.109500
C       2.379800    -1.299800     2.781700
H       1.879300    -1.947500     2.300500
C       3.731100    -1.483700     2.999300
H       4.166200    -2.260000     2.665500
C       4.452000    -0.532900     3.707000
H       5.380100    -0.667100     3.860500
C       4.536900     1.043300     6.493200
C       3.511300     1.445800     7.335000
H       2.901600     2.118900     7.057900
C       3.381400     0.856800     8.592600
H       2.677600     1.129000     9.170700
C       4.263900    -0.118600     9.003800
H       4.176200    -0.504200     9.868000
C       5.276300    -0.533300     8.162000
H       5.879400    -1.212100     8.440600
C       5.410900     0.046200     6.904400
H       6.106400    -0.241400     6.323400
