81
Refcode: OFADOO_comp_0 | Dataset: tmCAT | Charge: unknown | Potential Spins: [1, 3, 5]
Ru     14.762700    17.113300     3.248700
Cl     15.643300    15.474200     1.721300
Cl     13.754300    18.431600     5.003400
P      16.432800    18.558100     2.460300
P      12.937800    17.685200     1.914100
N      16.027000    16.422100     4.706900
N      13.709200    15.543300     4.034800
C      16.431600    18.883200     0.659000
C      16.845900    17.918900    -0.263800
H      17.227300    17.126500     0.038400
C      16.693300    18.133500    -1.621200
H      16.978100    17.486000    -2.226600
C      16.131100    19.279900    -2.074000
H      16.021500    19.404600    -2.989700
C      15.715300    20.275900    -1.188600
H      15.345500    21.068300    -1.505000
C      15.864900    20.055800     0.175900
H      15.579500    20.705100     0.777200
C      16.799600    20.246400     3.130200
C      17.857600    20.974800     2.602600
H      18.352200    20.624400     1.896100
C      18.190000    22.227600     3.123100
H      18.903200    22.708100     2.769400
C      17.456500    22.746700     4.159100
H      17.650400    23.594100     4.489600
C      16.447500    22.014800     4.697800
H      15.979500    22.352300     5.427600
C      16.099200    20.767900     4.175300
H      15.389100    20.292400     4.542200
C      18.071500    17.773600     2.787600
C      19.127100    17.827200     1.898100
H      19.008400    18.271100     1.089600
C      20.345200    17.251200     2.163900
H      21.028000    17.295200     1.535300
C      20.548700    16.620200     3.338400
H      21.375600    16.236900     3.524400
C      19.532700    16.546900     4.258200
H      19.677700    16.104800     5.063700
C      18.305600    17.111100     4.010500
C      17.254200    17.088000     5.107200
H      17.618100    16.634900     5.884400
H      17.048100    17.999600     5.365900
C      15.568600    15.428000     5.396200
H      16.026600    15.079500     6.127000
C      14.310000    14.892400     4.963600
H      13.951000    14.118300     5.335600
C      12.469900    15.029900     3.485000
H      12.205500    14.241200     3.985300
H      12.619700    14.760300     2.566200
C      11.338000    16.039700     3.523400
C      10.149300    15.708200     4.180300
H      10.089300    14.892400     4.624000
C       9.064100    16.559700     4.188400
H       8.285500    16.321200     4.635100
C       9.141800    17.755600     3.535500
H       8.413300    18.335300     3.534500
C      10.310400    18.104000     2.872500
H      10.356300    18.924100     2.435800
C      11.411300    17.263000     2.845200
C      12.638100    16.806200     0.333500
C      11.419300    16.210100     0.004000
H      10.744500    16.156200     0.642800
C      11.205700    15.700900    -1.258300
H      10.390500    15.305100    -1.465500
C      12.197500    15.776500    -2.216500
H      12.044500    15.446300    -3.072600
C      13.414400    16.339600    -1.904200
H      14.086900    16.383600    -2.544000
C      13.629300    16.839100    -0.634700
H      14.458300    17.205400    -0.425500
C      12.697600    19.443500     1.398800
C      12.317700    19.797200     0.110200
H      12.101000    19.135000    -0.506400
C      12.259500    21.147200    -0.265800
H      12.008800    21.382000    -1.130000
C      12.570100    22.110200     0.636800
H      12.544200    23.003500     0.384100
C      12.921400    21.776300     1.919400
H      13.116900    22.447700     2.532900
C      12.986100    20.449600     2.307500
H      13.223800    20.231900     3.179700
