70
Refcode: OGOPOR_comp_0 | Dataset: tmCAT | Charge: unknown | Potential Spins: [1, 3, 5]
Ru     -2.804500    13.408400    18.790500
Cl     -4.668900    12.047800    18.066100
O      -8.873900    18.077800    19.528200
O      -9.478700    17.634800    17.512000
O       2.240500    10.672800    13.565700
O       2.359600    12.639500    12.659100
O      -3.403800    20.997200    13.902500
O      -4.679700    20.303700    12.326000
N      -3.787300    14.914900    17.627000
N      -2.335200    13.548600    16.750300
N      -3.593400    14.865300    15.203900
H      -3.768200    14.245100    14.635200
N      -8.674400    17.593900    18.427800
N      -3.974600    20.114100    13.306800
N       1.871400    11.835400    13.446300
C      -3.248600    14.479300    16.487200
C      -5.025100    15.561100    17.766700
C      -5.197100    16.362900    18.885200
H      -4.500400    16.462800    19.493000
C      -6.394200    17.014800    19.106200
H      -6.513100    17.535700    19.867500
C      -7.404200    16.887000    18.193500
C      -7.263200    16.107900    17.079700
H      -7.958900    16.031600    16.468400
C      -6.071700    15.431000    16.870700
H      -5.975100    14.886900    16.122800
C      -1.299000    13.150100    15.911900
C      -0.756500    13.987700    14.930600
H      -1.095900    14.844700    14.816200
C       0.280400    13.548100    14.133800
H       0.628200    14.101400    13.472700
C       0.794600    12.289300    14.323100
C       0.325800    11.464500    15.321200
H       0.707500    10.627500    15.458200
C      -0.721800    11.896900    16.120700
H      -1.040800    11.348500    16.799700
C      -3.678400    16.178300    14.768100
C      -3.376100    17.260600    15.579200
H      -3.125800    17.119400    16.464300
C      -3.442200    18.540900    15.087600
H      -3.219300    19.262700    15.629000
C      -3.840700    18.746600    13.790800
C      -4.155200    17.696700    12.964900
H      -4.426800    17.852800    12.090000
C      -4.063700    16.411700    13.445100
H      -4.259500    15.694600    12.886300
C      -1.237200    14.544900    19.864600
C      -2.461800    14.558500    20.592500
H      -2.827300    15.377500    20.836600
C      -3.141300    13.384100    20.957300
H      -3.937900    13.434800    21.435300
C      -2.613000    12.126800    20.596700
C      -1.425000    12.088100    19.842800
H      -1.070700    11.266700    19.589700
C      -0.760500    13.281000    19.464600
H       0.005900    13.229200    18.941600
C      -0.498600    15.833600    19.557400
H      -1.016400    16.571800    19.939500
C       0.863800    15.812800    20.256300
H       1.332100    16.631300    20.069100
H       1.378800    15.070200    19.931200
H       0.737700    15.726900    21.202800
C      -0.340700    16.101700    18.068600
H       0.126900    16.931100    17.939600
H      -1.207100    16.155500    17.659700
H       0.159000    15.387400    17.665900
C      -3.349300    10.865100    20.955500
H      -4.133000    11.085900    21.464100
H      -2.777700    10.297900    21.478500
H      -3.608100    10.406900    20.153500
