56
Refcode: OHAPAO_comp_0 | Dataset: tmCAT | Charge: unknown | Potential Spins: [1, 3, 5]
Mo      2.859500     3.000100    10.727100
P       3.234400     2.917300     8.365600
P       5.110700     4.003900    10.970800
P       1.929300     5.186700    11.168200
H       1.522900     3.556500     9.727800
C       4.712500     2.078400     7.755900
H       4.759000     1.186400     8.136500
H       5.500700     2.580400     8.015900
H       4.673000     2.016700     6.788600
C       1.962800     2.002600     7.414900
H       2.167300     2.053100     6.467300
H       1.091400     2.395300     7.579400
H       1.955800     1.074200     7.693400
C       3.251600     4.448400     7.334800
H       3.931300     5.054300     7.668200
H       2.384400     4.877600     7.379800
H       3.450400     4.215600     6.413600
C       6.515900     2.832900    11.099800
H       7.340800     3.332100    11.213900
H       6.568100     2.300000    10.291500
H       6.382000     2.249500    11.863100
C       5.390700     4.981400    12.492600
H       4.900000     4.585900    13.227400
H       5.084700     5.892900    12.352200
H       6.338300     4.989800    12.702100
C       5.823600     5.163700     9.713600
H       6.693600     5.469400    10.014100
H       5.231400     5.923800     9.602800
H       5.919500     4.700900     8.865800
C       1.797800     5.733100    12.912700
H       1.287400     6.557700    12.954300
H       2.686200     5.884500    13.271300
H       1.350800     5.048700    13.433600
C       0.169200     5.332000    10.672100
H      -0.193200     6.165000    11.005500
H      -0.332800     4.588700    11.043900
H       0.104300     5.312300     9.704800
C       2.560700     6.745600    10.403400
H       2.617100     6.633400     9.441600
H       3.440600     6.944700    10.757600
H       1.955800     7.474800    10.609600
C       2.416900     2.190600    13.010300
C       2.665000     2.687000    14.298900
H       2.062900     3.149800    14.852700
C       3.942600     2.364500    14.580800
H       4.355700     2.580400    15.396700
N       4.571400     1.708100    13.601400
C       3.643600     1.584700    12.627500
C       3.767700     0.962100    11.348800
H       4.657500     0.687200    11.012100
C       2.601600     0.681600    10.593100
H       2.676300     0.221600     9.717900
C       1.367800     1.262200    10.989000
H       0.593600     1.200500    10.374900
C       1.276100     2.100800    12.111000
H       0.439900     2.591700    12.307300
