57
Refcode: OJIVIM_comp_0 | Dataset: tmCAT | Charge: 1 | Potential Spins: [1, 3, 5]
Ru      7.932100     2.743400    10.256900
P       5.998200     2.653600    11.484500
P       9.321100     1.561900    11.644700
N       7.420900     0.972900     9.278000
N       7.546700     0.914900     7.916900
N       6.861500     3.797700     8.721100
N       6.955200     3.310900     7.448000
N       9.561400     2.986000     8.868800
N       9.347400     2.615700     7.570200
N       8.525300     4.624200    11.078200
B       7.942300     2.160300     7.114100
C       7.061300    -0.254600     9.673000
C       6.979700    -1.117900     8.580400
C       7.284600    -0.342900     7.496300
C       6.015900     4.838600     8.657100
C       5.549100     5.017700     7.359900
C       6.177100     4.042700     6.626800
C      10.825000     3.439100     8.920000
C      11.435200     3.347200     7.676800
C      10.469000     2.821200     6.841300
C       4.540300     2.328400    10.437400
C       5.655600     1.476200    12.827300
C       5.548900     4.215800    12.332800
C       8.765900     0.382700    12.922500
C      10.496700     2.553200    12.642600
C      10.433400     0.471300    10.684700
H       7.951300     1.920300     6.024300
H       6.944900    -0.419100    10.556800
H       6.705200    -2.081500     8.652900
H       7.277100    -0.464900     6.663700
H       5.850300     5.380000     9.590600
H       4.950800     5.644100     7.004700
H       6.167700     3.856900     5.782800
H      11.227100     3.690000     9.704300
H       9.354000     4.749600    11.054100
H       8.189000     5.320900    10.798300
H       8.285900     4.747100    12.020300
H      12.291900     3.583800     7.487800
H      10.509500     2.648000     5.882300
H       4.443000     2.928700     9.832200
H       4.616000     1.439700    10.073700
H       3.745700     2.366200    10.968800
H       5.763200     0.571600    12.560200
H       6.185000     1.699400    13.497900
H       4.779700     1.488000    13.043300
H       6.171500     4.341700    13.000600
H       5.587100     4.926700    11.792900
H       4.645500     4.085200    12.659600
H       8.175900    -0.267700    12.560200
H       9.534000    -0.045700    13.284800
H       8.343900     0.848500    13.682600
H      10.008800     3.098600    13.370100
H      11.105000     2.014000    13.014800
H      11.015900     3.158000    12.034500
H      10.912300     0.913600    10.144800
H      11.031500     0.082400    11.352500
H       9.899400    -0.183200    10.201600
