73
Refcode: OKAPIB_comp_0 | Dataset: tmCAT | Charge: unknown | Potential Spins: [1, 3, 5]
C       3.002300     5.092000     6.996100
C       2.159800     6.106800     6.586900
H       1.380700     5.892300     6.086100
C       2.428900     7.437000     6.893500
H       1.848400     8.123700     6.588100
C       3.536400     7.754200     7.636100
H       3.711200     8.657300     7.871800
C       4.393000     6.753900     8.040300
H       5.169000     6.970200     8.544800
C       4.125700     5.438100     7.714200
H       4.728500     4.756700     7.990300
C       2.916600     2.608200     8.211300
C       1.832900     2.532500     9.051600
H       0.973400     2.779400     8.729200
C       1.968600     2.103500    10.356100
H       1.210000     2.067400    10.926500
C       3.206900     1.732200    10.828700
H       3.305600     1.442000    11.728900
C       4.278500     1.777200    10.012900
H       5.129200     1.512300    10.342600
C       4.155100     2.204400     8.707200
H       4.919700     2.224200     8.142900
C       4.143600     2.939800     5.536500
H       4.658200     3.772600     5.391200
H       4.717200     2.316200     6.049500
C       3.832500     2.319800     4.196700
H       4.462500     2.683900     3.524900
H       3.984100     1.344600     4.254100
C       2.278600     1.860100     2.422000
H       2.537800     0.912000     2.539200
H       2.901500     2.262100     1.767300
C       0.870100     1.908800     1.843100
H       0.652200     1.020200     1.466900
H       0.857900     2.561300     1.098000
C      -1.727700     1.054400     2.886100
C      -2.606900     0.885000     3.941400
H      -2.542400     1.452800     4.701100
C      -3.577400    -0.097300     3.901100
H      -4.181500    -0.196500     4.627800
C      -3.671000    -0.933700     2.815300
H      -4.334700    -1.613200     2.793300
C      -2.807700    -0.785900     1.768600
H      -2.870600    -1.362700     1.016200
C      -1.840700     0.201900     1.800300
H      -1.245900     0.297400     1.066300
C      -1.251900     3.769000     2.136200
C      -1.404700     5.016300     2.720000
H      -1.151100     5.142400     3.626300
C      -1.923500     6.081500     2.001800
H      -2.042600     6.925100     2.420800
C      -2.262100     5.912100     0.688900
H      -2.582900     6.651100     0.185600
C      -2.141600     4.684600     0.089200
H      -2.395800     4.565700    -0.818300
C      -1.646800     3.615800     0.824400
H      -1.577200     2.761400     0.414000
C       1.543300     0.780500     5.979900
H       1.208700     0.757000     6.876400
H       2.473900     0.612800     5.862600
C       0.637900     0.479500     4.912400
H       1.052000     0.072100     4.103800
H      -0.301300     0.306400     5.190900
C       1.985700     3.927600     3.781400
H       1.525300     4.275500     2.976500
H       2.594400     4.583700     4.205200
C      -1.193300     3.628400     6.468400
H      -1.963200     3.952800     6.920300
O      -0.869400     2.429700     6.583200
O      -0.509500     4.411400     5.761200
Mo      0.814400     2.699700     5.107600
N       2.444000     2.560200     3.726400
P       2.627100     3.337500     6.552200
P      -0.447100     2.377600     3.067600
