25
Refcode: OKUTET_comp_0 | Dataset: tmCAT | Charge: unknown | Potential Spins: [1, 3, 5]
Mo      1.827000     3.070200     9.220700
S       3.699900     5.895400     9.793400
F       2.705100     7.312100     7.849500
F       3.839500     5.601500     7.190000
F       4.855000     7.333500     7.950700
O       0.048200     4.858500     7.296200
O       1.275300     1.200200     6.767000
O       4.657400     2.558200     7.935000
O       2.440200     5.126900     9.756900
O       4.874700     5.086800     9.934800
O       3.575300     7.065900    10.614600
C       0.673200     4.244700     7.982000
C       1.465300     1.878600     7.668600
C       3.648700     2.830600     8.381000
C       1.606800     2.993900    11.591000
H       1.874500     3.695900    12.172000
C       2.422200     1.928700    11.172700
H       3.332500     1.792600    11.409000
C       1.650000     1.102200    10.341000
H       1.944800     0.301000     9.923900
C       0.340800     1.674300    10.230100
H      -0.384900     1.324000     9.727400
C       0.327000     2.856700    11.008800
H      -0.408000     3.448100    11.119700
C       3.781800     6.572000     8.099000
