70
Refcode: OLADOV_comp_0 | Dataset: tmCAT | Charge: 0 | Potential Spins: [1, 3, 5]
Zn      7.332100     3.318400     3.193000
Si      4.233700     2.780000     4.117000
Si      5.987400     0.575000     2.613500
N       6.808500     5.188000     2.262900
N       7.835100     4.750600     4.742300
N       7.210600     3.111200     7.157000
C       9.164700     3.042700     2.456500
C      10.300500     2.839200     2.072000
C      11.621700     2.488900     1.622100
C      12.755300     2.926300     2.296800
H      12.667800     3.528400     3.025400
C      14.016800     2.486700     1.911400
H      14.782600     2.787200     2.386400
C      14.168700     1.629700     0.858900
H      15.032300     1.328100     0.604400
C      13.052200     1.206500     0.172300
H      13.151500     0.616100    -0.566500
C      11.796400     1.628600     0.542300
H      11.039100     1.328100     0.054300
C       6.030200     5.417700     1.191900
H       5.572000     4.685800     0.795500
C       5.870800     6.669800     0.647200
H       5.320000     6.797200    -0.116900
C       6.521900     7.737200     1.226300
H       6.432800     8.610500     0.864600
C       7.306800     7.515000     2.340600
H       7.748400     8.239900     2.768500
C       7.444500     6.227300     2.829100
C       8.351000     5.897500     3.984200
H       9.256400     5.687700     3.643000
H       8.423200     6.682600     4.581700
C       8.806900     4.248900     5.739700
H       8.951700     4.934800     6.439500
H       9.674900     4.068500     5.299800
C       8.286700     2.991800     6.364000
C       8.864100     1.770000     6.075800
H       9.623000     1.720900     5.507300
C       8.330000     0.626600     6.619000
H       8.712100    -0.222100     6.426300
C       7.239100     0.726000     7.440800
H       6.855400    -0.046800     7.837700
C       6.714200     1.977000     7.676000
H       5.954300     2.042400     8.241200
C       5.880000     2.039700     3.726500
H       6.191900     1.685900     4.608100
C       3.292000     1.764200     5.388400
H       3.806800     1.724400     6.222100
H       3.156200     0.855800     5.044500
H       2.422700     2.181600     5.561600
C       3.132300     2.953200     2.609500
H       2.956900     2.067000     2.229900
H       3.580300     3.512000     1.940100
H       2.284900     3.369400     2.870600
C       4.381500     4.504600     4.857600
H       4.930700     4.466000     5.668700
H       3.488500     4.841300     5.082400
H       4.802000     5.104300     4.206200
C       4.715700    -0.761100     2.985900
H       4.780500    -1.019500     3.929600
H       4.887200    -1.542100     2.419300
H       3.817300    -0.416200     2.803100
C       5.792600     1.074400     0.811300
H       6.433700     1.784100     0.597800
H       4.880900     1.401800     0.658800
H       5.960800     0.298100     0.237200
C       7.669800    -0.243600     2.779200
H       7.796700    -0.547100     3.702300
H       8.370500     0.401000     2.547800
H       7.720700    -1.012400     2.173900
H       7.103100     4.957000     5.166400
