70
Refcode: OLIRIM_comp_0 | Dataset: tmCAT | Charge: unknown | Potential Spins: [1, 3, 5]
Re      8.262300     5.152200     8.748000
F       7.262500     1.967600     8.969600
F       8.580700    -0.330700     8.763500
F      11.262300    -0.367500     8.300500
F      12.628300     2.002600     8.182700
F      11.374300     4.298900     8.516900
O       6.642100     4.689600     8.780100
N       8.928800     5.573300    10.557900
N       8.469700     7.203300     8.727500
N       8.837100     5.529600     6.901400
C       8.519700     7.859000     9.900400
C       8.430000     9.234300     9.911600
H       8.441800     9.715600    10.731600
C       8.323100     9.899900     8.702000
H       8.240800    10.846700     8.692700
C       8.334600     9.205200     7.507300
H       8.280000     9.666200     6.677900
C       8.427500     7.832300     7.537100
C       8.680500     6.936000    11.061500
H       9.439400     7.231200    11.624400
H       7.860800     6.947200    11.616900
C       8.538600     6.875000     6.377900
H       7.689300     6.858200     5.870900
H       9.260400     7.167000     5.766500
C       9.545500     4.727400    11.529500
C      10.918200     4.874400    11.812800
C      11.483100     4.044600    12.772500
H      12.410200     4.129300    12.960700
C      10.742900     3.089500    13.471400
C       9.399700     2.980100    13.167600
H       8.878100     2.331400    13.628000
C       8.778800     3.786200    12.211500
C      11.754200     5.932600    11.139800
H      11.508100     5.988900    10.193000
H      12.701900     5.697500    11.218100
H      11.593900     6.799000    11.570300
C      11.361100     2.266900    14.582200
H      11.564500     2.847500    15.344500
H      12.184700     1.849800    14.259800
H      10.728700     1.570700    14.863600
C       7.295800     3.648200    11.969200
H       6.863200     4.519500    12.082900
H       6.919600     3.010500    12.610300
H       7.142700     3.324200    11.057800
C       9.552600     4.733400     5.945500
C       8.909200     3.665700     5.302500
C       9.614900     2.926800     4.361200
H       9.172200     2.210300     3.921400
C      10.943600     3.190800     4.036900
C      11.557400     4.253700     4.698600
H      12.461600     4.457700     4.489800
C      10.902200     5.026700     5.651000
C       7.458800     3.355300     5.589500
H       7.370600     3.030300     6.510200
H       7.142700     2.667200     4.967000
H       6.922000     4.168800     5.477600
C      11.684900     2.393800     3.000700
H      11.351300     2.627700     2.107900
H      11.542500     1.437300     3.161000
H      12.643000     2.595600     3.054700
C      11.644200     6.154100     6.329400
H      11.660100     6.937300     5.738600
H      12.562100     5.872900     6.521400
H      11.192000     6.386500     7.166200
C       9.240800     3.285400     8.729600
C       8.603800     2.051800     8.800800
C       9.252800     0.832500     8.688900
C      10.631400     0.801400     8.467200
C      11.302000     1.990100     8.409400
C      10.615900     3.172800     8.560300
