38
Refcode: OLOPEL_comp_0 | Dataset: tmCAT | Charge: 0 | Potential Spins: [1, 3, 5]
Pd      3.250600     2.098500     4.316400
Cl      3.709300     2.239000     2.062400
N       2.848900     1.883600     6.319300
N       4.592700     3.662000     5.229000
C       1.846800     1.136200     6.831700
H       1.277600     0.679000     6.255400
C       1.658000     1.040300     8.167600
H       0.954000     0.529100     8.495000
C       2.508300     1.701300     9.061500
H       2.380300     1.637100     9.979900
C       3.531600     2.443600     8.544100
H       4.130700     2.877700     9.107300
C       3.667700     2.542900     7.157500
C       4.724800     3.394800     6.532100
C       5.771900     3.931700     7.306500
H       5.856900     3.717600     8.206900
C       6.662300     4.775000     6.699100
H       7.377900     5.127800     7.175500
C       6.484700     5.089300     5.392700
H       7.077100     5.675700     4.981800
C       5.430300     4.549800     4.654300
C       2.058500     0.535100     3.829200
H       2.156400    -0.159300     4.485700
H       2.309600     0.196900     2.966500
H       1.143600     0.825400     3.804700
C       5.191900     4.985700     3.259500
H       4.431200     4.473600     2.914100
C       4.820600     6.454900     3.203800
H       5.553600     6.996900     3.534500
H       4.041200     6.621900     3.757200
C       4.513000     6.817100     1.728800
H       5.199100     6.459200     1.162400
H       4.484400     7.772600     1.633800
H       3.664100     6.446300     1.478300
C       6.409900     4.705700     2.328000
H       7.141400     5.275900     2.576800
H       6.162800     4.882100     1.416100
H       6.675200     3.787800     2.414800
