107
Refcode: OMABEJ_comp_0 | Dataset: tmCAT | Charge: unknown | Potential Spins: [1, 3, 5]
Zr     -3.629700    -3.466500     3.837700
Si     -5.936200    -6.335500     2.774000
O      -3.126800    -1.565500     2.900500
O      -1.937100    -4.213800     2.692300
O      -1.939900    -2.945200     4.966800
N      -0.212400    -2.841900     3.443800
N       0.179200    -4.816800     2.257200
N      -4.803300    -1.688300     4.304700
N      -4.021200     0.427200     3.442500
N      -0.492700    -1.145400     4.988200
C      -5.769500    -5.071800     1.360200
C      -4.748200    -3.736400     1.707200
B      -6.450100    -3.537900     1.597800
H      -7.056300    -3.266900     2.474700
B      -7.045000    -4.646400     0.328400
H      -8.054100    -5.081000     0.373700
B      -5.668300    -5.572300    -0.272300
H      -5.776800    -6.608900    -0.620700
B      -4.229700    -5.015500     0.640700
H      -3.407900    -5.699100     0.898300
B      -5.344300    -2.401900     0.811600
H      -5.243600    -1.361500     1.154600
B      -6.796500    -2.949100    -0.046700
H      -7.640700    -2.274600    -0.250900
B      -6.287700    -4.216600    -1.218700
H      -6.792000    -4.362900    -2.186400
B      -4.512700    -4.442400    -1.017100
H      -3.858800    -4.741900    -1.848700
B      -3.967300    -3.304100     0.240300
H      -2.960300    -2.859200     0.217600
B      -5.228900    -2.817100    -0.911700
H      -5.054600    -2.061600    -1.692500
C      -5.327100    -7.999000     2.202400
H      -5.413100    -8.634600     2.916500
H      -4.404900    -7.929800     1.943500
H      -5.849300    -8.289000     1.450900
C      -7.735400    -6.432200     3.285000
H      -7.831000    -7.066000     4.000400
H      -8.265900    -6.714300     2.536100
H      -8.031800    -5.569200     3.579900
C      -4.951900    -5.605800     4.159200
C      -5.503800    -4.609300     5.033500
H      -6.437000    -4.310600     5.018900
C      -4.570600    -4.276400     6.038700
H      -4.751000    -3.718300     6.823500
C      -2.275700    -5.275700     6.655300
H      -2.135700    -4.752600     7.410800
C      -1.368900    -6.170400     6.281600
H      -0.605500    -6.282900     6.800800
C      -1.530200    -6.960200     5.113600
H      -0.860200    -7.558800     4.870700
C      -2.658500    -6.861300     4.331400
H      -2.759100    -7.384300     3.567900
C      -3.673800    -5.930000     4.722500
C      -3.479400    -5.124000     5.879800
C       0.778700    -2.053400     2.741700
C       1.952900    -1.654900     3.341000
H       2.112000    -1.853100     4.235300
C       2.899200    -0.956400     2.600200
H       3.705000    -0.708400     2.990000
C       2.635700    -0.631100     1.277400
H       3.266800    -0.160700     0.782200
C       1.468500    -0.995600     0.704800
H       1.301800    -0.775500    -0.182900
C       0.508400    -1.698500     1.436200
H      -0.304800    -1.925400     1.046500
C      -0.706800    -3.969000     2.808400
C       1.592400    -4.873200     2.601500
H       1.809200    -4.142300     3.186200
H       2.119100    -4.810900     1.802000
H       1.779400    -5.704500     3.046000
C      -0.314900    -5.858800     1.364200
H      -1.252000    -5.726100     1.204000
H      -0.177800    -6.718700     1.768600
H       0.161600    -5.818700     0.531300
C      -5.632400    -1.239300     5.380600
C      -7.000500    -1.475100     5.321900
H      -7.375900    -1.878000     4.573000
C      -7.803700    -1.101500     6.395000
H      -8.718600    -1.263400     6.364300
C      -7.266000    -0.508000     7.478900
H      -7.816500    -0.253100     8.183700
C      -5.926400    -0.279100     7.551000
H      -5.567000     0.128400     8.305100
C      -5.082800    -0.656400     6.496500
H      -4.165200    -0.514700     6.551200
C      -3.977300    -0.904800     3.553200
C      -5.137600     1.278700     3.860300
H      -5.788900     0.747600     4.324800
H      -5.543400     1.676700     3.086100
H      -4.812900     1.969900     4.443600
C      -2.951100     1.100600     2.711000
H      -2.279300     0.460400     2.465400
H      -2.559700     1.778300     3.266300
H      -3.311600     1.505100     1.918100
C      -0.925600    -2.257200     4.543700
C      -1.107400    -0.580300     6.130800
C      -1.409300    -1.292600     7.285400
H      -1.281700    -2.214100     7.298700
C      -1.892700    -0.660300     8.414600
H      -2.067200    -1.156500     9.180800
C      -2.119600     0.695500     8.418600
H      -2.441800     1.122100     9.179400
C      -1.858300     1.405800     7.274700
H      -2.028900     2.319900     7.256000
C      -1.346900     0.789200     6.150800
H      -1.161100     1.297000     5.393900
