87
Refcode: ONAGUG_comp_0 | Dataset: tmCAT | Charge: 0 | Potential Spins: [1, 3, 5]
C       1.484100     3.328300     8.439700
C       0.736100     4.457900     8.961600
C      -0.328800     5.193100     8.447800
H      -0.726500     4.973900     7.613400
C      -0.781400     6.253100     9.202900
H      -1.490900     6.790200     8.868400
C      -0.220700     6.559500    10.451300
H      -0.565700     7.289100    10.952600
C       0.815100     5.822700    10.959000
H       1.190300     6.026400    11.808200
C       1.296800     4.774500    10.201400
C       2.388200     3.833700    10.423500
C       4.177500     3.016500    11.694600
C       5.692200     1.392700    11.400800
C       5.992400     2.030000    12.673400
C       7.026100     1.808600    13.577100
H       7.670200     1.124300    13.438000
C       7.071600     2.630500    14.687500
H       7.772800     2.518600    15.319600
C       6.117200     3.615800    14.899500
H       6.172600     4.153700    15.681100
C       5.081200     3.836300    14.000600
H       4.425300     4.505700    14.155400
C       5.043700     3.034900    12.863300
C       6.155400    -0.190000     9.732200
C       5.270300    -0.701600     7.751000
C       6.375000    -1.610700     7.964200
C       6.911400    -2.629800     7.185600
H       6.534400    -2.853400     6.343200
C       8.009000    -3.305400     7.674900
H       8.399800    -3.998200     7.157200
C       8.555700    -2.988600     8.917800
H       9.308800    -3.473700     9.231900
C       8.023700    -1.982400     9.700400
H       8.394600    -1.771900    10.549400
C       6.936000    -1.295700     9.206900
C       3.467900     0.112600     6.492200
C       1.927800     1.726800     6.770300
C       1.638800     1.082100     5.492400
C       0.654100     1.300300     4.534900
H      -0.007000     1.973500     4.651000
C       0.675200     0.502500     3.412800
H       0.021500     0.642500     2.737200
C       1.621700    -0.501500     3.239800
H       1.598800    -1.037200     2.455100
C       2.594700    -0.729400     4.191200
H       3.244300    -1.413100     4.077400
C       2.590600     0.081300     5.324300
C       6.098100     4.036200     7.495500
C       6.227200     5.346400     8.031200
C       7.052100     6.243400     7.356700
H       7.140900     7.130200     7.685300
C       7.746300     5.872600     6.215500
H       8.286400     6.506500     5.760200
C       7.653800     4.584300     5.745500
H       8.166100     4.331400     4.987900
C       6.832900     3.648000     6.345300
C       5.466400     5.747900     9.281100
H       5.123900     4.909000     9.701300
C       4.273100     6.610800     8.970600
H       4.574100     7.453100     8.571200
H       3.780300     6.797000     9.796000
H       3.688100     6.142600     8.338400
C       6.374400     6.441600    10.318400
H       6.619600     7.331800     9.994700
H       7.185700     5.906800    10.450900
H       5.895000     6.523600    11.168300
C       6.696600     2.255400     5.791100
H       6.357600     1.674500     6.530600
C       5.646400     2.229800     4.681200
H       4.797700     2.574900     5.025800
H       5.522700     1.308800     4.368900
H       5.947500     2.788500     3.935400
C       7.984900     1.628300     5.280700
H       7.807900     0.709100     4.987900
H       8.650500     1.619800     5.998700
H       8.325600     2.151200     4.526000
N       2.486000     2.996600     9.326100
N       3.161200     3.848400    11.508300
N       4.614800     2.023000    10.829700
N       6.399000     0.382600    10.915300
N       5.172700     0.162500     8.830400
N       4.491200    -0.712800     6.668600
N       3.046400     1.131100     7.326100
N       1.218000     2.742000     7.263000
N       5.234600     3.119700     8.090800
Ti      4.194600     1.971800     8.819400
