77
Refcode: ONAJET_comp_0 | Dataset: tmCAT | Charge: unknown | Potential Spins: [1, 3, 5]
Ru     18.488900     2.778900     4.213800
P      16.452200     1.555800     3.758500
O      21.005000     0.279900     5.699800
O      19.045600    -0.807600     5.920800
C      16.285900     5.632200     7.200900
C      16.477700     5.008800     5.844700
C      17.370200     3.782300     5.892300
C      18.759700     3.927300     6.061700
C      19.584200     2.775300     6.077600
C      18.961900     1.505500     5.958800
C      19.805600     0.309100     5.835400
C      19.744600    -2.058300     5.828200
C      18.029200     4.040100     2.465600
C      18.852000     4.757100     3.335200
C      20.316400     5.048100     3.174100
C      21.066000     3.838700     2.694800
C      20.497700     2.569900     3.282200
C      19.608600     1.726000     2.607800
C      19.042100     2.043200     1.235400
C      18.482500     3.464100     1.124300
C      15.330600     1.401700     5.220200
C      15.681000     0.418900     6.159600
C      14.917400     0.248700     7.300800
C      13.791200     1.026100     7.525000
C      13.446100     1.987800     6.602200
C      14.197400     2.171100     5.443500
C      16.394000    -0.224600     3.269300
C      17.492300    -0.940500     2.889600
C      17.387700    -2.247600     2.437800
C      16.170900    -2.879000     2.406700
C      15.046400    -2.187200     2.824800
C      15.163200    -0.872100     3.251500
C      15.381100     2.259700     2.427900
C      14.837200     3.548700     2.556900
C      14.106800     4.120600     1.518200
C      13.960300     3.412700     0.324200
C      14.521700     2.176100     0.175600
C      15.224200     1.607200     1.214300
H      15.503200     5.236400     7.637500
H      16.151700     6.597900     7.101600
H      17.080900     5.469000     7.749900
H      16.876900     5.677500     5.232800
H      15.593800     4.753000     5.477600
H      17.004100     3.103600     6.529400
H      19.174600     4.836600     6.026600
H      20.581400     2.857900     6.086200
H      18.189600     1.382600     6.582300
H      19.793400    -2.336200     4.888800
H      19.267000    -2.740000     6.344200
H      20.651100    -1.953600     6.185400
H      17.084300     4.369400     2.454300
H      18.363900     5.487100     3.813800
H      20.689500     5.343100     4.042000
H      20.433200     5.786200     2.523800
H      22.017900     3.921300     2.950500
H      21.017200     3.793400     1.706800
H      21.149700     2.076400     3.856800
H      19.755100     0.751200     2.778500
H      18.320300     1.397700     1.028700
H      19.755100     1.925400     0.559000
H      19.179800     4.054200     0.740900
H      17.713700     3.459000     0.499500
H      16.442800    -0.128900     6.010100
H      15.166700    -0.409800     7.938500
H      13.264800     0.897200     8.305600
H      12.684300     2.533600     6.754300
H      13.934200     2.822600     4.806100
H      18.348200    -0.533700     2.937200
H      18.166900    -2.708800     2.146700
H      16.099400    -3.776300     2.103700
H      14.197400    -2.612200     2.818200
H      14.387500    -0.404800     3.535900
H      14.968000     4.035000     3.360600
H      13.714500     4.979600     1.620800
H      13.467000     3.795400    -0.393600
H      14.427600     1.706900    -0.645000
H      15.611300     0.748200     1.098200
