64
Refcode: ONOFAZ_comp_0 | Dataset: tmCAT | Charge: -2 | Potential Spins: [1, 3, 5]
Hg      1.579900    12.977200     4.989200
Cl      3.798400    13.581800     4.783200
Cl     -0.360800    11.836900     5.531400
O       0.920000    13.466000     2.073700
O       1.753100    11.138000     2.981600
O       2.032000     9.662300     1.638600
O       0.536200    17.848100     2.822600
O       0.036400    17.167500     0.302600
O      -1.606800    18.259500    -0.414200
O       0.338300    16.931000     7.282400
O       0.087600    19.451700     6.813800
O       0.438000    20.829600     8.310200
N       0.385400    15.188300     4.535100
N       1.919500    10.832600     1.888200
N      -0.637700    18.147100     0.299800
N       0.460800    19.688700     7.883500
C      -0.458300    14.985800     3.334400
H      -1.019600    15.767600     3.222800
H      -1.044400    14.230900     3.500400
C       0.264400    14.741500     2.052800
H      -0.365700    14.770800     1.316500
H       0.921600    15.442600     1.914700
C       1.435700    13.046000     0.885500
C       1.962700    11.763400     0.764200
C       2.498700    11.296800    -0.426700
H       2.841800    10.434400    -0.481100
C       2.519500    12.120100    -1.525700
H       2.894200    11.824500    -2.323300
C       1.982900    13.378300    -1.437800
H       1.958000    13.915700    -2.195000
C       1.486200    13.852200    -0.263600
H       1.175100    14.729300    -0.221700
C       1.412000    16.241500     4.397100
H       1.987300    15.989900     3.657900
H       1.956900    16.222000     5.198900
C       0.994200    17.670700     4.173900
H       0.283200    17.905300     4.791700
H       1.745600    18.261900     4.342700
C       0.350600    19.109700     2.379100
C      -0.226800    19.290500     1.107300
C      -0.457000    20.543800     0.577300
H      -0.842600    20.631700    -0.265000
C      -0.121400    21.640700     1.281600
H      -0.254600    22.486000     0.916200
C       0.419600    21.513700     2.542300
H       0.631900    22.273500     3.036000
C       0.649700    20.245700     3.077800
H       1.014200    20.172400     3.929900
C      -0.525500    15.391300     5.682900
H      -1.139700    14.641300     5.720500
H      -1.051800    16.187800     5.518300
C       0.137000    15.528200     7.032800
H      -0.425200    15.144600     7.721700
H       0.988700    15.064000     7.035600
C       0.849000    17.299400     8.476200
C       0.919200    18.660200     8.788500
C       1.457300    19.095000     9.997600
H       1.504000    20.003900    10.194300
C       1.918600    18.156900    10.899900
H       2.288100    18.433000    11.707400
C       1.835600    16.832800    10.614000
H       2.151500    16.209800    11.227600
C       1.294800    16.407700     9.441200
H       1.222100    15.493900     9.280800
