51
Refcode: ONUJEO_comp_0 | Dataset: tmCAT | Charge: unknown | Potential Spins: [1, 3, 5]
Cu      0.874400    11.992900     1.340500
Br      5.094100    13.423900    -2.779800
Br     -2.001200    17.273600     2.248700
Br      3.693300    11.365500     6.633800
F       2.181000    10.515400    -1.648400
F       2.604800    11.664500    -3.139600
F       0.902800    11.900400    -2.095300
F       6.358900    14.804900    -0.425600
F       5.646200    14.876300     1.533800
F       4.916600    16.271200     0.137500
F      -2.847900    13.864900     1.082000
F      -2.954100    14.275100     3.039800
F      -2.106900    12.637700     2.484900
F       0.795800    18.393600     1.874300
F       2.389800    17.284300     1.047600
F       2.206100    17.473600     3.131500
F       0.816400     9.802900     4.583400
F       2.673300     9.113800     4.678400
F       1.774500     9.379500     2.903900
F       4.209900    14.291700     6.279300
F       3.334000    15.555500     4.856800
F       5.173300    14.672000     4.403400
N       2.302600    12.895100     0.094900
N       3.119700    13.781900     0.712100
N       0.227100    13.909800     1.959400
N       1.210700    14.843100     1.990500
N       2.220800    12.033200     2.925200
N       2.784000    13.248800     3.183800
N      -0.349800    10.639900     0.844700
C       2.840600    12.639400    -1.095100
C       4.006900    13.360100    -1.258800
C       4.170600    14.069200    -0.088400
C       2.143400    11.742600    -2.018300
C       5.261000    15.035700     0.293000
C      -0.926600    14.570700     2.016700
C      -0.698600    15.944100     2.095300
C       0.665900    16.075300     2.060900
C      -2.189500    13.833400     2.072400
C       1.510400    17.310800     2.033100
C       2.448100    11.277600     4.010500
C       3.155900    12.005000     4.958300
C       3.347300    13.235500     4.408300
C       1.926800     9.886000     4.044900
C       4.046800    14.432900     4.991000
C      -1.173700     9.937400     0.545100
C      -2.246000     9.039000     0.153900
H      -2.957600     9.542200    -0.247200
H      -2.580500     8.569100     0.921600
H      -1.902600     8.406300    -0.482900
B       2.697500    14.366500     2.082200
H       3.277800    15.120400     2.319500
