129
Refcode: OPUCOT_comp_0 | Dataset: tmCAT | Charge: unknown | Potential Spins: [1, 3, 5]
Zr      2.151700     5.688100    16.855300
O       1.529800     5.989600    18.706100
O       2.523800     4.715300    15.174900
O      -0.200800     5.603600    16.430900
N       1.616400     3.362500    17.497900
C       1.461400     5.363000    19.902200
C       1.604700     6.082100    21.111500
C       1.659800     5.325300    22.284000
H       1.784300     5.778600    23.108600
C       1.541500     3.936900    22.301800
C       1.314700     3.287000    21.118000
H       1.191200     2.344800    21.126600
C       1.259400     3.968400    19.895500
C       0.953900     3.174600    18.676300
C      -0.021400     2.183700    18.809400
H      -0.498500     2.095100    19.627700
C      -0.295100     1.334100    17.759500
H      -1.001000     0.700500    17.817300
C       0.477300     1.427900    16.631800
H       0.349800     0.810700    15.921100
C       1.451700     2.424100    16.517300
C       2.335400     2.370600    15.321100
C       2.683500     1.100700    14.836000
H       2.368800     0.329600    15.293600
C       3.470100     0.939800    13.712300
C       3.916400     2.092900    13.058800
H       4.446500     1.988800    12.277800
C       3.627400     3.382000    13.488400
C       2.822900     3.503200    14.654500
C       1.646100     7.615800    21.147600
C       1.721600     8.170800    22.591000
H       0.953500     7.829300    23.113100
H       2.552500     7.848400    23.022800
C       1.703600     9.703000    22.607400
H       1.748900    10.024900    23.553300
C       0.419400    10.212200    21.962100
H       0.404600    11.201600    21.979900
H      -0.364600     9.879900    22.467500
C       0.349700     9.720200    20.515800
H      -0.490100    10.057300    20.088200
C       0.352600     8.185700    20.499100
H       0.286200     7.867400    19.564500
H      -0.436900     7.849900    20.993400
C       2.866100     8.188300    20.380800
H       3.701200     7.863100    20.801600
H       2.848000     7.865500    19.444900
C       2.853300     9.724700    20.391600
H       3.644100    10.065600    19.885100
C       1.565400    10.235500    19.730700
H       1.519900     9.916800    18.794800
H       1.563100    11.225900    19.720300
C       2.915600    10.236700    21.830200
H       2.908800    11.226200    21.835400
H       3.752800     9.930500    22.259800
C       1.654000     3.174700    23.603600
H       1.488900     2.223000    23.440400
H       0.992800     3.516600    24.239500
H       2.554000     3.291400    23.973100
C       3.845200    -0.428100    13.201300
H       3.742400    -1.085500    13.921100
H       4.777100    -0.419200    12.896300
H       3.259600    -0.669800    12.453800
C       4.166900     4.603700    12.731700
C       5.044000     4.205500    11.531000
H       5.806900     3.660500    11.848900
H       4.512300     3.651900    10.905300
C       5.573900     5.444400    10.792000
H       6.133100     5.150100    10.015900
C       4.388900     6.258700    10.274600
H       3.848000     5.707500     9.654700
H       4.715700     7.052000     9.781100
C       3.524800     6.705000    11.461700
H       2.755400     7.251800    11.131000
C       2.999400     5.463600    12.191800
H       2.451600     4.922600    11.569000
H       2.421400     5.744100    12.943700
C       5.041000     5.482900    13.650900
H       4.508100     5.767000    14.435800
H       5.807800     4.950100    13.979800
C       5.563900     6.724800    12.917300
H       6.110000     7.280100    13.544100
C       4.381500     7.542300    12.407300
H       3.831300     7.844600    13.173900
H       4.713800     8.344000    11.932400
C       6.425600     6.294300    11.729500
H       6.763000     7.091900    11.250700
H       7.203100     5.770600    12.047500
C       4.343300     6.057800    17.394800
H       4.903600     6.209700    16.593800
H       4.449700     6.813100    18.025000
C       4.629000     4.755300    18.034300
C       4.534300     4.579400    19.424100
H       4.365200     5.334700    19.975400
C       4.681200     3.337400    20.009200
H       4.605200     3.251600    20.952800
C       4.937200     2.220600    19.242200
H       5.031800     1.367100    19.648000
C       5.054300     2.363900    17.867700
H       5.231300     1.602100    17.329700
C       4.915600     3.601200    17.274400
H       5.015500     3.678400    16.332000
C       2.068900     7.847200    16.002600
H       2.213600     8.466500    16.760900
H       2.844100     7.951300    15.395200
C       0.862400     8.327000    15.264700
C      -0.156200     9.020900    15.909200
H      -0.048200     9.249400    16.824100
C      -1.324100     9.391100    15.258800
H      -2.006500     9.845800    15.738300
C      -1.502500     9.101900    13.917100
H      -2.307100     9.341000    13.471900
C      -0.483300     8.455600    13.239200
H      -0.576200     8.273400    12.311600
C       0.667800     8.072800    13.899200
H       1.349500     7.622700    13.413200
C      -1.775500     5.365900    18.344400
H      -2.155700     4.558800    17.939200
H      -2.476400     5.847200    18.833100
H      -1.059700     5.114800    18.964100
C      -1.213900     6.255500    17.260700
H      -1.956400     6.558600    16.679600
H      -0.814300     7.057500    17.681900
C      -0.701400     5.232300    15.113900
H       0.060300     4.977900    14.535100
H      -1.148200     6.014700    14.702200
C      -1.670100     4.092000    15.183400
H      -1.247600     3.332200    15.634500
H      -1.930700     3.829200    14.275500
H      -2.465400     4.368900    15.684100
