78
Refcode: OQAPED_comp_0 | Dataset: tmCAT | Charge: 0 | Potential Spins: [1, 3, 5]
Au      2.606500     7.669300     5.383700
Cl      1.085900     9.043600     6.417300
P       4.201200     6.351100     4.481700
C       5.231700     5.693400     5.934800
C       6.095900     6.837100     6.514800
H       6.728300     7.153800     5.822500
H       5.511700     7.595700     6.764500
C       6.884400     6.372700     7.749400
H       7.439600     7.129700     8.093500
C       5.928500     5.911300     8.839400
H       5.353200     6.665200     9.124000
H       6.441100     5.597600     9.626000
C       5.063500     4.771900     8.293000
H       4.427100     4.472000     9.002400
C       4.267000     5.260700     7.068500
H       3.695700     6.026600     7.328400
H       3.678000     4.533200     6.744600
C       6.155400     4.512000     5.571000
H       5.613100     3.759200     5.227600
H       6.786200     4.788000     4.860500
C       6.944000     4.056700     6.815300
H       7.538600     3.291500     6.565500
C       7.802500     5.210600     7.338600
H       8.429300     5.510500     6.634000
H       8.332700     4.909000     8.117800
C       5.966300     3.599500     7.894900
H       6.467600     3.278600     8.686100
H       5.414400     2.852800     7.553900
C       5.264700     7.432400     3.328500
C       5.462600     8.830700     3.991200
H       4.578300     9.232600     4.181600
H       5.941400     8.723000     4.851700
C       6.260000     9.764000     3.077500
H       6.388000    10.643700     3.535900
C       5.517300     9.985400     1.763800
H       4.638700    10.406600     1.939300
H       6.039600    10.588900     1.178600
C       5.321000     8.638300     1.078500
H       4.821300     8.771400     0.223300
C       4.520400     7.700500     1.997700
H       4.364300     6.841000     1.532500
H       3.639300     8.106900     2.191400
C       6.661500     6.837600     3.005400
H       7.165200     6.697500     3.845500
H       6.553700     5.958900     2.560700
C       7.443600     7.789400     2.086200
H       8.339200     7.392500     1.886300
C       7.633500     9.139700     2.787000
H       8.161400     9.745400     2.209100
H       8.129200     9.010000     3.635400
C       6.682500     8.004200     0.778600
H       6.554500     7.136100     0.318400
H       7.204700     8.597200     0.181300
C       3.398800     4.925000     3.509400
C       2.811400     3.855900     4.473100
H       3.543600     3.444700     4.997600
H       2.186200     4.289700     5.106000
C       2.067100     2.762400     3.682800
H       1.708200     2.082000     4.321000
C       0.906800     3.367300     2.885600
H       0.445000     2.659300     2.370600
H       0.251800     3.780100     3.502800
C       1.466000     4.425700     1.932300
H       0.713700     4.839700     1.419700
C       2.185400     5.511300     2.736800
H       1.552100     5.918500     3.378900
H       2.498400     6.221700     2.122900
C       4.354700     4.208400     2.521600
H       4.736900     4.868700     1.890700
H       5.101400     3.794600     3.022900
C       3.593500     3.124400     1.737700
H       4.219500     2.677000     1.099000
C       3.040700     2.082800     2.717500
H       2.573200     1.367600     2.218000
H       3.784200     1.672300     3.226300
C       2.442900     3.767700     0.954600
H       2.800900     4.447800     0.329500
H       1.971300     3.077000     0.424600
