42
Refcode: OQODUU_comp_0 | Dataset: tmCAT | Charge: 0 | Potential Spins: [1, 3, 5]
V      -0.272800     1.184600     7.329700
O      -1.963100     0.821800     6.575200
O       1.350800     0.461500     8.040100
O       3.588100    -2.606300     6.151100
H       2.909800    -2.309900     5.950300
O       0.202700     2.391900     6.418200
O      -0.764600     1.969400     8.823500
N       0.327900    -0.326000     5.959500
N       1.468900    -1.035700     6.308200
C      -2.196400     0.874100     5.229300
C      -3.299300     1.579900     4.761200
H      -3.868900     2.034600     5.369600
C      -3.561100     1.613700     3.402000
H      -4.296700     2.119900     3.078500
C      -2.760300     0.915900     2.507600
H      -2.956200     0.932800     1.577700
C      -1.680200     0.198800     2.972300
H      -1.147600    -0.294600     2.360500
C      -1.355400     0.186700     4.338500
C      -0.185400    -0.528000     4.791000
H       0.218400    -1.165400     4.212700
C       1.955600    -0.515100     7.397700
C       3.247800    -0.974700     7.934800
C       4.040400    -1.956600     7.255500
C       5.290100    -2.258400     7.726500
H       5.814900    -2.903100     7.267100
C       5.817700    -1.635400     8.877400
C       7.115100    -1.926800     9.373400
H       7.657300    -2.566600     8.927700
C       7.590700    -1.294200    10.487200
H       8.463800    -1.497000    10.804100
C       6.809100    -0.349300    11.169700
H       7.151800     0.074900    11.947400
C       5.559000    -0.037800    10.721900
H       5.041400     0.611700    11.182700
C       5.024400    -0.678500     9.568900
C       3.750900    -0.371800     9.066100
H       3.218700     0.271200     9.520500
C      -1.007900     3.322400     9.153400
H      -0.480700     3.901900     8.564200
H      -0.751200     3.482500    10.086100
H      -1.961600     3.520400     9.039400
