86
Refcode: OREYAM_comp_0 | Dataset: tmCAT | Charge: 1 | Potential Spins: [1, 3, 5]
Mo      2.830500     7.982500     3.921300
P       2.203200     7.270600     6.237100
P       3.492200     9.565700     2.088400
F       1.085600     8.970200     3.794800
N       4.397600     7.209900     4.071400
N       5.628400     6.741500     4.256800
N       3.455100     9.726900     5.101200
N       1.840600     6.385700     2.787800
C       2.485800     5.510300     6.878600
C       3.584600     4.901400     6.013000
C       1.215500     4.675000     6.692000
C       2.939800     5.464600     8.346200
C       0.607700     7.969400     6.963600
C      -0.583800     7.506500     6.113000
C       0.355900     7.614700     8.421300
C       0.682400     9.497200     6.870900
C       3.552900     8.224700     7.051100
C       3.763900     9.583100     6.418300
C       4.245300    10.645900     7.174000
C       4.407700    11.869300     6.563100
C       4.057400    12.032100     5.248200
C       3.580900    10.954800     4.527600
C       3.188100    11.103100     3.083600
C       5.315000     9.637700     1.633700
C       6.095300     9.935500     2.916100
C       5.709100    10.703900     0.601700
C       5.745900     8.260400     1.107200
C       2.430600     9.883100     0.568800
C       0.970700     9.597600     0.918700
C       2.501300    11.337300     0.050000
C       2.833600     8.932900    -0.559600
C       0.506400     6.380200     2.589900
C      -0.156500     5.363100     1.948500
C       0.550700     4.273500     1.488800
C       1.914500     4.255700     1.676600
C       2.516200     5.315100     2.312300
H       3.199800     4.463100     5.262800
H       4.079800     4.274600     6.526600
H       4.160600     5.593900     5.714800
H       0.671800     4.739700     7.469100
H       1.445800     3.766100     6.542000
H       0.736700     5.009600     5.941800
H       3.888300     5.493600     8.390500
H       2.626000     4.668300     8.759800
H       2.577000     6.218500     8.796300
H      -0.738900     8.142200     5.424400
H      -1.359400     7.434100     6.659300
H      -0.390200     6.661200     5.726400
H      -0.127800     6.798400     8.469300
H      -0.146100     8.305000     8.836700
H       1.189100     7.515500     8.865600
H       1.082700     9.848500     7.657600
H      -0.197800     9.842900     6.778600
H       1.201900     9.745900     6.114900
H       3.326700     8.349700     7.965400
H       4.360200     7.728500     6.992100
H       4.473000    10.529900     8.088500
H       4.754400    12.603100     7.057500
H       4.134500    12.883000     4.833900
H       3.688100    11.814600     2.702600
H       2.261600    11.309400     3.043000
H       6.180900    10.874500     3.025700
H       6.959800     9.545200     2.850700
H       5.638400     9.568600     3.664300
H       5.644900    10.328100    -0.269300
H       6.601500    10.989400     0.757900
H       5.121200    11.447700     0.669400
H       6.056900     7.727400     1.827400
H       6.437700     8.364200     0.467400
H       4.998700     7.837800     0.700200
H       0.780500     8.685300     0.732900
H       0.399300    10.153000     0.400100
H       0.826000     9.769300     1.842800
H       1.821800    11.853700     0.469300
H       2.375600    11.351800    -0.892500
H       3.350700    11.703100     0.261600
H       3.526800     9.331000    -1.077200
H       2.081000     8.763400    -1.113700
H       3.144200     8.115500    -0.190400
H       0.002000     7.114000     2.921900
H      -1.096600     5.414400     1.810100
H       0.110900     3.550900     1.057900
H       2.437200     3.519600     1.375300
H       3.461200     5.298400     2.423700
H       5.821500     6.211800     3.827800
H       6.049300     7.170900     4.982000
