62
Refcode: ORUDIP_comp_0 | Dataset: tmCAT | Charge: 1 | Potential Spins: [1, 3, 5]
Ni     10.875800     1.194000     2.656500
P       9.298000     1.523900     4.074600
O      10.242300     4.624600    -1.250500
N       8.201000     3.770500    -1.097300
C      12.989500     0.973600     2.856400
H      13.644000     1.699400     3.068300
C      12.319300     0.171700     3.777400
H      12.421900     0.214900     4.770500
C      11.508900    -0.772600     3.063600
H      10.953600    -1.499300     3.469600
C      11.677300    -0.526900     1.688000
H      11.254600    -1.036100     0.938700
C      12.539200     0.596300     1.561400
H      12.843900     1.001000     0.699600
C      10.227600     2.398300     1.444200
C       9.795300     3.124900     0.563500
C       9.406600     3.835600    -0.584800
C       7.174600     2.922000    -0.500700
H       7.530700     2.498200     0.307800
H       6.909700     2.230200    -1.142300
H       6.394100     3.467700    -0.267500
C       7.836000     4.488300    -2.327300
H       8.598500     5.021500    -2.633900
H       7.075600     5.079300    -2.147300
H       7.590000     3.841800    -3.022100
C      11.633000     4.696300    -0.782500
H      12.140000     5.309500    -1.355400
H      12.037200     3.803900    -0.820300
H      11.650400     5.024400     0.140900
C       9.391800     3.091300     4.988300
C      10.164200     4.140900     4.498300
H      10.660700     4.026800     3.695700
C      10.212100     5.354400     5.174200
H      10.736600     6.069700     4.833300
C       9.490500     5.516400     6.350800
H       9.525800     6.342200     6.817200
C       8.719200     4.478900     6.843300
H       8.224300     4.599300     7.645900
C       8.668200     3.267700     6.174500
H       8.141600     2.557100     6.520100
C       9.178100     0.247800     5.374200
C      10.156400     0.209000     6.380400
H      10.809000     0.898100     6.425400
C      10.184800    -0.818000     7.308500
H      10.851900    -0.829000     7.985600
C       9.242600    -1.830300     7.249300
H       9.266400    -2.543400     7.876700
C       8.264700    -1.793500     6.272700
H       7.609900    -2.481200     6.238400
C       8.226700    -0.765200     5.338700
H       7.548600    -0.753100     4.674600
C       7.676200     1.532500     3.241100
C       7.412100     0.494700     2.345000
H       8.062200    -0.182800     2.203000
C       6.209800     0.446400     1.660800
H       6.020300    -0.281400     1.082000
C       5.279400     1.473000     1.826500
H       4.463400     1.458400     1.338800
C       5.543400     2.512400     2.704900
H       4.910500     3.211600     2.817300
C       6.734000     2.536000     3.422200
H       6.902900     3.238800     4.036600
