72
Refcode: OSIBEZ_comp_0 | Dataset: tmCAT | Charge: unknown | Potential Spins: [1, 3, 5]
Rh      4.162500     3.290400     2.719600
B       3.097600     2.035400     4.313600
N       2.661400     1.765000     2.873300
Cl      5.921500     2.507200     1.348300
P       5.054500     5.363100     3.056900
C       2.128000     3.100900     2.826700
H       1.649100     3.571400     2.155400
C       2.562800     3.476300     4.129500
H       2.537100     4.267500     4.654900
C       3.493900     1.095800     5.486900
C       2.526100     0.908000     6.501600
C       2.764900     0.046100     7.543900
H       2.100500    -0.056600     8.215200
C       4.127600    -1.674200     8.773100
H       4.907500    -2.237700     8.584800
H       3.329200    -2.237800     8.848200
H       4.269200    -1.194300     9.615700
C       5.843600     0.606300     4.626600
H       6.426400    -0.180400     4.626600
H       6.361000     1.397300     4.885800
H       5.473300     0.739100     3.728800
C       4.905600    -0.477700     6.682900
H       5.727300    -0.950100     6.749400
C       3.940200    -0.678900     7.648700
C       4.717200     0.398200     5.609400
C       1.180600     1.608300     6.422300
H       0.557800     1.189700     7.053900
H       0.825300     1.530900     5.513100
H       1.291000     2.555100     6.651700
C       2.277000     0.641800     1.985500
C       0.880300     0.168000     2.410300
H       0.612500    -0.595900     1.858000
H       0.237500     0.898000     2.291400
H       0.898900    -0.100400     3.353500
C       3.296600    -0.459800     2.168100
H       3.059700    -1.222500     1.598800
H       3.306600    -0.743400     3.105600
H       4.183900    -0.128700     1.917500
C       2.253000     1.125100     0.539600
H       2.082000     0.365300    -0.056600
H       3.118300     1.527200     0.314400
H       1.544200     1.792800     0.429100
C       6.001800     5.974200     1.590400
H       6.705900     5.280800     1.430300
C       5.150100     5.973300     0.324300
H       5.730800     6.051100    -0.460300
H       4.529800     6.732300     0.348400
H       4.640500     5.138200     0.273300
C       6.766500     7.289900     1.737600
H       7.355400     7.413500     0.964400
H       7.303200     7.265800     2.557600
H       6.129700     8.033500     1.785800
C       3.800000     6.623400     3.614000
H       3.390400     6.232700     4.438300
C       2.641000     6.771500     2.631200
H       1.898300     7.237500     3.068800
H       2.343600     5.883400     2.340900
H       2.937700     7.286600     1.852300
C       4.308500     7.992500     4.040300
H       3.576300     8.500000     4.448200
H       4.642600     8.475900     3.255800
H       5.033400     7.884500     4.690300
C       6.286600     5.379900     4.424100
H       6.550900     6.330600     4.589800
C       5.687000     4.823500     5.717100
H       6.351000     4.878900     6.436500
H       5.429800     3.886900     5.581100
H       4.895600     5.347200     5.962000
C       7.549600     4.593400     4.070100
H       8.143100     4.562700     4.848900
H       8.010300     5.033800     3.325200
H       7.303700     3.681700     3.809500
