70
Refcode: OVIJAG_comp_0 | Dataset: tmCAT | Charge: 1 | Potential Spins: [1, 3, 5]
Au      8.167800     2.781300     9.774500
P       8.955900     0.938100    10.800800
N       7.475500     4.533700     8.929700
N       7.209400     4.770900     7.630700
C       6.883800     5.549400     9.605300
C       6.874800     5.735200    10.971700
H       7.287200     5.131900    11.544400
C       6.225400     6.861200    11.452700
H       6.214400     7.030300    12.366000
C       5.600000     7.724400    10.597300
H       5.155000     8.459400    10.954800
C       5.600200     7.560200     9.257200
H       5.178400     8.172500     8.697600
C       6.259700     6.433000     8.735000
C       6.474000     5.925500     7.451100
C       6.124100     6.291000     6.133400
H       5.638600     7.070200     5.981800
C       6.489100     5.516000     5.094700
H       6.245900     5.748500     4.228100
C       7.247100     4.344200     5.336100
H       7.515500     3.825000     4.613600
C       7.587900     3.957400     6.567600
H       8.063100     3.172300     6.708000
C       9.659900     1.515900    12.448400
C      10.498100     0.496300    13.202700
H      10.870900     0.904100    13.986900
H      11.207400     0.183100    12.637400
H       9.945200    -0.245600    13.461000
C       8.451800     1.916600    13.277500
H       8.741900     2.221000    14.140400
H       7.869500     1.161400    13.382300
H       7.979200     2.623800    12.832100
C      10.499200     2.770400    12.195700
H      10.820900     3.112900    13.032300
H       9.958900     3.434100    11.763400
H      11.245100     2.547300    11.632300
C      10.177700     0.111100     9.648400
C      10.809200    -1.177200    10.165000
H      11.379600    -1.548300     9.489300
H      10.118100    -1.808000    10.382100
H      11.327000    -0.987100    10.951100
C       9.380900    -0.195700     8.385000
H       9.977600    -0.487900     7.692500
H       8.919600     0.595700     8.098700
H       8.742800    -0.888300     8.570300
C      11.283600     1.080700     9.281500
H      11.917400     0.642800     8.708800
H      11.725700     1.379300    10.080700
H      10.907900     1.836800     8.823000
C       7.678900    -0.301500    11.173800
C       8.033600    -1.429600    11.901900
H       8.915100    -1.516200    12.186400
C       7.134000    -2.436600    12.227500
H       7.406600    -3.187800    12.701100
C       5.809000    -2.283500    11.821400
H       5.180900    -2.935600    12.036600
C       5.437400    -1.198100    11.123300
H       4.544700    -1.129500    10.870600
C       6.310200    -0.161800    10.750800
C       5.760800     0.962000     9.992800
C       5.198600     2.043500    10.640400
H       5.202600     2.083400    11.568700
C       4.622900     3.078800     9.901100
H       4.247800     3.812900    10.333400
C       4.614100     3.008600     8.529100
H       4.247600     3.703300     8.031300
C       5.142500     1.921800     7.894700
H       5.118500     1.872800     6.966300
C       5.707300     0.898300     8.617100
H       6.056800     0.157800     8.175400
