56
Refcode: OWEWOE_comp_0 | Dataset: tmCAT | Charge: unknown | Potential Spins: [1, 3, 5]
C      14.541300     2.425700     5.744400
C      15.406100     3.054500     4.774300
C      16.143600     2.007500     4.136300
C      15.738500     0.746600     4.615600
C      14.729100     0.985000     5.606400
C      13.490400     0.324800     5.941900
C      12.561900     1.337700     6.240800
C      13.156700     2.631800     6.095800
C      15.699300     4.528400     4.649600
H      16.448200     4.763300     5.236600
H      14.906100     5.041900     4.910600
H      15.933100     4.737100     3.721000
C      17.253900     2.224900     3.146100
H      18.118000     2.096600     3.590100
H      17.200600     3.136500     2.790400
H      17.166900     1.582200     2.411100
C      16.314500    -0.578100     4.220300
H      16.807200    -0.482000     3.379900
H      15.589500    -1.226800     4.101800
H      16.922800    -0.892400     4.921300
C      13.261700    -1.157000     6.024800
H      12.517800    -1.338600     6.636300
H      14.073500    -1.594500     6.357600
H      13.045500    -1.504500     5.134500
C      11.161000     1.129900     6.754200
H      10.882100     0.206900     6.578500
H      10.552000     1.747300     6.298200
H      11.138500     1.300200     7.719300
C      12.477900     3.904100     6.516900
H      11.567300     3.925000     6.153500
H      12.983200     4.672500     6.177900
H      12.439800     3.946000     7.495400
C      12.888200     2.669400     1.457000
C      11.694600     2.298300     2.136200
H      11.113100     1.591000     1.882600
C      11.515800     3.144400     3.239900
H      10.791200     3.118200     3.853600
C      12.605100     4.041200     3.275700
H      12.747400     4.722300     3.922100
C      13.442900     3.746900     2.181000
H      14.249700     4.200100     1.964900
C      13.377300     2.179500     0.093100
C      13.194400     3.339100    -0.904600
H      12.243700     3.568800    -0.968700
H      13.525400     3.067600    -1.786600
H      13.698000     4.119800    -0.594000
C      14.862600     1.803200     0.160700
H      15.380300     2.570700     0.482800
H      15.175500     1.548200    -0.732600
H      14.980200     1.048700     0.775300
C      12.547200     1.002400    -0.401700
H      12.649700     0.248000     0.216300
H      12.854700     0.737900    -1.293200
H      11.603800     1.263500    -0.446300
Cl     13.314400    -0.472300     2.757500
Zr     13.537400     1.810000     3.830900
