50
Refcode: OWEXIZ_comp_0 | Dataset: tmCAT | Charge: unknown | Potential Spins: [1, 3, 5]
C       0.012200     2.334900     5.317600
C       0.506200     1.155900     5.962600
C       0.043000    -0.000200     5.302700
C      -0.810500     0.437300     4.233000
C      -0.999400     0.019200     2.867600
C      -1.135800     1.196100     2.092700
C      -1.016200     2.353500     2.911700
C      -0.858900     1.899300     4.265100
C       0.133500     3.737500     5.860400
H      -0.030100     4.381000     5.140000
H       1.034900     3.872000     6.219600
H      -0.525800     3.870400     6.574000
C       1.329800     1.145800     7.219400
H       0.740600     1.235900     7.997000
H       1.963400     1.892900     7.200300
H       1.823000     0.300800     7.280000
C       0.305100    -1.413500     5.751900
H       1.267800    -1.593700     5.721000
H      -0.163000    -2.037600     5.157800
H      -0.019300    -1.530300     6.668800
C      -1.222800    -1.384200     2.370800
H      -2.184300    -1.553000     2.291100
H      -0.829500    -2.021400     3.004000
H      -0.798400    -1.491200     1.493100
C      -1.440500     1.234300     0.623500
H      -1.169500     0.387000     0.211500
H      -0.949600     1.972600     0.207400
H      -2.403300     1.367600     0.493100
C      -1.259200     3.767600     2.456500
H      -0.900800     3.885000     1.552200
H      -0.812800     4.389100     3.068600
H      -2.222200     3.948400     2.451900
C       3.198200     2.778200     3.714600
C       3.587200     1.731300     2.855700
H       4.223700     1.055400     3.054900
C       2.865700     1.860400     1.644600
H       2.934400     1.288000     0.890100
C       2.036300     2.976100     1.752800
H       1.453900     3.304500     1.076900
C       2.209000     3.535700     3.038200
H       1.744700     4.286700     3.387300
C       3.790800     3.070800     5.062100
H       3.998800     2.227900     5.517700
H       3.148200     3.580900     5.597400
H       4.611800     3.593900     4.951800
C       2.041200    -0.848700     3.099500
H       2.626900    -1.063500     3.855700
H       2.559700    -0.873300     2.267800
H       1.314800    -1.504200     3.052100
Zr      1.138000     1.298700     3.394700
