40
Refcode: OYATUE_comp_0 | Dataset: tmCAT | Charge: 0 | Potential Spins: [1, 3, 5]
Pd      4.197600     1.824500     4.630500
P       3.681400     0.352900     3.094600
Cl      4.769500     3.368000     6.351000
Cl      3.837100     3.483000     3.098100
O       3.135100    -0.971700     3.774900
O       2.531900     0.649300     2.049700
O       4.828500    -0.058400     2.084200
N       4.620900     0.369600     6.040400
H       5.515600     0.176600     5.951400
H       4.521800     0.770900     6.863400
C       3.963800    -1.618800     4.768000
H       4.899900    -1.626000     4.447800
H       3.670000    -2.558700     4.866800
C       3.913200    -0.945400     6.126700
C       4.662400    -1.843900     7.107500
H       5.597100    -1.929800     6.825100
H       4.243500    -2.730400     7.123600
H       4.627200    -1.451100     8.002800
C       2.480900    -0.691700     6.570900
H       2.482300    -0.285600     7.463200
H       1.991700    -1.540200     6.597800
H       2.045100    -0.084200     5.937700
C       2.989700     0.417700     0.641700
C       3.348100     1.786200     0.050100
H       2.611600     2.413500     0.208100
H       3.501300     1.695400    -0.914800
H       4.162000     2.124600     0.479300
C       1.841300    -0.166700    -0.105200
H       1.518000    -0.964100     0.364300
H       2.130900    -0.414400    -1.007900
H       1.118900     0.491900    -0.161600
C       4.237900    -0.477100     0.782200
C       5.285100    -0.317000    -0.268400
H       5.636500     0.597600    -0.241000
H       4.894300    -0.491900    -1.150300
H       6.014600    -0.950900    -0.104100
C       3.873800    -1.979300     0.914800
H       4.656800    -2.479500     1.224200
H       3.591300    -2.324300     0.041100
H       3.142900    -2.083300     1.561100
