96
Refcode: OZOMEX_comp_0 | Dataset: tmCAT | Charge: unknown | Potential Spins: [1, 3, 5]
Ru      3.780500     2.632900     3.505700
O       5.008800     4.382100     2.604400
O       1.919000     2.807400     2.134700
O       3.687700     1.794300     1.448700
O       1.924600     1.867800     0.155400
N       2.678100     1.384800     5.806600
N       2.951700    -0.204000     4.335200
N       2.487000     2.146300     1.205200
C       3.056500     1.135800     4.538100
C       2.216800     0.196400     6.513300
C       2.800000    -0.929800     5.646700
C       4.181600    -1.316000     6.176900
C       1.911800    -2.159700     5.574300
C       2.807700     2.736200     6.333100
C       2.905100     3.630900     5.086200
C       3.176500     5.074300     5.538800
C       4.440600     5.171000     6.401600
C       4.279600     4.301200     7.655400
C       3.056100     4.751300     8.462600
C       1.795700     4.633300     7.600600
C       1.591200     3.165200     7.167500
C       4.068300     2.846600     7.212200
C       1.956800     5.535100     6.370100
C       2.842300    -0.814900     3.034900
C       1.560000    -0.950500     2.455400
C       1.464100    -1.521900     1.182700
C       2.597000    -1.941000     0.498800
C       3.847500    -1.795000     1.080400
C       3.998100    -1.234800     2.352100
C       0.275000    -0.506700     3.138000
C      -0.445100     0.597100     2.355500
C      -0.701800    -1.680200     3.304900
C       5.397800    -1.069100     2.914500
C       6.281200    -0.228800     1.990600
C       6.046500    -2.438000     3.173800
C       5.465900     2.316300     4.202000
C       6.580400     3.180400     3.838500
C       7.893200     2.975300     4.278000
C       8.927000     3.812500     3.876300
C       8.648500     4.874400     3.032900
C       7.352800     5.121600     2.583200
C       6.328500     4.269000     2.981200
C       4.667000     5.402400     1.602100
C       5.087600     4.939900     0.224000
C       3.186300     5.652300     1.709400
H       1.222600     0.219000     6.531900
H       2.555700     0.163000     7.433900
H       4.568100    -1.959100     5.660000
H       4.064400    -1.673500     7.091900
H       4.755400    -0.548800     6.228900
H       0.988900    -1.919900     5.388900
H       1.953700    -2.591000     6.399000
H       2.207500    -2.756400     4.908700
H       2.011100     3.598400     4.644600
H       3.285700     5.633300     4.768700
H       4.611500     6.123700     6.647100
H       5.232000     4.863900     5.920500
H       5.067300     4.373900     8.194100
H       2.986700     4.161900     9.273300
H       3.174000     5.663000     8.718600
H       1.036600     4.922500     8.132100
H       1.503100     2.544100     7.958400
H       0.804600     3.090700     6.629400
H       3.956600     2.240300     7.958400
H       4.818600     2.538800     6.733900
H       2.071800     6.509100     6.643500
H       1.152300     5.504000     5.778800
H       0.631900    -1.587300     0.820500
H       2.512200    -2.329400    -0.359700
H       4.644700    -2.071100     0.618500
H       0.524900    -0.174800     4.020900
H       0.072100     1.364400     2.273600
H      -1.264300     0.861800     2.798100
H      -0.672400     0.314500     1.454900
H      -1.049800    -1.958000     2.484500
H      -1.422400    -1.428600     3.912800
H      -0.295300    -2.474000     3.664700
H       5.339300    -0.595000     3.767400
H       6.403700    -0.654200     1.160700
H       7.131600    -0.117700     2.404700
H       5.861300     0.600600     1.814600
H       5.520900    -2.975100     3.758600
H       6.907300    -2.343800     3.553000
H       6.197400    -2.906100     2.367500
H       5.735700     1.573000     4.751000
H       8.056400     2.194300     4.850200
H       9.796100     3.661700     4.148400
H       9.361400     5.448900     2.700700
H       7.177000     5.843500     2.004200
H       5.147800     6.218900     1.855400
H       5.972600     4.781700     0.209100
H       4.882400     5.628100    -0.427100
H       4.603700     4.099700    -0.001800
H       2.691300     4.905400     1.421200
H       2.967200     6.396500     1.155400
H       2.948200     5.866400     2.603200
