82
Refcode: PAKVUU_comp_0 | Dataset: tmCAT | Charge: unknown | Potential Spins: [1, 3, 5]
Y       3.178500     7.560700    15.772300
S       1.690100     8.778300    13.724800
B       1.794700     6.689200    18.759200
H       1.468200     6.434600    19.769800
N       1.983100     8.222000    18.647300
N       2.024800     8.859400    17.431300
N       0.784500     6.226200    17.695400
N       1.067200     6.280300    16.330800
N       3.135800     5.878300    18.570300
N       3.744900     5.819900    17.376300
N       3.063400     6.558400    13.566800
C       2.443300     7.477400    12.893700
C       3.718600     5.506900    12.866200
C       4.812100     5.765900    12.040900
H       5.114500     6.636900    11.918000
C       5.443200     4.706500    11.402600
H       6.175100     4.888700    10.856000
C       5.050900     3.441400    11.540200
H       5.471700     2.755200    11.074300
C       3.961900     3.171100    12.426000
H       3.672600     2.299200    12.570900
C       3.365800     4.209500    13.049600
H       2.673400     4.023800    13.640200
C       2.318400     7.438200    11.455800
C       2.235100     7.413800    10.274600
C       2.147500     7.346600     8.836700
C       1.415600     8.264700     8.114100
H       0.962000     8.942200     8.561600
C       1.349800     8.196700     6.775200
H       0.850200     8.820100     6.296500
C       2.033500     7.181800     6.107600
H       1.983100     7.118200     5.181300
C       2.774200     6.287300     6.806300
H       3.247500     5.622900     6.358800
C       2.829000     6.359600     8.180100
H       3.328600     5.738800     8.660600
C       1.735500     8.751300    21.070100
H       1.781500     7.796500    21.161800
H       0.909400     9.068600    21.442500
H       2.471800     9.154100    21.534200
C       1.799100     9.107000    19.652400
C       1.739900    10.359900    19.058100
H       1.669800    11.177800    19.494600
C       1.805600    10.155900    17.684400
C       1.737700    11.194300    16.607800
H       1.816600    10.771500    15.749400
H       2.454300    11.822100    16.723300
H       0.898400    11.655600    16.659100
C      -1.069400     5.517400    19.241500
H      -0.433900     5.774600    19.914700
H      -1.317000     4.598400    19.369900
H      -1.851600     6.071000    19.311200
C      -0.449200     5.689100    17.866000
C      -0.975100     5.453700    16.650000
H      -1.825400     5.122400    16.473900
C      -0.039400     5.785900    15.729200
C      -0.118300     5.647300    14.245500
H       0.696800     5.968200    13.851100
H      -0.856800     6.161700    13.913500
H      -0.241000     4.724000    14.016200
C       3.192700     4.813800    20.850000
H       2.460800     5.411000    21.015100
H       3.909300     5.010800    21.459000
H       2.903500     3.907900    20.980300
C       3.685800     4.992500    19.401100
C       4.671900     4.367300    18.764700
H       5.232800     3.710800    19.111300
C       4.698100     4.889600    17.484500
C       5.587800     4.536500    16.336300
H       5.355500     5.072700    15.575200
H       5.478300     3.607900    16.119900
H       6.501600     4.702200    16.578400
C       5.024700     9.257000    16.622400
H       4.814300     9.689400    17.418400
C       4.715700     9.713800    15.373400
H       4.275200    10.508100    15.175300
C       5.169300     8.802700    14.469200
H       5.070700     8.855000    13.544800
C       5.806900     7.780000    15.164300
H       6.234200     7.046700    14.782800
C       5.701800     8.037200    16.521600
H       6.017300     7.509700    17.220400
