80
Refcode: PALCAI_comp_0 | Dataset: tmCAT | Charge: unknown | Potential Spins: [1, 3, 5]
Ru      2.076800     2.561200     4.065100
C       3.844000     2.021000     5.304200
H       4.365200     1.237900     5.167900
C       4.074400     3.293600     4.692400
H       4.772600     3.511600     4.085600
C       3.062500     4.166100     5.164100
H       2.966100     5.080600     4.925900
C       2.219600     3.453600     6.048300
H       1.458900     3.800300     6.498800
C       2.717900     2.121800     6.140000
H       2.354200     1.424000     6.672300
C       3.008100     5.034700     1.948200
C       4.137800     4.316300     1.581600
H       4.102400     3.367900     1.547400
C       5.324300     4.979500     1.263500
H       6.091100     4.484100     1.004300
C       5.380100     6.360700     1.326700
H       6.188600     6.812000     1.118500
C       4.271800     7.073900     1.689000
H       4.310600     8.022500     1.724900
C       3.088900     6.419400     2.004100
H       2.326300     6.924200     2.261300
C       0.816500     3.600700     0.769400
C       1.619700     3.425800    -0.344000
H       2.556200     3.562800    -0.267500
C       1.086900     3.055800    -1.568200
H       1.659400     2.938900    -2.317800
C      -0.264300     2.857900    -1.703100
H      -0.629900     2.608500    -2.543600
C      -1.087200     3.025100    -0.607000
H      -2.022800     2.886000    -0.693700
C      -0.556000     3.395500     0.618700
H      -1.133000     3.510600     1.364600
C       0.330400     5.456500     2.839000
C      -0.227400     6.272800     1.858100
H      -0.024400     6.110700     0.943800
C      -1.073800     7.316400     2.193400
H      -1.443900     7.867200     1.512500
C      -1.380500     7.556600     3.523100
H      -1.975400     8.260200     3.754900
C      -0.823000     6.777300     4.504300
H      -1.021400     6.952800     5.416600
C       0.031300     5.729000     4.171800
H       0.412300     5.196400     4.858700
C      -1.248700     1.256100     3.164300
C      -0.879600     0.588000     2.000500
H       0.028200     0.341500     1.872800
C      -1.808500     0.277800     1.028200
H      -1.545300    -0.196900     0.248700
C      -3.124000     0.664900     1.199100
H      -3.764300     0.474600     0.523000
C      -3.510500     1.321200     2.338200
H      -4.418600     1.574900     2.452200
C      -2.582100     1.617300     3.326900
H      -2.859000     2.068000     4.116600
C       0.231400    -0.330500     4.876600
C       1.453500    -0.916700     5.119900
H       2.248200    -0.414100     4.986400
C       1.539100    -2.237100     5.558700
H       2.387500    -2.627300     5.731200
C       0.383000    -2.975900     5.741300
H       0.436200    -3.875100     6.043100
C      -0.836600    -2.408700     5.485700
H      -1.628300    -2.919700     5.606200
C      -0.926200    -1.097600     5.053700
H      -1.777400    -0.715600     4.876200
C      -0.750700     2.097500     5.922200
C      -1.424600     3.319400     5.890500
H      -1.577600     3.753700     5.059000
C      -1.873800     3.902500     7.065500
H      -2.320000     4.740300     7.035300
C      -1.678200     3.277600     8.277000
H      -1.999500     3.676600     9.077400
C      -1.018900     2.081400     8.323500
H      -0.876300     1.652400     9.159400
C      -0.556300     1.490000     7.154500
H      -0.101200     0.657800     7.199300
P       1.486700     4.090700     2.410100
P       0.071800     1.446500     4.410700
Cl      2.717100     0.944000     2.339900
