34
Refcode: PAMZIP_comp_0 | Dataset: tmCAT | Charge: unknown | Potential Spins: [1, 3, 5]
Rh      6.198700     3.526300     4.591400
Cl      4.500400     2.146500     3.728700
F       2.077700     2.015300     9.455800
F       1.824500     1.555300    12.079800
F       3.748700     2.355000    13.808000
F       5.877000     3.767000    12.904000
F       6.058500     4.400500    10.284200
O       8.251300     5.271800     5.855400
O       7.659800     3.256200     1.937100
N       3.805900     4.333100     6.319600
N       5.229300     3.288000     7.516400
C       7.476600     4.597800     5.358100
C       7.156500     3.348400     2.949100
C       5.034200     3.745900     6.272700
C       3.145800     5.014100     5.304800
H       3.552800     5.117000     4.452500
C       1.926300     5.525800     5.538600
H       1.473600     5.996900     4.849000
C       1.299500     5.368400     6.815600
H       0.422500     5.705200     6.951700
C       1.936800     4.752700     7.818500
H       1.522700     4.673800     8.669700
C       3.235000     4.221100     7.606200
C       4.157600     3.556600     8.354900
C       6.427100     2.507500     7.913500
H       6.786000     2.039400     7.130800
H       6.178800     1.853300     8.598600
H       7.108900     3.114600     8.271600
C       4.095200     3.195600     9.777400
C       3.030000     2.470900    10.276600
C       2.900600     2.213400    11.626100
C       3.860600     2.626700    12.499200
C       4.943700     3.342900    12.039000
C       5.033400     3.636100    10.707200
