173
Refcode: PAQBAK_comp_0 | Dataset: tmCAT | Charge: 0 | Potential Spins: [1, 3, 5]
Mn     12.947700    16.790900    20.772300
O      13.025500    14.526700    20.848800
O      12.910400    19.039700    20.677700
N      13.569800    16.761900    18.867400
N      14.843600    16.859200    21.381700
N      12.310000    16.883600    22.685300
N      11.050200    16.737500    20.158300
C      12.802400    16.903900    17.741500
C      13.634300    16.887600    16.576900
C      14.915100    16.741600    16.996400
C      14.871600    16.656400    18.450700
C      15.991100    16.550900    19.223400
C      15.975700    16.678700    20.619700
C      17.140000    16.790300    21.450400
C      16.724800    17.039700    22.681200
C      15.302300    17.070200    22.670100
C      14.488600    17.230400    23.782200
C      13.136300    17.120900    23.774000
C      12.274900    17.165500    24.930200
C      11.027800    16.936300    24.538400
C      11.023600    16.804500    23.111700
C       9.883100    16.636100    22.336200
C       9.932200    16.630000    20.931600
C       8.762200    16.660500    20.100900
C       9.190100    16.800400    18.826000
C      10.609800    16.855200    18.861900
C      11.412200    16.958600    17.730400
C      17.316800    16.309600    18.552800
C      17.819000    15.009400    18.459000
C      17.242400    13.678900    18.806700
C      16.842600    13.033900    17.449000
C      18.249700    12.770200    16.775600
C      19.254100    13.301600    17.824300
C      19.084400    14.776200    17.840800
C      19.818100    15.851200    17.341300
C      19.313000    17.094500    17.435200
C      19.863000    18.419000    17.081900
C      20.231900    19.155300    18.359600
C      18.886600    19.431100    19.005400
C      17.889100    18.798300    18.025700
C      18.078500    17.348000    18.058800
C      18.519000    12.891900    19.102000
C      18.580700    19.175500    16.714900
C      15.176000    17.520500    25.106800
C      15.460800    16.534700    26.023000
C      15.305100    15.043900    25.962300
C      16.692500    14.429300    25.749800
C      17.430400    14.759900    27.063400
C      16.367100    15.508400    27.860900
C      16.127200    16.826800    27.215200
C      16.507300    18.078200    27.540800
C      16.215500    19.122800    26.635700
C      16.362800    20.583200    26.685300
C      14.960000    21.185600    26.897800
C      14.230500    20.867200    25.556700
C      15.312100    20.151200    24.742600
C      15.547800    18.812500    25.415900
C      15.073600    14.729500    27.452500
C      16.578900    20.899600    25.197900
C       8.543400    16.508300    23.004000
C       7.888200    15.293400    23.053700
C       8.317500    13.918200    22.620400
C       8.643000    13.119000    23.876100
C       7.259700    12.987200    24.596300
C       6.314200    13.713300    23.613900
C       6.652300    15.179800    23.685600
C       6.012600    16.285200    24.243100
C       6.652300    17.451500    24.165800
C       6.221600    18.832800    24.521800
C       5.872300    19.556900    23.222000
C       7.282200    19.713000    22.554200
C       8.223500    19.074100    23.539400
C       7.920500    17.599600    23.561500
C       6.917500    13.332000    22.327900
C       7.564200    19.496000    24.861200
C      10.724800    17.183800    16.386500
C      10.404900    16.159500    15.533800
C      10.583100    14.642300    15.619300
C       9.166200    13.989200    15.834600
C       8.477400    14.295500    14.504500
C       9.531000    15.084500    13.712500
C       9.741400    16.423100    14.325100
C       9.352800    17.680700    13.982900
C       9.727400    18.729300    14.819100
C       9.644600    20.199800    14.681100
C      11.081100    20.650100    14.380300
C      11.799400    20.390500    15.727000
C      10.703700    19.816500    16.596200
C      10.355800    18.443300    16.027800
C      10.801900    14.344100    14.107100
C       9.522500    20.615600    16.149200
C      12.051900    19.928000    21.315200
H      13.355100    17.118900    15.646900
H      15.754000    16.692900    16.419600
H      18.068700    16.652300    21.138500
H      17.255100    17.179700    23.484200
H      12.569500    17.240500    25.829900
H      10.268900    16.976900    25.084800
H       7.898000    16.550900    20.421000
H       8.669600    16.774000    17.992600
H      16.539600    13.630200    19.510400
H      16.273100    13.528800    16.916300
H      16.343200    12.129200    17.578700
H      18.461500    11.804700    16.585200
H      18.405400    13.204200    15.950500
H      20.130900    12.920300    17.799400
H      20.706100    15.617900    16.943900
H      20.537700    18.396700    16.419600
H      20.776200    19.857100    18.130600
H      20.790200    18.498100    18.875700
H      18.840300    20.343800    19.013600
H      18.882400    19.005200    19.813900
H      17.016600    19.126900    18.075400
H      18.952500    13.123100    19.924300
H      18.377300    11.885800    19.206800
H      18.237100    18.660400    15.867700
H      18.756100    19.999000    16.419600
H      14.603700    14.725500    25.388300
H      17.086700    14.806600    24.946800
H      16.637800    13.508500    25.636700
H      17.844300    14.117000    27.568400
H      18.237100    15.455600    26.933700
H      16.483500    15.577300    28.782600
H      16.988500    18.457500    28.341100
H      17.058700    20.992900    27.154500
H      15.038600    22.209900    27.016500
H      14.575600    20.871200    27.623600
H      13.453300    20.343800    25.609100
H      13.916300    21.682500    25.002000
H      15.206900    20.120700    23.732600
H      14.337100    15.110800    27.816800
H      15.206900    13.853300    27.678800
H      17.353300    20.506100    24.808800
H      16.539600    21.885400    24.919200
H       9.062400    13.833000    21.883600
H       9.090500    12.210400    23.649800
H       9.314900    13.508500    24.450100
H       7.098400    11.987300    24.670800
H       7.280800    13.346200    25.388300
H       5.485100    13.325900    23.622200
H       5.260700    16.104700    24.726000
H       5.569300    18.842900    25.112400
H       5.471100    20.343800    23.318600
H       5.302800    18.984900    22.601100
H       7.336900    19.187700    21.662900
H       7.505200    20.567000    22.352800
H       9.174600    19.309400    23.429000
H       6.565300    13.589600    21.497300
H       7.070400    12.271200    22.104400
H       7.926100    19.167400    25.664300
H       7.421100    20.445300    24.974400
H      11.349100    14.380600    16.143700
H       8.880000    14.299500    16.612800
H       9.385100    13.021700    15.922900
H       8.136500    13.650500    13.936000
H       7.701600    14.968900    14.598300
H       9.553400    15.212300    12.694200
H       8.922100    17.869300    13.163300
H       9.034400    20.546700    14.018800
H      11.110600    21.601400    14.101600
H      11.489300    20.161300    13.632400
H      12.583600    19.857100    15.619300
H      12.204800    21.276900    16.088500
H      10.914200    19.877300    17.578700
H      11.713800    14.806600    13.770400
H      10.872100    13.508500    13.825600
H       8.669600    20.445300    16.530000
H       9.567400    21.662200    16.254000
H      12.260900    20.850900    21.138500
H      12.078500    19.857100    22.297600
H      11.138600    19.796200    21.083300
H      13.804700    14.240400    21.393700
H      12.189900    14.180500    21.258600
