51
Refcode: PARHUM_comp_0 | Dataset: tmCAT | Charge: 0 | Potential Spins: [1, 3, 5]
Pd      3.940500     4.819300     5.105800
Cl      4.034900     5.442200     2.857100
P       2.442800     3.246300     4.546100
C       2.202000     2.060400     5.931700
C       1.673100     2.691100     7.182600
C       2.397100     3.658700     7.900200
S       3.961600     4.275200     7.340000
C       5.034600     2.841300     7.498400
C       6.069900     2.672800     6.584400
C       6.928400     1.579900     6.742300
C       6.769000     0.706400     7.810700
C       5.747400     0.912700     8.717800
C       4.861400     1.974300     8.582700
C       1.917400     4.178300     9.086200
C       0.682000     3.767000     9.572200
C      -0.065500     2.849100     8.861600
C       0.424800     2.307200     7.686200
C       0.784200     3.818000     4.094800
C       0.586700     5.105400     3.584300
C      -0.690500     5.497100     3.193100
C      -1.749900     4.645800     3.307100
C      -1.562600     3.364900     3.777300
C      -0.293300     2.947000     4.177300
C       2.978600     2.136200     3.228200
C       4.187700     1.482000     3.365000
C       4.577000     0.480500     2.470200
C       3.755600     0.169700     1.401800
C       2.551800     0.826500     1.245600
C       2.150800     1.807100     2.147400
Cl      5.618000     6.371800     5.696800
H       3.084000     1.637400     6.142300
H       1.557100     1.356700     5.637000
H       6.198300     3.317900     5.831700
H       7.662300     1.424600     6.080900
H       7.391600    -0.067900     7.923000
H       5.643600     0.284600     9.488000
H       4.122100     2.112700     9.240600
H       2.456300     4.850800     9.593200
H       0.334900     4.133900    10.435400
H      -0.967100     2.574900     9.198500
H      -0.121300     1.632200     7.189700
H       1.356700     5.737400     3.501800
H      -0.833100     6.415100     2.822900
H      -2.666000     4.953900     3.049200
H      -2.336100     2.734200     3.829900
H      -0.160100     2.018700     4.526400
H       4.796800     1.730100     4.117700
H       5.440700    -0.005200     2.601800
H       4.033200    -0.530100     0.743900
H       1.960500     0.594100     0.475500
H       1.275400     2.275900     2.022900
