48
Refcode: PEDNES_comp_0 | Dataset: tmCAT | Charge: unknown | Potential Spins: [1, 3, 5]
Pt      8.441300    11.134000    13.896100
S       7.960600    12.816100    12.409100
S       8.819000     9.245900    15.125800
S       9.235800    12.415800    15.514900
N       7.602700     9.908800    12.560500
C       7.147900    10.398600    11.380800
C       6.580100     9.530300    10.410700
H       6.324900     9.878300     9.565600
C       6.401300     8.248000    10.664300
H       6.001500     7.679100    10.016300
C       6.804800     7.738600    11.896700
H       6.658900     6.828700    12.123800
C       7.434700     8.602800    12.777000
C       7.287600    11.862000    11.123800
N       6.833400    12.293000     9.975800
C       6.856800    13.648100     9.708200
C       7.580200    14.160000     8.581400
H       8.134000    13.580600     8.069100
C       7.480500    15.472900     8.243400
H       7.984900    15.789000     7.500400
C       6.705900    16.352500     8.914200
H       6.634200    17.259400     8.637800
C       5.990000    15.867300    10.060400
H       5.453800    16.462300    10.574500
C       6.067900    14.570700    10.403700
H       5.569300    14.266700    11.153700
C       7.953600     8.105000    14.131000
N       7.699100     6.859500    14.433800
C       8.224700     6.279700    15.609900
C       7.376700     5.731300    16.504300
H       6.443200     5.781400    16.358200
C       7.873300     5.090800    17.643500
H       7.261100     4.727900    18.273800
C       9.228000     4.974000    17.870600
H       9.555600     4.534800    18.647100
C      10.095100     5.514400    16.941000
H      11.032800     5.418600    17.073000
C       9.642200     6.186200    15.830000
H      10.256000     6.580500    15.219100
O      10.425600    11.929300    16.243800
C       9.516300    14.077800    15.014800
H       9.771200    14.621900    15.787800
H       8.693500    14.436400    14.620400
H      10.233400    14.099700    14.347500
C       7.947100    12.645400    16.687400
H       8.119800    13.464300    17.196300
H       7.921000    11.880000    17.298400
H       7.085900    12.723400    16.224400
