131
Refcode: PEDVOK_comp_0 | Dataset: tmCAT | Charge: 1 | Potential Spins: [1, 3, 5]
Cu      5.762600    10.780400     5.737200
N       8.439900     9.786800     5.764700
N       3.435600    12.415300     5.791800
P       7.035400     8.965500     5.245400
P       7.950300    11.390800     6.087300
P       4.290200    11.899200     4.405700
P       4.102800    11.550700     7.106900
C       7.243800     8.667300     3.458800
C       6.407700     7.746300     2.814400
H       5.820400     7.218600     3.308200
C       6.465800     7.631700     1.425300
H       5.918000     7.016400     0.993800
C       7.311800     8.405900     0.693500
H       7.339300     8.317100    -0.232300
C       8.108200     9.299800     1.309500
H       8.680400     9.828700     0.804500
C       8.087000     9.444000     2.692200
H       8.642900    10.066600     3.101700
C       7.129500     7.317300     5.991400
C       7.857700     6.268100     5.455400
H       8.289300     6.372900     4.637600
C       7.946800     5.064800     6.130400
H       8.450600     4.366900     5.777600
C       7.295900     4.909400     7.309100
H       7.351600     4.095700     7.756500
C       6.562500     5.921600     7.849000
H       6.127200     5.802000     8.659900
C       6.471700     7.118800     7.185200
H       5.959500     7.805500     7.545700
C       8.430700    11.863000     7.772400
C       8.596100    10.958000     8.780800
H       8.582400    10.048100     8.582500
C       8.785800    11.363600    10.085200
H       8.915800    10.733600    10.759300
C       8.775300    12.689000    10.381200
H       8.876800    12.966400    11.262600
C       8.621600    13.616100     9.399000
H       8.641700    14.522300     9.602100
C       8.431800    13.201900     8.095100
H       8.306000    13.835600     7.425300
C       8.992400    12.451100     5.045000
C       8.480100    12.882600     3.840000
H       7.607700    12.668000     3.605100
C       9.254100    13.627200     2.979100
H       8.899600    13.917000     2.168200
C      10.539500    13.942900     3.310000
H      11.062100    14.438500     2.718900
C      11.060400    13.534800     4.502000
H      11.934800    13.760400     4.723600
C      10.304000    12.792600     5.374100
H      10.665400    12.516400     6.186300
C       3.189500    10.991300     3.278600
C       2.431900    11.568300     2.267200
H       2.471000    12.486800     2.120900
C       1.616900    10.773100     1.473000
H       1.111100    11.157700     0.791600
C       1.555700     9.423100     1.690700
H       1.009300     8.894100     1.152900
C       2.286000     8.847300     2.685300
H       2.223600     7.931200     2.830700
C       3.118600     9.617900     3.477700
H       3.629200     9.217200     4.142800
C       4.806200    13.360900     3.466100
C       5.248400    13.208100     2.169100
H       5.135000    12.390600     1.738000
C       5.857500    14.252300     1.496200
H       6.164500    14.134000     0.628100
C       6.004900    15.451900     2.117900
H       6.406100    16.157200     1.664900
C       5.567000    15.635600     3.414100
H       5.662900    16.461700     3.833100
C       4.984800    14.576600     4.083000
H       4.709400    14.688800     4.964500
C       2.704900    10.626400     7.797000
C       1.801300    11.186100     8.693500
H       1.962200    12.031900     9.047100
C       0.669000    10.490700     9.058700
H       0.062500    10.874200     9.649400
C       0.429400     9.239400     8.556700
H      -0.350500     8.788100     8.780400
C       1.337800     8.658700     7.728100
H       1.193900     7.791900     7.421000
C       2.468400     9.341700     7.341400
H       3.079100     8.936100     6.771400
C       4.493700    12.747000     8.424200
C       4.573200    14.099400     8.214700
H       4.366600    14.454500     7.377900
C       4.962700    14.944000     9.257500
H       5.007200    15.862500     9.120200
C       5.279400    14.415100    10.483100
H       5.533700    14.978500    11.176600
C       5.227000    13.079800    10.689600
H       5.459100    12.728500    11.516500
C       4.826800    12.237800     9.670000
H       4.780300    11.321700     9.821500
C       9.832200     9.307200     5.514300
H      10.295200     9.971700     4.981700
H       9.789800     8.491000     4.990300
C      10.641600     9.040900     6.750300
C      10.299700     8.063200     7.658000
H       9.524000     7.570000     7.515600
C      11.064200     7.791900     8.761900
H      10.801600     7.118800     9.348300
C      12.207500     8.494700     9.015300
C      12.594200     9.462500     8.111400
H      13.384800     9.935900     8.251200
C      11.816100     9.739900     6.986000
H      12.087600    10.399500     6.388500
C      13.022200     8.219700    10.217300
H      12.606800     7.483700    10.604400
C      13.730400     8.399700    10.780800
H      14.305300     9.107400    10.595800
H      13.869600     7.873300    11.538000
C       2.262900    13.325200     5.888600
H       2.557600    14.230100     5.695900
H       1.934400    13.311600     6.801500
C       1.130500    12.983700     4.965800
C       0.724000    13.905900     4.017600
H       1.160700    14.724500     3.970800
C      -0.292600    13.654400     3.156000
H      -0.532300    14.295500     2.525300
C      -0.962200    12.484300     3.203300
C      -0.608000    11.539900     4.177200
H      -1.077900    10.739800     4.237500
C       0.442200    11.793900     5.055300
H       0.680400    11.163900     5.695900
C      -2.058200    12.248900     2.181100
H      -2.243700    12.968900     1.621900
C      -2.684200    11.320500     2.000400
H      -2.552900    10.562300     2.521000
H      -3.328300    11.318000     1.329300
