94
Refcode: PEJFAO_comp_0 | Dataset: tmCAT | Charge: 1 | Potential Spins: [1, 3, 5]
Au      6.015600    10.064400    10.201100
C       8.660200     7.665200    10.288900
C       9.974900     7.494700     9.856800
H      10.264400     7.952300     9.102000
C      10.864500     6.658700    10.523100
H      11.729000     6.540600    10.203000
C      10.449900     6.007900    11.665700
H      11.048700     5.479100    12.144700
C       9.141900     6.140700    12.103000
H       8.874700     5.688500    12.870800
C       8.214100     6.931100    11.431500
C       7.025800     7.775200     7.915100
C       7.656200     6.578200     7.545500
H       8.390500     6.268200     8.024400
C       7.173200     5.857600     6.454900
H       7.599600     5.073900     6.192100
C       6.049400     6.308500     5.749600
H       5.729600     5.825400     5.020800
C       5.421700     7.463900     6.134800
H       4.665000     7.751000     5.676700
C       5.902000     8.215400     7.204500
H       5.477000     9.007100     7.446600
C       8.805000     9.972000     8.586600
C       9.120800     9.998800     7.230600
H       8.782600     9.350600     6.658000
C       9.952500    11.010600     6.746500
H      10.172300    11.029400     5.840700
C      10.449900    11.979500     7.589800
H      10.992100    12.653200     7.248800
C      10.148600    11.955300     8.935400
H      10.502600    12.603500     9.500200
C       9.326100    10.974400     9.445600
H       9.112900    10.969000    10.351300
C       5.300600     6.811700    10.913500
H       5.420400     7.335000    10.153500
C       6.471800     8.473000    13.094700
C       5.250600     9.131900    13.289900
H       4.484700     8.843400    12.847400
C       5.195400    10.225600    14.148800
H       4.397900    10.692600    14.255500
C       6.332300    10.622800    14.851600
H       6.283600    11.334000    15.447600
C       7.533800     9.962600    14.666800
H       8.290500    10.232300    15.135300
C       7.611400     8.890400    13.774000
H       8.422100     8.456900    13.636100
C       6.424500     5.613300    13.292500
C       6.161300     5.850900    14.630300
H       6.081000     6.723100    14.940100
C       6.016500     4.782700    15.510100
H       5.819100     4.945000    16.405400
C       6.161300     3.499800    15.070200
H       6.044100     2.793900    15.663600
C       6.482400     3.239400    13.737600
H       6.619200     2.365800    13.451300
C       6.598200     4.292900    12.842200
H       6.790300     4.126500    11.946800
C       2.946400     5.852200    12.454400
C       3.155600     4.922200    13.469500
H       3.779400     4.240500    13.360200
C       2.408200     5.026900    14.664200
H       2.537100     4.415000    15.353900
C       1.480400     6.046800    14.804700
H       0.996200     6.120600    15.596000
C       1.263300     6.953900    13.794800
H       0.630300     7.626200    13.898900
C       1.995000     6.862700    12.610600
H       1.851500     7.475900    11.928600
C       2.781900     6.525900     9.661600
C       1.702800     5.736800     9.213900
H       1.605500     4.864500     9.523600
C       0.790900     6.260200     8.321100
H       0.075000     5.742200     8.032200
C       0.935600     7.555100     7.852600
H       0.318500     7.901300     7.251400
C       2.009500     8.342800     8.284700
H       2.106800     9.211100     7.964600
C       2.933200     7.822200     9.193100
H       3.647800     8.342800     9.482000
C       4.204500     4.122400    10.442400
C       5.300600     3.891600     9.593900
H       5.828300     4.605500     9.318000
C       5.600700     2.611400     9.169700
H       6.327100     2.465100     8.607500
C       4.820300     1.548600     9.580900
H       5.025600     0.685700     9.299800
C       3.726800     1.760600    10.416400
H       3.214900     1.040000    10.702700
C       3.399100     3.052900    10.825000
H       2.645100     3.199200    11.348200
Cl      4.380800    11.539500    10.830500
P       7.623300     8.793200     9.283400
P       6.521600     6.967600    12.100900
P       3.896500     5.843500    10.912000
