53
Refcode: PEJXUX_comp_0 | Dataset: tmCAT | Charge: 1 | Potential Spins: [1, 3, 5]
Rh      2.770000     4.797800     8.647000
P       4.818800     5.449300     7.810000
P       0.561900     4.264200     8.437700
C       6.339300     5.680600     8.807800
C       4.751300     7.015800     6.893400
C       5.450100     4.387900     6.506000
C       0.214900     2.937100     7.266900
C      -0.421800     5.587900     7.642200
C      -0.476700     3.773000     9.824700
H       7.052000     5.953200     8.252700
H       6.560800     4.868800     9.245400
H       6.179300     6.356200     9.470200
H       5.613400     7.235600     6.578600
H       4.440600     7.705100     7.479700
H       4.149100     6.929900     6.165300
H       6.291000     4.722200     6.212000
H       4.837900     4.392400     5.776200
H       5.552600     3.509600     6.836300
H      -0.717300     2.769900     7.253100
H       0.666400     2.141300     7.566100
H       0.524300     3.175200     6.416100
H      -1.328100     5.318800     7.588600
H      -0.080000     5.760800     6.779200
H      -0.361000     6.380300     8.174900
H      -1.357200     3.585200     9.518600
H      -0.500500     4.457700    10.473200
H      -0.117000     2.973700    10.222500
P       2.309900     6.897800     9.484000
P       3.411900     2.618700     8.856300
C       1.749900     8.330300     8.486200
C       3.700200     7.622700    10.400600
C       1.074900     6.913900    10.788000
C       2.436200     1.654600    10.027100
C       5.050100     2.428700     9.651800
C       3.505800     1.473700     7.469300
H       1.629600     9.083800     9.041300
H       0.936100     8.116200     8.048600
H       2.415000     8.529500     7.823800
H       3.459500     8.479200    10.715400
H       4.452500     7.698200     9.814300
H       3.926900     7.058100    11.128700
H       0.944100     7.809300    11.082000
H       1.385000     6.386000    11.517800
H       0.263100     6.563500    10.457700
H       2.757400     0.763800    10.040900
H       1.521200     1.647700     9.727900
H       2.487700     2.041600    10.877900
H       5.270300     1.509200     9.705400
H       5.029000     2.811100    10.514800
H       5.706000     2.877500     9.119100
H       3.783500     0.617200     7.775400
H       4.110700     1.795500     6.820800
H       2.633800     1.385500     7.071500
