90
Refcode: PENGAT_comp_0 | Dataset: tmCAT | Charge: unknown | Potential Spins: [1, 3, 5]
Ir     -0.924000     2.687700     5.094500
P      -0.351900     1.402700     3.162600
C      -1.813900     1.331400     2.074500
C      -2.610800     2.483300     1.902800
C      -3.698500     2.414900     1.038000
C      -4.032000     1.244700     0.371700
C      -3.279600     0.093000     0.574500
C      -2.179800     0.146200     1.415600
C      -2.295600     3.826700     2.569100
O      -1.182600     3.872900     3.405700
C      -3.563400     4.360800     3.222100
C      -4.105500     3.788600     4.390400
P      -3.231200     2.426200     5.260100
C      -4.052700     0.921900     4.596200
C      -5.158900     0.957000     3.756700
C      -5.737700    -0.217100     3.296100
C      -5.226400    -1.447400     3.681100
C      -4.134300    -1.493000     4.532600
C      -3.558800    -0.317000     5.000500
C      -4.049400     2.543800     6.907700
C      -5.018600     1.648300     7.351900
C      -5.734900     1.909000     8.506900
C      -5.501300     3.060800     9.242800
C      -4.517700     3.951500     8.831200
C      -3.784000     3.688200     7.679200
C      -5.308400     4.296600     4.885000
C      -5.983200     5.329400     4.249700
C      -5.430700     5.906600     3.114000
C      -4.237100     5.426200     2.620900
C       0.865700     2.252400     2.081900
C       2.169300     2.501100     2.545400
C       3.106400     3.138900     1.745800
C       2.778800     3.529600     0.459000
C       1.504600     3.270500    -0.029600
C       0.551700     2.655300     0.777400
C       0.275800    -0.318100     3.118500
C       1.231600    -0.738000     2.190000
C       1.649000    -2.061000     2.148600
C       1.124300    -2.985600     3.031100
C       0.172200    -2.592800     3.947700
C      -0.245100    -1.262000     3.999500
C       0.947800     3.717300     5.345500
C      -0.109500     4.466100     5.977800
C      -0.227000     4.567100     7.482200
C      -0.278700     3.179000     8.124900
C      -0.795100     2.098200     7.175700
C       0.069400     1.277700     6.395400
C       1.576800     1.465800     6.340600
C       1.983500     2.936500     6.130300
H      -4.240200     3.168600     0.897300
H      -4.753000     1.230300    -0.217700
H      -3.509500    -0.701600     0.157000
H      -1.672000    -0.617100     1.554800
H      -2.091700     4.456700     1.842100
H      -5.509000     1.770700     3.506400
H      -6.478400    -0.173900     2.730500
H      -5.623500    -2.240200     3.374600
H      -3.783000    -2.313700     4.796100
H      -2.831300    -0.363100     5.589800
H      -5.191800     0.872800     6.872200
H      -6.383100     1.297600     8.789700
H      -6.007700     3.240000    10.015800
H      -4.360700     4.713600     9.328700
H      -3.121600     4.287900     7.406700
H      -5.678900     3.949700     5.681600
H      -6.804000     5.624200     4.594800
H      -5.863300     6.604100     2.693500
H      -3.869800     5.812500     1.865700
H       2.406600     2.235100     3.413100
H       3.953600     3.303100     2.071600
H       3.408400     3.957700    -0.071100
H       1.286900     3.505300    -0.900300
H      -0.291900     2.541400     0.442700
H       1.589100    -0.112300     1.590300
H       2.287000    -2.325900     1.523700
H       1.415100    -3.866000     2.997000
H      -0.186200    -3.211400     4.532600
H      -0.884600    -1.003000     4.622900
H       1.283200     4.114300     4.507400
H      -0.372500     5.285100     5.501000
H       0.540500     5.035700     7.834600
H      -1.044100     5.039400     7.716200
H      -0.875400     3.193400     8.899300
H       0.615300     2.950200     8.409200
H      -1.596000     1.655400     7.489600
H      -0.230500     0.360300     6.254700
H       1.981800     1.135800     7.171300
H       1.898600     0.942400     5.588300
H       2.111500     3.342800     6.995100
H       2.819900     2.951400     5.638700
