87
Refcode: PEVGED_comp_0 | Dataset: tmCAT | Charge: 1 | Potential Spins: [1, 3, 5]
Rh      6.222300     3.226900     3.535600
P       6.468900     3.946000     1.499700
O       5.943200     2.719300     5.620600
N       8.177900     2.585600     3.792500
C       6.381800     7.173300     0.362400
C       5.363600     6.249200     0.210100
C       4.552300     6.300000    -0.961000
H       3.856200     5.663100    -1.068300
C       4.747300     7.236600    -1.930300
H       4.152500     7.281200    -2.669500
C       5.835500     8.149700    -1.842000
C       6.108100     9.073900    -2.880200
H       5.525200     9.127200    -3.629100
C       7.210400     9.892900    -2.814100
H       7.396800    10.503600    -3.517600
C       8.061600     9.817300    -1.694100
H       8.830900    10.373600    -1.655500
C       7.800800     8.959900    -0.663600
H       8.383700     8.937600     0.087000
C       6.671600     8.103800    -0.697300
C       7.206100     7.218000     1.609000
C       7.996900     6.140000     1.960800
C       8.777000     6.177300     3.137300
H       9.292000     5.415400     3.379000
C       8.807200     7.280000     3.932700
H       9.377100     7.298500     4.692000
C       7.988300     8.407900     3.632900
C       7.963500     9.554600     4.460400
H       8.517300     9.585600     5.232900
C       7.160800    10.612700     4.170600
H       7.167300    11.380800     4.730000
C       6.320400    10.569300     3.044100
H       5.742900    11.301500     2.862500
C       6.322500     9.487000     2.205400
H       5.752600     9.481500     1.446200
C       7.163000     8.375200     2.457200
C       5.063000     5.145000     1.197500
H       4.320600     4.607600     0.796500
C       7.988300     4.896100     1.116500
H       8.788800     4.347400     1.313000
H       8.003400     5.137800     0.157700
C       6.396900     2.702600     0.181900
C       6.283700     1.355100     0.536600
H       6.222300     1.113800     1.454300
C       6.260000     0.369200    -0.434900
H       6.184600    -0.543900    -0.184900
C       6.347300     0.721100    -1.768100
H       6.336500     0.044600    -2.435700
C       6.451800     2.049200    -2.140500
H       6.510000     2.282100    -3.060900
C       6.472300     3.041600    -1.170800
H       6.538000     3.953400    -1.427200
C       4.572700     5.581000     2.588700
H       5.199800     6.250400     2.960300
H       3.683800     6.010000     2.503700
C       4.470400     4.402700     3.545100
H       4.123400     4.629900     4.455500
C       4.139600     3.108500     3.091600
H       3.936000     3.061400     2.114900
C       3.527600     2.028100     3.882400
C       3.398300     0.771900     3.291200
H       3.695700     0.646700     2.397600
C       2.845600    -0.297300     3.978400
H       2.761500    -1.143500     3.555700
C       2.417800    -0.130100     5.278300
H       2.047200    -0.866000     5.752200
C       2.524500     1.107600     5.902200
H       2.231400     1.216600     6.798700
C       3.066500     2.189200     5.201400
H       3.124600     3.040300     5.619000
C       9.175600     2.235000     4.117300
C      10.478300     1.779100     4.582400
H      10.367300     0.965100     5.116000
H      10.892000     2.476600     5.132400
H      11.051500     1.587100     3.811200
C       6.132900     1.380200     6.145000
H       7.017500     1.020900     5.882600
H       5.427200     0.769400     5.814700
C       6.040200     1.547400     7.651500
H       5.098500     1.577200     7.956800
H       6.516500     0.820200     8.128000
C       6.725500     2.875600     7.846100
H       7.710300     2.771500     7.848000
H       6.444300     3.300500     8.693500
C       6.263300     3.693300     6.643800
H       5.466000     4.233400     6.874900
H       6.981900     4.300300     6.336600
