112
Refcode: PEYGEH_comp_0 | Dataset: tmCAT | Charge: 1 | Potential Spins: [1, 3, 5]
Rh     14.331500     5.495300    14.147600
P      14.088600     7.214600    15.639700
P      15.824900     4.242400    15.242100
P      13.398400     3.580200    13.180900
N      13.480600     6.807200    12.598900
H      12.810500     6.343300    12.148500
O      18.168300     7.053400     9.531700
C      12.380400     7.835000    15.345400
C      11.440200     7.928700    16.378100
H      11.680200     7.667200    17.259900
C      10.159300     8.401300    16.124200
H       9.529000     8.461900    16.832900
C       9.792600     8.787100    14.845800
H       8.915600     9.112400    14.676800
C      10.713100     8.693900    13.812700
H      10.461600     8.959400    12.935200
C      11.998800     8.217700    14.041600
C      15.088200     8.765200    15.615000
C      16.477100     8.650100    15.669800
H      16.875900     7.789500    15.730900
C      17.281200     9.781600    15.636100
H      18.225900     9.692200    15.679500
C      16.712900    11.042000    15.538900
H      17.264900    11.815000    15.514800
C      15.344600    11.168600    15.478400
H      14.950100    12.029500    15.410200
C      14.531900    10.031000    15.517100
H      13.586600    10.126200    15.475800
C      14.065500     6.798500    17.421500
C      13.413100     5.627100    17.815300
H      12.998600     5.074300    17.162400
C      13.367000     5.266600    19.153700
H      12.917900     4.472100    19.416000
C      13.976900     6.070400    20.112300
H      13.953400     5.817200    21.028300
C      14.616200     7.233300    19.736000
H      15.030700     7.781900    20.392300
C      14.656400     7.603800    18.390400
H      15.087800     8.409700    18.135100
C      12.984100     8.190700    12.912000
H      13.757000     8.764100    13.144200
H      12.557300     8.570000    12.102500
C      14.662600     6.871200    11.744400
C      14.648100     6.387400    10.448600
H      13.846200     6.032400    10.084500
C      15.811800     6.419800     9.674000
H      15.801200     6.079900     8.787600
C      16.978200     6.946200    10.197500
C      16.992500     7.429800    11.506300
H      17.797400     7.775500    11.875700
C      15.847000     7.407000    12.263300
H      15.857900     7.758100    13.146000
C      18.220500     6.476200     8.222500
H      18.021600     5.518700     8.279100
H      19.115100     6.602400     7.845100
H      17.558500     6.913500     7.646700
C      17.142400     5.104700    16.210900
C      18.280500     5.582500    15.534800
H      18.387000     5.395700    14.609400
C      19.251800     6.321500    16.195100
H      20.016800     6.632300    15.723800
C      19.103900     6.606800    17.545100
H      19.762700     7.119100    17.996900
C      18.000200     6.147900    18.227900
H      17.901000     6.346900    19.152100
C      17.023600     5.389200    17.573500
H      16.274400     5.065500    18.058900
C      16.894400     3.378500    14.029000
C      17.030900     3.912700    12.749900
H      16.577300     4.715100    12.520600
C      17.829900     3.273000    11.803600
H      17.930700     3.645000    10.934900
C      18.478900     2.093100    12.132600
H      18.991200     1.636600    11.477100
C      18.382900     1.584400    13.399400
H      18.854200     0.792500    13.626100
C      17.605300     2.213300    14.347200
H      17.551600     1.855000    15.224200
C      11.637300     3.470900    13.679600
C      11.130100     4.335700    14.645600
H      11.693300     5.000400    15.024000
C       9.813900     4.234800    15.059400
H       9.490900     4.803700    15.748600
C       8.972300     3.314200    14.477100
H       8.060300     3.272900    14.738800
C       9.456000     2.445100    13.505000
H       8.872300     1.812500    13.101700
C      10.780800     2.499800    13.124700
H      11.116500     1.880800    12.486900
C      13.315400     3.454600    11.345600
C      12.192400     3.834500    10.619700
H      11.419000     4.135200    11.080200
C      12.184300     3.781600     9.225800
H      11.404700     4.030100     8.743300
C      13.316100     3.363700     8.552900
H      13.320400     3.335100     7.602400
C      14.432200     2.989400     9.258000
H      15.210500     2.709400     8.789400
C      14.440800     3.017500    10.651600
H      15.214400     2.737800    11.128000
C      15.261600     2.945400    16.431300
H      15.931400     2.217200    16.434300
H      15.251000     3.342300    17.337800
C      13.884400     2.328400    16.162500
H      13.595400     1.861600    16.987100
H      13.246200     3.068400    16.007300
C      13.752100     1.348600    15.002600
H      12.836100     0.974000    15.024000
H      14.377700     0.597600    15.165700
C      14.011300     1.876300    13.586800
H      13.600700     1.243600    12.945800
H      14.989000     1.858600    13.429500
