68
Refcode: PEYTAR_comp_0 | Dataset: tmCAT | Charge: 1 | Potential Spins: [1, 3, 5]
Rh     19.291300     5.264000    17.269800
Cl     18.268200     7.126200    16.191400
N      20.254500     7.235400    19.569000
N      21.423800     7.211600    17.786000
N      21.973400     8.176900    18.600900
C      20.378400     6.602400    18.312700
C      21.263200     8.172100    19.736200
C      21.432300     8.899500    20.894600
H      22.130200     9.506300    20.986500
C      20.521600     8.691700    21.917100
C      20.642000     9.356400    23.182000
H      21.364600     9.919500    23.340000
C      19.713400     9.173100    24.148500
H      19.807200     9.614900    24.960500
C      18.598100     8.314900    23.942700
H      17.958500     8.219700    24.610900
C      18.458900     7.635200    22.777200
H      17.732400     7.068000    22.658600
C      19.424000     7.781900    21.721200
C      19.313600     7.022000    20.561700
C      18.268000     5.966300    20.427700
C      17.010100     6.266100    19.884600
C      16.017100     5.292900    19.953200
H      15.184200     5.470600    19.576600
C      16.230500     4.061900    20.566700
C      17.478000     3.809600    21.132200
H      17.631400     2.991100    21.546800
C      18.507000     4.756700    21.093600
C      16.716800     7.621700    19.307400
H      15.832700     7.625600    18.931100
H      17.358100     7.823100    18.621800
H      16.772800     8.284000    20.000300
C      15.144500     3.020400    20.637300
H      15.080000     2.566700    19.794000
H      14.306900     3.444800    20.836300
H      15.352300     2.385900    21.327200
C      19.800000     4.493400    21.826100
H      20.526700     4.908200    21.354100
H      19.952300     3.546300    21.876300
H      19.744500     4.856600    22.712400
C      21.973100     7.025200    16.440900
H      21.471100     6.348600    15.981400
H      22.890900     6.752300    16.505900
H      21.917200     7.850900    15.954500
C      23.276900     8.791600    18.356600
H      23.391200     9.544300    18.942300
H      23.325200     9.085900    17.445000
H      23.971500     8.149100    18.523200
C      17.723900     3.902400    16.582100
H      16.873400     4.341100    16.373600
C      18.658400     3.983300    15.582400
H      18.356700     4.480700    14.793400
C      19.937900     3.513000    18.304400
H      20.252000     3.685100    19.215800
C      20.870100     3.866000    17.305800
H      21.707900     4.227600    17.660200
C      17.606200     2.750700    17.550200
H      17.247500     1.981400    17.081900
H      16.977200     2.991100    18.249700
C      18.960000     2.356500    18.201100
H      18.790000     2.007500    19.090200
H      19.366700     1.647400    17.678100
C      19.667600     2.891100    15.279800
H      19.792900     2.821300    14.320500
H      19.333400     2.040100    15.602600
C      21.015200     3.204400    15.954700
H      21.514000     2.378000    16.062100
H      21.531400     3.785800    15.374000
