122
Refcode: PICWEE_comp_0 | Dataset: tmCAT | Charge: 1 | Potential Spins: [1, 3, 5]
Ru      7.652100     4.172600     3.544400
Cl      5.319600     4.162000     3.851500
Cl      9.901500     4.238900     4.170600
P       7.638300     1.753000     3.919300
P       7.654300     6.599600     3.703100
C       7.880200     4.111800     1.883100
C       8.280200     4.086800     0.518800
C       9.668100     4.080300     0.267200
H      10.289200     4.076300     0.987400
C      10.113800     4.077300    -1.041300
H      11.046900     4.079600    -1.218900
C       9.206200     4.073400    -2.104600
C       7.833000     4.084200    -1.836500
H       7.217200     4.089500    -2.560600
C       7.354500     4.090100    -0.533600
H       6.420900     4.096000    -0.359800
C       9.701400     4.071400    -3.533200
H      10.679100     4.135400    -3.539700
H       9.320400     4.838400    -4.011100
H       9.425000     3.242000    -3.974800
C       6.090200     0.979800     3.287500
H       5.358500     1.399300     3.824200
C       5.732000     1.292200     1.823400
H       5.813000     2.266400     1.659700
H       6.358400     0.824500     1.218900
C       4.301600     0.838600     1.536900
H       4.083600     1.018300     0.588500
H       3.673000     1.359900     2.097600
C       4.122400    -0.655000     1.826700
H       3.176100    -0.906600     1.682000
H       4.679200    -1.182500     1.199400
C       4.523000    -0.983100     3.258500
H       4.448600    -1.961000     3.403000
H       3.901600    -0.532100     3.882800
C       5.954700    -0.534700     3.558400
H       6.588900    -1.034700     2.984600
H       6.174300    -0.725900     4.504800
C       7.617700     1.349700     5.727900
H       7.680800     0.354700     5.790700
C       6.308500     1.738300     6.442500
H       6.215500     2.723000     6.457300
H       5.535800     1.363200     5.949600
C       6.316400     1.202500     7.873200
H       5.494500     1.504400     8.334500
H       6.302100     0.213500     7.846400
C       7.524500     1.658800     8.665900
H       7.525400     1.212100     9.547900
H       7.467600     2.634300     8.817100
C       8.836300     1.332900     7.927300
H       9.599900     1.714600     8.426600
H       8.956600     0.351500     7.888200
C       8.823700     1.901200     6.504400
H       9.661400     1.652200     6.038900
H       8.772500     2.890500     6.541000
C       9.139400     0.884600     3.245900
H       9.910300     1.511000     3.361100
C       9.529300    -0.428000     3.943300
H       9.636700    -0.269300     4.914800
H       8.813900    -1.100400     3.815800
C      10.846700    -0.958800     3.357800
H      11.570300    -0.308800     3.542500
H      11.080900    -1.813200     3.801900
C      10.744100    -1.186400     1.851300
H      11.622600    -1.478100     1.500700
H      10.087700    -1.905100     1.668000
C      10.310100     0.094900     1.146700
H      10.188900    -0.085400     0.181300
H      11.017500     0.781800     1.244000
C       9.002100     0.627700     1.731300
H       8.278900    -0.029600     1.573200
H       8.757100     1.471500     1.274700
C       6.072900     7.368600     3.156700
H       5.377100     7.022700     3.787900
C       5.623800     6.902100     1.751700
H       6.231900     7.278900     1.065500
H       5.671900     5.915700     1.698700
C       4.195000     7.361300     1.477200
H       3.580800     6.917600     2.114300
H       3.934100     7.088400     0.563400
C       4.053800     8.876200     1.610600
H       3.104400     9.131500     1.492300
H       4.582000     9.322000     0.901000
C       4.541600     9.349600     2.984600
H       4.493700    10.337000     3.029200
H       3.950500     8.983700     3.687500
C       5.979100     8.898300     3.240900
H       6.268000     9.200400     4.139400
H       6.581500     9.305600     2.569000
C       7.859200     6.799700     5.542100
H       8.843200     6.743500     5.712600
C       7.236300     5.611600     6.290800
H       6.250700     5.643100     6.195100
H       7.553900     4.766100     5.885500
C       7.605400     5.633600     7.781100
H       7.142300     4.894200     8.245300
H       8.579600     5.495300     7.882700
C       7.210600     6.960000     8.420700
H       6.223600     7.035800     8.434900
H       7.533200     6.983300     9.355400
C       7.794800     8.134200     7.659500
H       8.781300     8.113200     7.734800
H       7.475700     8.977100     8.066800
C       7.402000     8.106300     6.185900
H       7.819700     8.872000     5.715300
H       6.420200     8.192000     6.103100
C       9.110200     7.430000     2.915100
H       9.876800     6.792800     2.998500
C       9.559500     8.741600     3.589900
H       8.844800     9.420500     3.509000
H       9.725400     8.582900     4.552200
C      10.842200     9.257600     2.923800
H      11.105800    10.113600     3.344400
H      11.572600     8.605900     3.073800
C      10.662900     9.469100     1.432000
H      11.524800     9.749000     1.032100
H      10.004100    10.192400     1.277500
C      10.180600     8.189400     0.752300
H      10.888800     7.499000     0.808900
H      10.008400     8.372700    -0.206400
C       8.895700     7.657600     1.410300
H       8.161900     8.307000     1.274700
H       8.633400     6.805900     0.981800
