99
Refcode: PIFSEE_comp_0 | Dataset: tmCAT | Charge: 0 | Potential Spins: [1, 3, 5]
Ti      4.166700     9.374000     2.787400
N       5.433900     9.669200     0.985000
N       2.342900     8.468000     3.603400
N       2.393800     9.388900     1.567000
N       5.513400     8.437900     3.892600
N       4.283300    10.966300     3.434700
C       6.683200     9.160100     0.884700
H       6.989100     8.570100     1.563600
C       7.533400     9.461100    -0.163300
H       8.400400     9.074700    -0.206900
C       7.106000    10.331900    -1.146500
H       7.676100    10.556600    -1.871100
C       5.840400    10.869300    -1.059700
H       5.525800    11.473100    -1.721700
C       5.033600    10.513700     0.010600
H       4.158900    10.881100     0.060400
C       1.600300     8.920200     2.546000
C       1.782700     9.866900     0.368800
C       1.495700     8.958200    -0.663400
C       0.945600     9.439100    -1.858800
H       0.742800     8.825700    -2.555200
C       0.688900    10.792000    -2.053100
C       0.968000    11.669800    -1.012000
H       0.785600    12.594900    -1.129600
C       1.509000    11.235900     0.203200
C       1.784800    12.216700     1.313500
H       1.660900    13.129900     0.980100
H       2.707300    12.104800     1.626800
H       1.166600    12.051900     2.055100
C       0.138900    11.307400    -3.367800
H      -0.773300    11.640000    -3.233500
H       0.127300    10.580500    -4.024000
H       0.706600    12.036000    -3.696300
C       1.794400     7.491200    -0.492400
H       2.745800     7.372800    -0.287400
H       1.577900     7.015200    -1.322200
H       1.254700     7.131800     0.241400
C       0.184800     8.861600     2.584800
H      -0.338900     9.223000     1.879800
C      -0.407200     8.269700     3.668700
H      -1.355200     8.223100     3.719300
C       0.365000     7.732000     4.704600
H      -0.050700     7.297300     5.441000
C       1.741500     7.842100     4.642800
C       2.619500     7.166200     5.652800
C       3.274100     7.893400     6.659100
C       4.082900     7.204900     7.559900
H       4.525700     7.692000     8.243400
C       4.263000     5.831600     7.490300
C       5.146500     5.113700     8.482800
H       5.771200     5.751800     8.887200
H       5.650200     4.410200     8.022000
H       4.591800     4.712100     9.183200
C       3.595500     5.132200     6.495500
H       3.700900     4.189000     6.444100
C       2.773700     5.773400     5.570300
C       2.079000     4.947600     4.507400
H       2.523200     4.079100     4.426300
H       2.121400     5.418000     3.647400
H       1.141000     4.812800     4.759800
C       3.121200     9.392800     6.767700
H       3.572400     9.822900     6.010100
H       3.523100     9.702400     7.605300
H       2.168800     9.625600     6.757400
C       5.970000     7.149900     4.187800
C       5.628500     6.081600     3.329200
C       6.122400     4.808200     3.591700
H       5.899600     4.092300     3.009300
C       6.936800     4.562200     4.691900
H       7.275000     3.689700     4.854600
C       7.248500     5.607600     5.548200
H       7.796000     5.439200     6.306100
C       6.778900     6.899100     5.322800
C       7.127100     8.007700     6.284000
H       7.571200     7.629800     7.070700
H       6.308000     8.469400     6.561900
H       7.728400     8.644200     5.843400
C       4.715200     6.328400     2.152200
H       4.583400     5.490900     1.658400
H       5.118900     6.996700     1.560700
H       3.850000     6.657700     2.474700
C       4.409100    12.276900     3.859300
C       3.376000    12.916800     4.589300
C       3.559300    14.241100     4.991400
H       2.868600    14.676800     5.475400
C       4.719700    14.937200     4.702300
H       4.825500    15.834300     4.995400
C       5.728600    14.309700     3.980300
H       6.524000    14.788000     3.779600
C       5.596500    12.995900     3.547700
C       6.684500    12.337400     2.736300
H       6.401700    12.275700     1.799300
H       6.853200    11.437300     3.086900
H       7.504200    12.870300     2.796600
C       2.095000    12.204700     4.936200
H       2.046200    12.074400     5.906600
H       2.074300    11.334000     4.486700
H       1.332100    12.743200     4.639000
H       5.822900     8.989900     4.463700
