96
Refcode: PIGHOD_comp_0 | Dataset: tmCAT | Charge: 0 | Potential Spins: [1, 3, 5]
Pt      7.955500     1.445100    22.060200
Cl      5.687100     1.966500    22.642800
Cl     10.348600     4.912000    14.656100
S      10.291900     3.598500    20.771900
P       7.141300     0.679000    20.052600
P       8.632500     2.186400    24.138900
C       9.856400     1.116500    21.548100
C      10.756100     1.877700    21.009400
C      12.199800     1.498700    20.846700
C      12.571800     0.185200    20.840000
C      13.910300    -0.227400    20.860300
C      14.886100     0.758000    20.877200
C      14.534400     2.068300    20.823000
C      13.216100     2.454900    20.806100
C      10.412900     3.887600    19.027400
C      10.728700     2.924900    18.122700
C      10.714500     3.248700    16.740400
C      10.374300     4.548200    16.361000
C      10.094000     5.501100    17.269000
C      10.107000     5.203300    18.617400
C       8.313100     0.134300    18.780000
C       9.184100    -0.885800    19.098500
C      10.107700    -1.364500    18.146500
C      10.100100    -0.833800    16.889500
C       9.229400     0.162400    16.564200
C       8.344600     0.648700    17.499300
C       6.070200    -0.794800    20.192900
C       5.713100    -1.513900    19.047700
C       4.915000    -2.640100    19.173000
C       4.482900    -3.057000    20.379200
C       4.867600    -2.383500    21.534500
C       5.641400    -1.237800    21.412600
C       6.175600     1.993600    19.264500
C       4.947800     1.820400    18.664800
C       4.261200     2.901100    18.126100
C       4.786300     4.150800    18.177000
C       6.004100     4.331600    18.739400
C       6.705900     3.254100    19.278100
C      10.435500     2.336900    24.326300
C      11.208900     1.183600    24.407600
C      12.586800     1.250700    24.397400
C      13.190100     2.460300    24.302600
C      12.452600     3.619100    24.248400
C      11.074700     3.549700    24.258500
C       8.142100     1.094800    25.532400
C       7.134600     0.173300    25.352900
C       6.741100    -0.633500    26.420100
C       7.337000    -0.505700    27.643200
C       8.342000     0.399600    27.822800
C       8.767100     1.208500    26.762300
C       7.972900     3.823700    24.529600
C       7.687200     4.680300    23.479300
C       7.189700     5.958100    23.730000
C       7.017100     6.356600    25.037800
C       7.300100     5.536900    26.061000
C       7.774800     4.278500    25.806900
H      10.165200     0.214400    21.724300
H      11.875200    -0.501400    20.812900
H      14.149700    -1.170600    20.860300
H      15.802600     0.500300    20.945000
H      15.247200     2.758100    20.792500
H      12.979000     3.410100    20.748500
H      10.954500     2.040200    18.434400
H      10.940100     2.593500    16.056000
H       9.879600     6.415100    16.991100
H       9.908200     5.885600    19.298400
H       9.154300    -1.276700    19.982800
H      10.757800    -2.058600    18.417500
H      10.695700    -1.192300    16.215300
H       9.251800     0.545800    15.673200
H       7.716300     1.375300    17.258800
H       6.016300    -1.215000    18.170200
H       4.649900    -3.136100    18.373500
H       3.903700    -3.824800    20.443600
H       4.602800    -2.710500    22.405300
H       5.891200    -0.747200    22.212100
H       4.550000     0.930200    18.614000
H       3.401800     2.764600    17.709400
H       4.262800     4.905500    17.828000
H       6.395800     5.231500    18.749500
H       7.582800     3.413300    19.705000
H      10.760600     0.324900    24.475400
H      13.120200     0.431000    24.461800
H      14.164100     2.499300    24.268700
H      12.906400     4.486500    24.200900
H      10.539700     4.366300    24.234800
H       6.684000     0.100700    24.478800
H       6.031800    -1.306000    26.294800
H       7.051700    -1.051500    28.388600
H       8.750300     0.501400    28.703700
H       9.518300     1.836600    26.887700
H       7.810000     4.382500    22.561100
H       6.956500     6.560200    22.994800
H       6.689500     7.234900    25.210600
H       7.170800     5.849800    26.982500
H       7.974600     3.677500    26.552200
