49
Refcode: PIWNAL_comp_0 | Dataset: tmCAT | Charge: unknown | Potential Spins: [1, 3, 5]
Ti      0.254800     2.211300    10.009200
N      -0.254900     3.576300    11.273200
C       2.248200     2.873400    11.022900
C       2.418300     3.087200     9.626700
C       2.361700     1.830300     8.985100
C       2.167600     0.825900     9.981200
C       2.099700     1.470600    11.242000
C       2.585300     4.430700     8.984400
C       2.565100     1.591700     7.514000
C       2.119600    -0.655000     9.739200
C       1.873500     0.828500    12.572100
C       1.975600     3.947400    12.009700
C       2.923600     4.628200    12.752700
C       2.528400     5.662700    13.596000
C       1.189500     6.012100    13.677400
C       0.214900     5.364800    12.934100
C       0.612300     4.308000    12.095500
C      -1.696700     3.866700    11.435800
C      -1.943200     5.349300    11.683500
C      -1.237500     5.776800    12.964200
C      -0.491200     2.768700     8.122900
C      -0.940200     0.539100    10.449700
H       0.906100     6.739200    14.250300
H      -1.644200     5.846400    10.955200
H      -2.133500     3.545600    10.629700
H       3.156100     6.103900    14.068800
H       1.609200    -0.832700     9.003800
H      -1.663200     5.408600    13.730400
H       3.828400     4.386900    12.690600
H      -2.040500     3.348200    12.202400
H       1.704600    -1.141800    10.480000
H      -1.295700     6.765000    13.072200
H      -2.864000     5.520200    11.699800
H       2.175200     2.292200     6.997700
H      -1.834200     0.858500    10.464100
H       3.003800    -1.056000     9.581300
H       1.407500     1.382200    13.150000
H       2.380600     4.438400     8.050400
H      -0.402000     2.026100     7.488800
H       1.365700     0.042900    12.489000
H       2.136100     0.815600     7.218000
H       2.709900     0.566600    13.006000
H       3.482400     1.519500     7.330400
H       2.073500     5.082300     9.430100
H      -1.431500     2.961800     8.208900
H      -0.142400     3.494100     7.719200
H       3.469300     4.721800     9.044100
H      -0.858200    -0.120200     9.735400
H      -0.798400     0.137400    11.276400
