89
Refcode: PIXDIK_comp_0 | Dataset: tmCAT | Charge: 0 | Potential Spins: [1, 3, 5]
Pd      5.581700     7.014900     8.795900
S       6.382500     4.033700     9.503300
S       8.665600     7.416100     8.173800
P       4.601900     8.570000     7.534300
P       3.827100     7.196500    10.141000
F       6.245000     1.749100    10.744800
F       5.106300     3.319800    11.683000
F       7.240100     3.295800    11.879400
F      10.704900     8.619500     7.062800
F       8.802000     9.394300     6.471400
F       9.483900     7.511900     5.681500
O       6.399900     5.422600    10.024800
O       7.620900     3.586600     8.942300
O       5.182400     3.715500     8.772400
O       7.377700     6.981300     7.586100
O       8.508700     8.448600     9.171300
O       9.579100     6.348800     8.423500
C       2.981900     9.010700     8.258800
C       2.699800     8.477100     9.501100
C       1.517800     8.839800    10.162700
H       1.317900     8.478600    11.017700
C       0.647300     9.721100     9.564400
H      -0.142800     9.995400    10.017100
C       0.926800    10.214200     8.283200
H       0.299400    10.788200     7.856900
C       2.082800     9.887400     7.639100
H       2.275800    10.248600     6.782200
C       4.396700     8.133900     5.747400
H       3.688900     8.748400     5.397700
C       5.703300     8.631500     5.160000
H       6.457900     8.058900     5.453300
H       5.665300     8.625500     4.169400
C       5.875500    10.041800     5.677000
H       5.227400    10.642800     5.228300
H       6.788400    10.364100     5.471800
C       5.641900    10.071800     7.203600
H       6.527100     9.929400     7.647800
C       3.938100     6.698000     5.365400
H       3.103000     6.501700     5.876800
C       4.944400     5.587400     5.680900
H       5.842600     5.872200     5.408300
H       4.699600     4.773600     5.193800
H       4.939200     5.404600     6.644500
C       3.574600     6.704000     3.870800
H       4.392400     6.633600     3.335500
H       3.110800     7.540400     3.650500
H       2.988800     5.944200     3.674300
C       5.114000    11.450700     7.652600
H       4.213200    11.584100     7.234900
C       4.949600    11.588600     9.172600
H       5.827900    11.518100     9.604100
H       4.365500    10.873600     9.503500
H       4.550700    12.459300     9.381700
C       6.023500    12.567300     7.158100
H       6.930300    12.426400     7.502200
H       5.684300    13.430600     7.473100
H       6.041700    12.562800     6.176000
C       2.853000     5.624900    10.475000
H       3.470800     4.854500    10.321500
C       2.617600     5.723800    11.984000
H       1.832700     6.297900    12.161300
H       2.431500     4.823100    12.351900
C       3.842900     6.308400    12.661700
H       4.581000     5.650400    12.648400
H       3.633500     6.521200    13.606700
C       4.269500     7.592800    11.917500
H       3.685400     8.343700    12.227500
C       1.626800     5.401600     9.604100
H       1.054800     6.218400     9.665000
C       1.992800     5.196300     8.127000
H       2.653900     5.867700     7.856900
H       1.188900     5.287700     7.576300
H       2.371800     4.300000     8.007800
C       0.816900     4.208600    10.165300
H       1.413100     3.442700    10.303000
H       0.111600     3.964300     9.530000
H       0.410200     4.463400    11.020400
C       5.739700     7.987000    12.167900
H       6.338500     7.270600    11.809200
C       6.073700     9.305900    11.486300
H       5.390900     9.972900    11.713900
H       6.091000     9.177000    10.514800
H       6.950300     9.619200    11.790700
C       6.007900     8.163800    13.672900
H       6.624000     8.913200    13.810500
H       6.408600     7.344000    14.032900
H       5.164200     8.345200    14.138800
C       6.219100     3.050000    11.054800
C       9.443200     8.274800     6.766000
