59
Refcode: POBNOK_comp_0 | Dataset: tmCAT | Charge: 0 | Potential Spins: [1, 3, 5]
Pd      3.421900     6.938700     2.975900
P       4.110200     9.098100     3.427000
P       1.993100     5.081100     2.995700
Cl      5.469900     5.889700     2.476400
C       0.490100     7.197600     3.371700
N      -0.433300     8.234400     3.666000
N       0.167500     9.417900     3.823300
C       1.764000     7.840400     3.327900
N       1.581000     9.206300     3.610600
C       2.687400    10.184400     3.660200
H       2.725900    10.640500     4.516900
H       2.620400    10.838900     2.949100
C       0.296200     5.816600     3.115200
H      -0.190600     5.687800     2.287600
H      -0.203500     5.403200     3.837900
C       4.980900     9.257600     5.003600
C       6.376300     9.551000     5.126000
H       6.926800     9.658100     4.385800
C       6.858800     9.665100     6.443200
H       7.773600     9.826300     6.527700
C       6.214400     9.575100     7.518500
H       6.584200     9.736400     8.357700
C       4.983500     9.231500     7.323200
H       4.481700     9.061400     8.089600
C       4.337600     9.091600     6.183800
H       3.434200     8.877300     6.189600
C       5.067600    10.092400     2.176900
C       6.005000     9.348500     1.544500
H       6.156900     8.457900     1.757200
C       6.729400    10.020600     0.539100
H       7.339000     9.570000     0.000000
C       6.497200    11.418700     0.387600
H       7.019300    11.915100    -0.198200
C       5.514000    12.029000     1.081100
H       5.280700    12.908200     0.894600
C       4.910000    11.375600     2.010800
H       4.332900    11.834000     2.581900
C       2.239300     4.201200     4.522700
C       3.287900     4.367900     5.283300
H       3.930300     4.980600     5.000700
C       3.522300     3.723300     6.437300
H       4.345000     3.798200     6.857000
C       2.563600     2.983600     6.979400
H       2.663000     2.649500     7.841900
C       1.400100     2.708000     6.233300
H       0.745500     2.129800     6.551000
C       1.273900     3.384200     4.913200
H       0.528700     3.236000     4.377000
C       1.795600     3.666400     1.800900
C       1.708000     3.971200     0.445900
H       1.643600     4.855800     0.171900
C       1.730800     2.950100    -0.498300
H       1.673700     3.155800    -1.404600
C       1.831700     1.626100    -0.090300
H       1.842700     0.943400    -0.722700
C       1.909900     1.321300     1.264700
H       1.981800     0.434800     1.538700
C       1.896500     2.340500     2.208900
H       1.951800     2.136700     3.115200
