125
Refcode: POFNEF_comp_0 | Dataset: tmCAT | Charge: 0 | Potential Spins: [1, 3, 5]
Ag      3.420200     3.501000     5.406500
P       1.007900     2.746900     5.124200
P       3.638800     2.351600     7.674700
P       2.551400     5.593900     6.511200
P       5.229500     3.405300     3.775100
C       0.282900     2.557300     6.782000
H      -0.696700     2.681900     6.709500
H       0.443100     1.629600     7.086800
C       2.252300     3.034700     8.662900
H       1.984200     2.331600     9.306300
H       2.619700     3.783900     9.195200
C       0.993300     5.164200     7.358000
H       0.875800     5.785300     8.119000
H       0.247000     5.326200     6.728100
C      -0.198700     3.613100     9.215400
C       0.022700     4.473100    10.293000
H       0.727200     5.106100    10.232100
C      -0.743400     4.443400    11.450400
H      -0.555500     5.045700    12.160000
C      -1.783300     3.533700    11.570100
H      -2.312500     3.507400    12.359100
C      -2.038600     2.671300    10.530700
H      -2.744200     2.040300    10.602400
C      -1.267000     2.718000     9.369700
H      -1.473000     2.122200     8.658300
C       0.528100     1.252200     4.182400
C       1.167300     1.022400     2.969400
H       1.839900     1.625500     2.673200
C       0.840800    -0.067100     2.189200
H       1.280100    -0.200000     1.356300
C      -0.116200    -0.963000     2.609100
H      -0.346300    -1.707400     2.064500
C      -0.739900    -0.771300     3.830600
H      -1.383600    -1.400000     4.138200
C      -0.430100     0.330900     4.604800
H      -0.875700     0.463100     5.434300
C      -0.045500     3.990700     4.274300
C      -1.427900     4.001400     4.406900
H      -1.852200     3.362500     4.969100
C      -2.198600     4.937000     3.724200
H      -3.142000     4.942300     3.832700
C      -1.599000     5.856500     2.893000
H      -2.126300     6.491400     2.423200
C      -0.235900     5.848400     2.745800
H       0.181200     6.477900     2.168600
C       0.539900     4.926100     3.437400
H       1.484000     4.937000     3.335100
C       3.370200     0.529500     7.674200
C       3.701000    -0.285900     8.749700
H       4.135200     0.085900     9.507700
C       3.400300    -1.641600     8.723100
H       3.618900    -2.185300     9.470700
C       2.789800    -2.204100     7.632300
H       2.590500    -3.132900     7.623700
C       2.467800    -1.421500     6.550100
H       2.043400    -1.805400     5.790700
C       2.768400    -0.062600     6.573200
H       2.555800     0.472500     5.816200
C       5.090600     2.510100     8.792500
C       4.953500     2.699400    10.171500
H       4.085500     2.699400    10.560800
C       6.061500     2.887300    10.979000
H       5.947700     3.002700    11.914700
C       7.318300     2.907400    10.441600
H       8.073100     3.056400    10.998200
C       7.484000     2.711400     9.098300
H       8.358100     2.714100     8.727700
C       6.378300     2.508800     8.265300
H       6.507400     2.367800     7.334400
C       3.604500     6.329900     7.826700
C       3.147500     7.386500     8.611500
H       2.277900     7.738400     8.466200
C       3.950300     7.929500     9.600700
H       3.635900     8.660500    10.121000
C       5.208200     7.407800     9.831500
H       5.750600     7.770600    10.521400
C       5.679300     6.366300     9.068200
H       6.546700     6.012200     9.225300
C       4.874000     5.828500     8.056100
H       5.201200     5.114200     7.521900
C       2.207300     7.069900     5.475900
C       1.100300     7.896800     5.641000
H       0.484600     7.722300     6.341500
C       0.887200     8.976200     4.789500
H       0.131500     9.537000     4.918200
C       1.770400     9.236400     3.755200
H       1.620700     9.970600     3.170800
C       2.863000     8.425600     3.582300
H       3.474100     8.604100     2.876800
C       3.083600     7.346500     4.426800
H       3.841500     6.789400     4.288600
C       5.336900     4.687000     2.471100
C       4.191400     4.943700     1.742500
H       3.380800     4.507400     1.978800
C       4.204600     5.825600     0.674900
H       3.415000     5.985300     0.171300
C       5.386700     6.468500     0.353900
H       5.404000     7.083300    -0.370300
C       6.527800     6.231000     1.068600
H       7.332200     6.679300     0.837800
C       6.512900     5.339700     2.131400
H       7.307800     5.175900     2.624600
C       5.309700     1.873300     2.782600
C       4.706800     0.725000     3.261000
H       4.282800     0.736900     4.110400
C       4.714900    -0.445600     2.512800
H       4.300200    -1.229500     2.851400
C       5.325200    -0.464400     1.280800
H       5.325200    -1.261800     0.763800
C       5.938400     0.668500     0.792200
H       6.369300     0.647000    -0.053200
C       5.926400     1.830900     1.529400
H       6.342400     2.612100     1.182700
C       6.855700     3.498000     4.601800
C       7.769200     2.455100     4.586700
H       7.579900     1.667100     4.089600
C       8.955700     2.557100     5.291500
H       9.569300     1.832200     5.293100
C       9.248000     3.696700     5.985400
H      10.070400     3.762500     6.457300
C       8.362800     4.751700     6.005300
H       8.575900     5.543700     6.482700
C       7.155800     4.652400     5.321600
H       6.536200     5.371900     5.346300
B       0.854100     3.591900     7.940400
