57
Refcode: POZKIA_comp_0 | Dataset: tmCAT | Charge: 1 | Potential Spins: [1, 3, 5]
Co     -7.013600    -0.050500    -3.190600
Cl     -7.790400    -1.160100    -1.353400
N      -6.416700     0.868600    -4.722700
N      -5.215100    -0.118400    -2.461800
N      -7.350600     1.730600    -2.548300
O      -6.361000     3.087100    -5.678800
N      -6.517700    -1.703300    -4.090400
C      -9.692000     0.603800    -4.224700
H      -9.577400     1.474200    -3.862700
N      -8.717600    -0.311500    -4.047100
C      -5.871900     0.032900    -5.665500
C      -5.952200    -1.336100    -5.403900
C      -8.887800    -1.546600    -4.563100
C      -4.629100    -1.322800    -2.611100
C      -4.521900     0.855700    -1.835300
H      -4.927000     1.708500    -1.731900
C      -2.657400    -0.576800    -1.498400
H      -1.782900    -0.732800    -1.162900
C      -7.970600     2.067600    -1.406800
H      -8.367200     1.387000    -0.876300
C      -6.782100     2.702100    -3.311500
C      -7.775700    -2.506100    -4.251300
H      -7.974600    -3.000800    -3.416400
H      -7.672000    -3.160600    -4.987200
C      -3.255900     0.665600    -1.343200
H      -2.797200     1.372200    -0.904400
C     -10.021300    -1.894300    -5.269500
H     -10.112700    -2.766100    -5.634500
C      -8.047200     3.375400    -0.987100
H      -8.502000     3.597200    -0.183200
C     -10.847100     0.314600    -4.914800
H     -11.517100     0.978000    -5.031600
C      -5.523600    -2.280200    -6.315700
H      -5.596600    -3.206200    -6.114700
C      -6.080200     2.237100    -4.575000
H      -5.095900     2.285400    -4.403500
C      -5.494200    -2.376300    -3.233200
H      -4.942600    -2.988800    -3.781400
H      -5.941100    -2.907500    -2.526900
C     -11.020500    -0.957100    -5.439400
H     -11.816200    -1.180900    -5.907800
C      -7.453500     4.363200    -1.748100
H      -7.481700     5.269200    -1.464400
C      -5.305300     0.440900    -6.886100
H      -5.212900     1.365600    -7.085600
C      -6.818400     4.016600    -2.924400
H      -6.410400     4.685000    -3.462200
C      -3.345900    -1.582000    -2.145600
H      -2.949800    -2.436400    -2.269700
C      -4.884700    -0.512700    -7.794900
H      -4.517800    -0.233600    -8.625300
C      -4.988200    -1.872600    -7.520000
H      -4.692200    -2.514400    -8.155400
C      -7.739100     3.034600    -6.131000
H      -8.337700     3.196800    -5.371400
H      -7.924500     2.149900    -6.509300
H      -7.885500     3.721200    -6.815100
