92
Refcode: PUHQIS_comp_0 | Dataset: tmCAT | Charge: unknown | Potential Spins: [1, 3, 5]
Fe      2.481500     9.512100     5.746800
S       4.476500     9.091100     3.038900
P       1.253800    10.007900     7.533600
P       4.144600     9.080400     7.187800
O       4.604000    10.518600     3.107300
O       3.828400     8.526200     1.876000
N       3.682400     8.627200     4.369600
C       2.393000    10.239600     8.969500
C       3.537700     9.233100     8.919200
C       0.272600    11.547400     7.606500
C      -0.193000    12.139700     6.448800
C      -0.956500    13.300200     6.532100
C      -1.248400    13.877100     7.744000
C      -0.798500    13.288200     8.872700
C      -0.043400    12.132800     8.839800
C       0.014500     8.769200     8.077000
C      -1.272500     8.824000     7.538800
C      -2.206100     7.836300     7.891100
C      -1.878000     6.843500     8.774000
C      -0.591000     6.771600     9.279200
C       0.347400     7.731900     8.936600
C       4.891000     7.406700     7.134200
C       6.106800     7.201300     6.481700
C       6.633900     5.895200     6.433300
C       5.966900     4.849400     7.002500
C       4.793300     5.042800     7.620100
C       4.232500     6.319700     7.707200
C       5.626800    10.171200     7.200000
C       5.783600    11.182800     6.263000
C       6.887200    12.033500     6.336500
C       7.797900    11.894900     7.306500
C       7.688100    10.864400     8.226100
C       6.597700     9.984600     8.195100
C       6.122500     8.416600     3.082100
C       7.165900     9.197200     3.502200
C       8.448000     8.664800     3.504200
C       8.686800     7.362200     3.078200
C       7.623000     6.603900     2.685200
C       6.316700     7.103700     2.679400
C      10.098100     6.793900     3.076300
C       3.192700     7.350200     4.522500
O       3.630600     6.306100     4.086900
C       2.005900     7.507700     5.401400
C       0.943200     8.346400     4.950400
C       1.078300     9.347800     4.011400
O      -0.031400    10.138600     3.782900
C       0.072400    10.989400     2.617500
C      -1.061400    12.014700     2.774300
C      -0.154400    10.150600     1.405500
C       2.697000    11.230700     5.345300
O       2.791100    12.331400     5.072300
H       0.072400     8.387500     5.401400
H       1.821300     9.397500     3.349300
H       0.928800    11.502900     2.458700
H      -1.954000    11.571400     2.691000
H      -0.916700    12.529900     3.639700
H      -0.868400    12.598400     1.994100
H       0.663400     9.534400     1.490700
H      -1.097600    10.493000     1.452000
H       0.084400    10.681300     0.580800
H       2.725900    11.160500     8.808800
H       1.845400    10.167700     9.796200
H       4.281900     9.483000     9.525100
H       3.136000     8.438900     9.312200
H       0.024100    11.708300     5.575700
H      -1.170000    13.728200     5.653100
H      -1.785100    14.669600     7.976300
H      -1.001100    13.608300     9.796200
H       0.301500    11.742500     9.699400
H      -1.278500     9.517300     6.795400
H      -2.979200     7.685700     7.260000
H      -2.472600     6.162300     9.176600
H      -0.410100     6.230700    10.125300
H       1.218200     7.856900     9.428300
H       6.513300     7.839800     5.827400
H       7.442100     5.837000     5.846700
H       6.368600     3.954100     6.911500
H       4.342200     4.433400     8.247400
H       3.485800     6.590200     8.305400
H       5.102100    11.194800     5.517600
H       6.983700    12.684000     5.556300
H       8.551700    12.547100     7.356800
H       8.141600    10.835300     9.099200
H       6.320300     9.192000     8.750700
H       6.887200    10.099300     3.872000
H       9.203100     9.209200     3.872000
H       7.731500     5.665900     2.342600
H       5.584600     6.504600     2.400600
H      10.578100     7.120800     2.265100
H      10.373100     6.504600     3.988200
H       9.842300     5.819900     3.078200
H       1.773100     6.829800     6.079000
