64
Refcode: PUHXEW_comp_0 | Dataset: tmCAT | Charge: unknown | Potential Spins: [1, 3, 5]
Ru     -1.272600     6.662700     5.314300
Cl      0.969600     5.979800     5.861000
O      -1.893500     5.173600     6.634400
O      -1.174400     5.253800     3.791800
C      -3.124300     7.775500     5.731500
C      -2.858700     7.737700     4.317300
H      -3.536500     7.428500     3.727700
C      -1.641800     8.139400     3.794100
H      -1.503900     8.094300     2.855700
C      -0.582200     8.624500     4.635300
C      -0.848900     8.653400     6.045900
H      -0.169500     8.951900     6.639100
C      -2.050600     8.264200     6.554900
H      -2.186500     8.317600     7.493300
C      -4.380100     7.259400     6.325900
H      -4.163900     6.917100     7.240600
C      -5.393200     8.444000     6.488500
H      -5.611200     8.810300     5.605800
H      -4.991200     9.145200     7.042500
H      -6.212200     8.118100     6.916700
C      -5.085400     6.124800     5.557100
H      -5.896400     5.859800     6.037600
H      -4.482000     5.355300     5.484800
H      -5.324700     6.437700     4.660200
C       0.742100     9.000400     4.084800
H       0.882400     9.963400     4.199900
H       0.775600     8.775900     3.132100
H       1.443800     8.509100     4.560500
C      -2.050600     3.921400     6.352000
C      -2.599700     3.106400     7.498100
C      -1.982100     1.921700     7.888400
H      -1.234000     1.598900     7.398400
C      -2.440900     1.213000     8.974000
H      -2.016800     0.403400     9.233800
C      -3.529600     1.691900     9.685800
H      -3.839800     1.212900    10.445100
C      -4.169100     2.856700     9.307400
H      -4.930400     3.162200     9.785500
C      -3.680500     3.581700     8.208700
H      -4.095100     4.398900     7.956000
C      -1.837400     3.338400     5.114600
C      -1.456500     4.050300     3.935300
C      -1.664900     3.107700     2.767900
C      -1.287800     1.747200     3.420400
C      -2.270400     1.942800     4.615100
H      -2.258300     1.217600     5.304400
C      -3.612600     2.157900     3.912800
H      -4.245300     2.653700     4.491700
H      -4.021800     1.296400     3.648200
C      -3.211100     2.996600     2.670600
H      -3.631900     3.892500     2.697900
H      -3.479900     2.540700     1.834200
C      -0.947700     3.528800     1.505500
H      -1.247800     4.423900     1.243400
H      -1.150300     2.893200     0.787800
H       0.018600     3.542600     1.666900
C      -1.632800     0.523500     2.559100
H      -1.401200    -0.294600     3.047900
H      -1.123900     0.558800     1.722700
H      -2.591800     0.524000     2.359800
C       0.184700     1.658500     3.835600
H       0.423600     2.449800     4.361200
H       0.747000     1.616400     3.034800
H       0.323400     0.852200     4.375500
