39
Refcode: PUTTED_comp_0 | Dataset: tmCAT | Charge: 0 | Potential Spins: [1, 3, 5]
Pd      6.881200     2.121500     0.580300
Cl      9.118200     2.574500     0.731700
S       6.811900     0.674900     2.295000
N       6.477700     3.327500    -1.040700
N       4.988900     1.738600     0.435000
N       4.307400     0.920600     1.300400
C       2.038200     3.329400    -0.802400
H       2.396400     4.184100    -0.733200
C       0.707800     3.169400    -0.979200
H       0.157500     3.918600    -0.986900
C       0.162800     1.954100    -1.143600
H      -0.752200     1.878800    -1.292700
C       0.933700     0.821800    -1.094500
H       0.552100    -0.017900    -1.212800
C       2.284600     0.952600    -0.867000
H       2.804100     0.184500    -0.808500
C       2.899900     2.184800    -0.724000
C       4.288800     2.389000    -0.514900
C       5.119300     3.213600    -1.366500
C       4.661800     3.871600    -2.510200
H       3.782200     3.752000    -2.788400
C       5.503800     4.701800    -3.240300
H       5.188000     5.203500    -3.956600
C       6.789400     4.747900    -2.868300
H       7.378700     5.275000    -3.360200
C       7.272600     4.044800    -1.786200
H       8.179400     4.082400    -1.583300
C       5.106600     0.360500     2.176600
C       4.492100    -0.554400     3.111200
C       5.167000    -1.093800     4.219500
H       6.059700    -0.866900     4.345500
C       4.576300    -1.936300     5.126400
H       5.037400    -2.188500     5.893500
C       3.332700    -2.398400     4.912800
H       2.946100    -3.006500     5.499900
C       2.644400    -1.954100     3.810600
H       1.784100    -2.272300     3.656900
C       3.177900    -1.074000     2.945200
H       2.671200    -0.796300     2.216600
