39
Refcode: PUVWEK_comp_0 | Dataset: tmCAT | Charge: 0 | Potential Spins: [1, 3, 5]
Zn      2.339700     3.079300     4.599300
O       1.727700     5.138100     6.538900
O       7.040900    -1.826200    14.001200
H       7.811000    -1.667800    14.109500
O       6.714300     0.309200    13.538500
O       7.078300    -4.990100    10.188500
O       6.046400    -4.448300     8.297200
O       3.298300     0.919500     6.778800
N       2.539300     3.044700     6.599000
N       2.443200     4.397500     8.538800
H       2.219200     5.155200     8.877600
N       3.939800     1.350500     9.534400
N       4.311600     0.201000     9.051200
H       4.109300    -0.010900     8.242200
C       2.222400     4.224900     7.186900
C       2.981500     3.482000     9.383900
C       3.334800     2.210900     8.746900
C       5.045300    -0.696400     9.849000
C       5.349100    -1.938700     9.310900
H       5.070900    -2.154900     8.449700
C       6.070200    -2.860800    10.060400
C       6.475500    -2.525600    11.342400
H       6.936400    -3.148100    11.857900
C       6.197400    -1.261400    11.865600
C       5.468900    -0.351600    11.121300
H       5.265200     0.484300    11.473000
C       6.687500    -0.894800    13.239700
C       6.431300    -4.201600     9.473600
C       3.055700     2.012600     7.320100
O       3.118700     3.737300    10.573700
O       3.638800     4.472500     3.859300
H       4.006900     4.152400     3.032700
H       4.346900     4.612100     4.492000
O       0.546900     3.616000     3.844200
H      -0.144400     3.109800     4.277100
H       0.403200     4.551900     3.998700
O       2.815400     1.266900     3.843300
H       2.927400     1.340800     2.892500
H       2.108900     0.645800     4.034200
