56
Refcode: QACWAV_comp_0 | Dataset: tmCAT | Charge: 1 | Potential Spins: [1, 3, 5]
Au     14.124900     9.862400     7.641300
Cl     15.324000     7.861300     7.818300
P      12.674800    11.609000     7.430100
N      13.084900     9.496300     9.481600
C      11.745000     9.676000     9.693700
C      11.236000     9.686800    10.987400
H      10.306200     9.816900    11.133600
C      12.088700     9.508400    12.061100
H      11.745500     9.524900    12.946400
C      13.436800     9.304800    11.847700
H      14.035000     9.162600    12.572300
C      13.886700     9.315600    10.536800
H      14.813800     9.186100    10.378700
C      15.196500    10.404300     6.003500
C      15.809300    11.661100     5.944300
H      15.785400    12.243400     6.693900
C      16.453700    12.047400     4.774400
H      16.845600    12.911200     4.720400
C      16.533000    11.195600     3.692800
H      16.977200    11.467100     2.898400
C      15.950900     9.926600     3.781000
H      16.004800     9.332200     3.042000
C      15.296100     9.529300     4.932500
H      14.915900     8.660000     4.989100
C      11.101400    10.728400     7.465900
C      10.822000     9.870800     8.540900
C       9.601500     9.198200     8.543600
H       9.393100     8.622600     9.270800
C       8.691300     9.343900     7.525200
H       7.866900     8.872200     7.551500
C       8.979300    10.179500     6.460700
H       8.361500    10.266800     5.744000
C      10.177300    10.893600     6.440900
H      10.362700    11.494000     5.728200
C      12.764200    12.667800     8.883500
C      13.923600    12.745400     9.656800
H      14.695700    12.251900     9.406500
C      13.947000    13.545900    10.793700
H      14.736800    13.598200    11.319400
C      12.823800    14.269500    11.160000
H      12.841800    14.811400    11.939900
C      11.666400    14.201400    10.385300
H      10.903700    14.711800    10.629100
C      11.623800    13.389100     9.260200
H      10.826400    13.322000     8.749100
C      12.795100    12.600500     5.946900
C      12.985600    13.986600     6.040400
H      12.933300    14.422000     6.882300
C      13.251400    14.718100     4.886400
H      13.383300    15.656800     4.943000
C      13.324000    14.096500     3.670400
H      13.521200    14.602800     2.891800
C      13.110800    12.721900     3.568900
H      13.154800    12.298400     2.720500
C      12.835500    11.977900     4.694000
H      12.673200    11.044300     4.618900
