51
Refcode: QAGWEA_comp_0 | Dataset: tmCAT | Charge: 0 | Potential Spins: [1, 3, 5]
Pt      4.315000     6.719000     9.070000
Cl      2.392000     5.536300     8.549200
Cl      3.833600     8.300500     7.443000
O       2.099700     9.112300    11.820000
N       3.467500     7.820900    10.533900
N       3.249200     9.162000    12.745200
C       2.352500     8.428300    10.688100
C       1.216000     8.492800     9.770200
C       2.747800     8.570800    13.998600
C       2.388800     7.116800    13.820900
C       3.506400    10.601200    12.893900
C       4.053500    11.189800    11.647700
H       3.900800     7.915000    11.192400
H       1.406700     8.076200     9.051900
H       1.078800     9.070700     9.523500
H       0.302100     8.062800    10.140300
H       3.555600     8.654100    14.639000
H       2.088500     8.949700    14.258000
H       2.330100     6.745900    14.766000
H       3.236300     6.732400    13.514300
H       1.544800     6.960900    13.060800
H       4.176900    10.642900    13.659400
H       2.761600    11.126700    13.278500
H       4.280500    12.040400    11.827300
H       3.357100    11.261000    10.865900
H       4.763800    10.763800    11.428200
Cl      6.238000     7.901700     9.590800
Cl      4.796400     5.137500    10.697000
N       5.162500     5.617100     7.606100
C       6.277500     5.009700     7.451900
O       6.530300     4.325700     6.320000
N       5.380800     4.276000     5.394800
C       5.882200     4.867200     4.141400
C       6.241200     6.321200     4.319100
H       6.299900     6.692100     3.374000
H       5.393800     6.705600     4.625700
H       7.085200     6.477100     5.079200
H       5.074400     4.783900     3.501000
H       6.541500     4.488300     3.882000
C       5.123600     2.836800     5.246100
C       4.576500     2.248200     6.492300
H       4.349500     1.397600     6.312700
H       5.272900     2.177000     7.274100
H       3.866200     2.674200     6.711800
H       4.453100     2.795100     4.480600
H       5.868400     2.311300     4.861500
C       7.414000     4.945200     8.369800
H       7.223300     5.361800     9.088100
H       7.551300     4.367400     8.616500
H       8.328000     5.375200     7.999700
H       4.729200     5.523000     6.947600
