99
Refcode: QAJPIB_comp_0 | Dataset: tmCAT | Charge: unknown | Potential Spins: [1, 3, 5]
Fe     -0.007900    12.777400     4.318600
H       0.584800    11.387500     4.353700
P      -0.752800    14.954300     4.066400
P       1.694800    12.966000     2.802100
P       1.267600    13.210700     6.193200
P      -1.563800    11.116200     4.292100
B       2.181500    15.421500     4.426500
C       3.197200    16.712500     4.414900
C       3.656800    17.354600     5.576400
H       3.403500    17.005300     6.422800
C       4.470500    18.485000     5.535500
H       4.754500    18.890000     6.346500
C       4.867500    19.019800     4.327100
H       5.438600    19.778800     4.297700
C       4.416100    18.427600     3.154600
H       4.659600    18.793600     2.313400
C       3.606400    17.297200     3.214300
H       3.317900    16.904600     2.398200
C       0.738700    15.999500     3.830500
H       0.850600    16.157100     2.859500
H       0.565200    16.878900     4.251900
C       2.839200    14.246700     3.440200
H       3.560100    13.790500     3.943300
H       3.260100    14.696500     2.664500
C       1.984200    14.883900     5.986800
H       1.404500    15.529600     6.463500
H       2.868800    14.897800     6.431300
C      -2.137300    16.855800     2.396300
H      -2.475300    17.003100     1.489100
H      -1.334400    17.399300     2.538900
H      -2.824400    17.112300     3.046100
C      -1.793100    15.389100     2.575900
H      -1.198500    15.184800     1.797800
C      -3.004700    14.484500     2.362200
H      -3.711000    14.728600     2.996900
H      -2.744500    13.550700     2.506700
H      -3.336000    14.593700     1.446700
C      -1.551700    17.167200     5.800900
H      -2.031200    17.615600     5.072800
H      -0.620000    17.470000     5.814000
H      -1.977900    17.386500     6.655200
C      -1.592000    15.655500     5.583600
H      -1.093300    15.268300     6.358400
C      -3.026400    15.143200     5.738700
H      -3.336200    15.311200     6.653500
H      -3.050900    14.180300     5.556200
H      -3.610400    15.611000     5.105000
C       4.122000    11.648600     1.858800
H       4.691400    10.871400     2.042000
H       4.551800    12.458400     2.206500
H       3.991100    11.736600     0.892100
C       2.758700    11.456700     2.545200
H       2.978700    11.136900     3.466700
C       1.996000    10.297800     1.900100
H       1.857900    10.488000     0.948100
H       1.126900    10.192400     2.340500
H       2.514200     9.470700     1.997900
C       2.313700    13.770400     0.066500
H       2.560300    12.886700    -0.279800
H       3.098900    14.193200     0.473200
H       1.985600    14.330200    -0.668200
C       1.213600    13.617300     1.121100
H       0.876600    14.544400     1.285600
C       0.021000    12.854400     0.537100
H      -0.306600    13.321500    -0.259500
H      -0.694300    12.805300     1.205900
H       0.301800    11.948700     0.291700
C       0.651200    14.379900     8.761000
H       0.112700    15.094800     8.363100
H       1.591200    14.655800     8.788800
H       0.336000    14.201700     9.672400
C       0.516100    13.112900     7.919900
H       1.030000    12.404800     8.403800
C      -0.932200    12.641100     7.898900
H      -1.276900    12.601900     8.815900
H      -0.980000    11.749500     7.494700
H      -1.472300    13.268000     7.372600
C       3.723700    12.567400     7.576500
H       3.247900    12.516200     8.432600
H       4.024600    13.488600     7.423500
H       4.500300    11.970100     7.598200
C       2.779100    12.139700     6.438600
H       3.309900    12.203500     5.593500
C       2.414700    10.661100     6.609200
H       3.231400    10.119600     6.594100
H       1.825600    10.383100     5.876700
H       1.954400    10.535100     7.465900
C      -3.239900    11.387700     4.992200
H      -3.776000    10.573700     4.882900
H      -3.674100    12.130700     4.523300
H      -3.165200    11.601700     5.946300
C      -1.128400     9.549300     5.126700
H      -0.954800     9.721300     6.075200
H      -0.325600     9.170800     4.711600
H      -1.870800     8.916000     5.040600
C      -2.014800    10.448800     2.640200
H      -2.653900     9.712700     2.747600
H      -1.209800    10.117500     2.191300
H      -2.422100    11.158400     2.101400
