123
Refcode: QAKLET_comp_0 | Dataset: tmCAT;tmPHOTO | Charge: 0 | Potential Spins: [1, 3, 5]
Ni      8.034400     0.946100    21.122900
N       6.151200     0.776200    20.997800
N       7.965000     2.741100    20.536500
N       9.897300     1.156200    21.373900
N       8.113800    -0.830500    21.779000
C       5.336400    -0.002700    21.815500
C       3.970700     0.323000    21.542200
C       2.779000    -0.339200    22.201900
H       2.006800     0.278200    22.178300
H       2.992400    -0.522400    23.151500
C       2.402000    -1.644700    21.510500
H       1.632200    -2.045000    21.965100
H       3.160500    -2.263500    21.546000
H       2.171900    -1.462800    20.575100
C       3.965500     1.262000    20.522600
C       2.781500     1.872700    19.828100
H       2.965100     2.830700    19.665900
H       1.994300     1.813000    20.426000
C       2.443700     1.202300    18.500800
H       1.668400     1.647400    18.098300
H       2.235300     0.257800    18.654700
H       3.210600     1.274200    17.894600
C       5.332500     1.510300    20.224000
C       5.909200     2.423600    19.179000
H       5.179700     3.024800    18.851300
C       6.427000     1.593100    17.975800
H       7.238200     1.099200    18.252200
H       5.738900     0.928200    17.724100
C       6.759100     2.442600    16.757500
H       7.450300     3.106200    17.004300
H       5.949500     2.936500    16.476200
C       7.268400     1.595800    15.581100
H       8.155400     1.222700    15.810800
H       6.648700     0.837300    15.436700
C       7.384300     2.393700    14.295300
H       7.741300     1.821100    13.584900
H       7.986500     3.153700    14.435000
H       6.498500     2.723500    14.034900
C       6.970500     3.274400    19.797000
C       7.058500     4.691100    19.776200
C       6.082500     5.604400    19.092800
H       5.759600     5.170200    18.264000
H       6.546100     6.440300    18.837100
C       4.892900     5.945000    19.969000
H       4.280600     6.529900    19.476400
H       5.204800     6.405000    20.776400
H       4.426400     5.121300    20.222300
C       8.137900     5.031800    20.575100
C       8.543600     6.490500    20.788300
H       7.762700     7.072700    20.605900
H       8.803000     6.619400    21.733100
C       9.698500     6.912600    19.893200
H       9.936600     7.844800    20.082600
H       9.433000     6.828400    18.953100
H      10.472300     6.337200    20.066000
C       8.741600     3.811800    21.021000
C       9.956100     3.590600    21.690500
C      10.641000     4.764400    22.332200
H      11.608300     4.722400    22.126200
H      10.285200     5.599000    21.936700
C      10.468000     4.821400    23.795600
H      10.838300     3.997700    24.200500
H       9.501900     4.858100    24.011000
C      11.163000     6.037300    24.404100
H      12.137100     5.947700    24.252600
H      10.860900     6.844700    23.918700
C      10.950300     6.232700    25.746800
H      11.473800     7.003500    26.049900
H      11.229900     5.433400    26.241700
H       9.998200     6.399600    25.905400
C      10.561900     2.315000    21.774800
C      11.949000     1.971700    22.030700
C      13.117600     2.842900    22.393700
H      13.803800     2.289300    22.846000
H      12.816500     3.533600    23.035500
C      13.754200     3.533600    21.174200
H      14.505700     4.088600    21.467900
H      13.083900     4.096800    20.731400
H      14.075500     2.855100    20.544400
C      12.076700     0.622900    21.745900
C      13.326700    -0.210300    21.721200
H      13.135200    -1.091000    22.128500
H      14.021100     0.233400    22.268200
C      13.863200    -0.420700    20.300500
H      14.680700    -0.959400    20.336000
H      14.063600     0.449200    19.893200
H      13.189200    -0.886100    19.760600
C      10.787200     0.153300    21.374100
C      10.399100    -1.229400    21.009900
H      11.149000    -1.840100    21.269000
C      10.157800    -1.384100    19.480000
H       9.375500    -0.834600    19.220700
H      10.945200    -1.036700    18.993400
C       9.911000    -2.822600    19.056300
H       9.117900    -3.167200    19.538000
H      10.688600    -3.373500    19.322500
C       9.686300    -2.978600    17.556500
H       8.926700    -2.406000    17.281300
H      10.491200    -2.667900    17.072900
C       9.393800    -4.418400    17.165300
H       9.240200    -4.470000    16.199200
H       8.595000    -4.730500    17.641300
H      10.157600    -4.982900    17.406800
C       9.183200    -1.624300    21.801300
C       8.976400    -2.776400    22.605000
C       9.972000    -3.845700    22.893400
H      10.472400    -4.052000    22.064600
H       9.491400    -4.668100    23.168100
C      10.960200    -3.461700    23.989700
H      11.587100    -4.199900    24.138900
H      10.473100    -3.274400    24.818500
H      11.457100    -2.662400    23.715100
C       7.681200    -2.655600    23.113400
C       6.972300    -3.620500    24.021500
H       6.220700    -3.148200    24.461000
H       7.601300    -3.908200    24.730900
C       6.432900    -4.845800    23.324300
H       5.977600    -5.418500    23.977900
H       7.172900    -5.341200    22.914700
H       5.797300    -4.574400    22.630500
C       7.131900    -1.468300    22.559300
C       5.829800    -1.023200    22.592900
H       5.230200    -1.450600    23.194100
