61
Refcode: QAPDUH_comp_0 | Dataset: tmCAT | Charge: 0 | Potential Spins: [1, 3, 5]
Ni      6.393200     9.078500    19.028800
O       5.706600     7.555600    18.250000
N       6.880100     9.832900    17.424300
C       9.177600    10.702000    17.666400
H       9.712200    11.520600    17.819800
H       9.330700    10.082200    18.422500
O       5.994700     8.261700    20.618100
N       6.936600    10.650100    19.816500
C       7.696400    11.054600    17.569700
H       7.544200    11.657700    16.787700
C       7.213700    11.736000    18.847700
H       7.928800    12.338200    19.203500
O       9.563000    10.090500    16.454200
O       6.242700    13.562600    17.700300
C       5.937400    12.528600    18.610900
H       5.234000    11.940100    18.236700
H       5.608500    12.910200    19.462200
C      10.946100     9.826000    16.421300
H      11.163600     9.327800    15.604900
H      11.195000     9.294500    17.204600
H      11.440600    10.672100    16.428600
C       5.086500    14.210400    17.220600
H       5.346300    14.937400    16.614400
H       4.581800    14.579900    17.975500
H       4.527600    13.566900    16.737500
C       6.652500     9.371800    16.230700
H       6.977400     9.878400    15.496900
C       5.950700     8.162100    15.938700
C       5.522900     7.318900    16.975300
C       4.843900     6.101000    16.659400
H       4.585700     5.515400    17.360300
C       4.563700     5.766400    15.373100
H       4.108400     4.951700    15.193100
C       4.619400     6.256700    12.956500
H       4.146100     5.451100    12.787300
C       4.983600     7.058700    11.910400
H       4.781900     6.804900    11.016900
C       5.656300     8.256400    12.167300
H       5.889500     8.826100    11.443800
C       5.988400     8.627100    13.454500
H       6.457000     9.439900    13.600900
C       5.641400     7.817200    14.555700
C       4.937300     6.612100    14.290800
C       6.982900    10.920200    21.086700
H       7.299300    11.780400    21.338100
C       6.599900    10.034200    22.136900
C       6.100600     8.748900    21.824300
C       5.631200     7.908600    22.882300
H       5.335300     7.027700    22.681600
C       5.599800     8.342400    24.159000
H       5.252100     7.770200    24.833800
C       6.006400    10.071500    25.868100
H       5.626500     9.503000    26.526300
C       6.481300    11.302600    26.231800
H       6.417000    11.595700    27.134100
C       7.060600    12.122500    25.262400
H       7.418600    12.965000    25.516800
C       7.125000    11.732900    23.941300
H       7.516700    12.315500    23.301900
C       6.618700    10.485600    23.524900
C       6.073900     9.633300    24.524900
