48
Refcode: QAPHEU_comp_0 | Dataset: tmCAT | Charge: unknown | Potential Spins: [1, 3, 5]
Zr     -0.578500     5.787100     3.431300
Cl     -0.138700     7.361400     5.213600
C       0.579000     3.641900     3.221700
C       0.761600     4.339400     2.004900
C       1.609800     5.432300     2.195400
C       2.024600     5.421600     3.543700
C       2.945000     6.278400     4.217800
C       3.213000     5.964400     5.503800
C       2.590700     4.890700     6.170900
C       1.670500     4.060200     5.594400
C       1.371700     4.316600     4.201400
C      -0.578500     2.685600     3.431300
C       3.567700     7.422900     3.484900
C       1.081000     2.900100     6.342500
H       0.371700     4.104500     1.194100
H       1.856900     6.054300     1.549600
H       3.834100     6.477400     5.967800
H       2.821000     4.737300     7.058900
H      -0.438100     2.123600     4.209500
H       4.075200     7.957400     4.099700
H       2.878300     7.961000     3.086800
H       4.146800     7.086100     2.798600
H       1.579900     2.752700     7.149500
H       1.118500     2.114000     5.794800
H       0.166900     3.094300     6.563400
Cl     -1.018300     7.361400     1.649100
C      -1.736100     3.641900     3.640900
C      -1.918600     4.339400     4.857800
C      -2.766800     5.432300     4.667300
H      -1.528700     4.104500     5.668500
C      -3.181600     5.421600     3.318900
C      -2.528700     4.316600     2.661200
C      -4.102000     6.278400     2.644900
C      -4.370100     5.964400     1.358800
C      -3.747700     4.890700     0.691800
C      -2.827500     4.060200     1.268200
C      -2.238000     2.900100     0.520200
H      -2.736900     2.752700    -0.286900
H      -2.275500     2.114000     1.067800
H      -1.323900     3.094300     0.299200
H      -3.978000     4.737300    -0.196300
H      -4.991100     6.477400     0.894900
C      -4.724700     7.422900     3.377800
H      -5.232200     7.957400     2.762900
H      -4.035400     7.961000     3.775800
H      -5.303900     7.086100     4.064100
H      -0.718900     2.123600     2.653100
H      -3.013900     6.054300     5.313100
