44
Refcode: QARQIL_comp_0 | Dataset: tmCAT | Charge: -2 | Potential Spins: [1, 3, 5]
C      -0.032300     0.434500    12.692800
C      -1.832900    -0.631900    13.509100
C      -1.882400    -0.713200    12.113800
C      -2.937500    -1.324800    11.456900
H      -2.963900    -1.380100    10.509300
C      -3.958900    -1.854000    12.242600
H      -4.698500    -2.279500    11.825500
C      -3.909300    -1.768300    13.622600
H      -4.617500    -2.145200    14.130200
C      -2.865500    -1.154400    14.287000
H      -2.851700    -1.090100    15.234700
C      -0.205800     0.463800    15.170900
H       0.685700     0.881300    14.994900
C      -1.042600     1.596800    15.737200
H      -1.066600     2.337000    15.095700
H      -0.647400     1.904800    16.578900
H      -1.954600     1.277400    15.903000
C       0.105400    -0.724500    16.012700
H      -0.726600    -1.184900    16.247300
H       0.561400    -0.434500    16.830200
H       0.687600    -1.335000    15.514000
C      -0.278400     0.079000    10.265700
H       0.610200     0.537100    10.287400
C      -0.072800    -1.268400     9.631800
H       0.536200    -1.801000    10.185400
H       0.312900    -1.154400     8.739100
H      -0.934400    -1.729900     9.559100
C      -1.233500     0.972700     9.473700
H      -2.138600     0.598100     9.513200
H      -0.939500     1.017900     8.540100
H      -1.235100     1.873200     9.860100
C       3.065600     3.029900    12.639200
C       3.800500     3.923600    12.810100
C       4.667400     5.048700    13.006500
C       6.067100     4.948300    13.393000
H       6.530300     4.129000    13.520500
C       6.683200     6.303500    13.566400
H       7.574800     6.481800    13.839400
C       4.277700     6.356600    12.899400
H       3.391200     6.617200    12.678800
N      -0.694700     0.076700    13.833000
N      -0.740800    -0.059800    11.664800
S       5.509900     7.457100    13.193500
Au      1.584600     1.653100    12.633600
