60
Refcode: QASSEL_comp_0 | Dataset: tmCAT | Charge: 1 | Potential Spins: [1, 3, 5]
C       8.760100     6.757600     7.139000
C       8.693600     7.268100     5.859000
C       7.700400     9.425300     4.874600
H       6.971600     9.090800     4.312100
H       8.498500     9.568800     4.324500
H       7.432100    10.272800     5.288200
C       7.713600     7.631800     9.290100
H       7.349400     8.511900     9.558900
H       8.539000     7.472500     9.813300
C       6.705400     6.558200     9.618900
H       7.083100     5.680700     9.362500
H       6.564900     6.548200    10.599200
C       5.369400     6.720900     8.944700
H       5.500400     6.714200     7.962300
H       4.986100     7.598500     9.192900
C       4.390000     5.628100     9.321100
H       4.732200     4.763100     9.015000
H       3.523900     5.805800     8.899200
H       4.280100     5.609800    10.295200
C       9.245400     6.578300     4.657200
C       8.181200     6.231200     3.642000
H       8.577400     5.699000     2.922300
H       7.802900     7.055400     3.269700
H       7.470900     5.714100     4.078400
C      10.429500     7.307300     4.030800
H      11.108200     7.475800     4.717400
H      10.126500     8.159900     3.654400
H      10.814500     6.754300     3.319400
C      11.352000     5.576400     8.717200
C      10.455400     4.668000     9.412100
C      10.512600     3.396700     8.740000
C      11.358700     3.520200     7.617000
C      11.857000     4.879900     7.585900
C      11.730900     6.947800     9.145300
H      12.559200     6.909400     9.668600
H      11.014600     7.328200     9.695400
H      11.869600     7.510000     8.355300
C       9.841400     4.899100    10.768800
H       8.957700     4.478700    10.804000
H       9.753100     5.861700    10.928100
H      10.416900     4.506200    11.457500
C       9.745100     2.168000     9.147400
H       8.789600     2.379100     9.190800
H      10.053600     1.866900    10.028400
H       9.893000     1.456500     8.489700
C      11.692500     2.434900     6.626300
H      12.536500     2.007000     6.882800
H      11.783400     2.825300     5.732900
H      10.976300     1.766800     6.620100
C      12.805200     5.394600     6.535300
H      13.717700     5.109300     6.752500
H      12.767000     6.373100     6.510500
H      12.550600     5.035900     5.660500
N       8.000600     8.440100     5.925200
N       7.576600     8.687900     7.146700
N       8.051300     7.671000     7.865600
O       9.755500     5.348700     5.255100
Cl      7.613600     3.957000     7.105300
Ir      9.724000     4.996400     7.451500
H       9.801200     4.554600     4.653300
