78
Refcode: QASWUC_comp_0 | Dataset: tmCAT | Charge: 1 | Potential Spins: [1, 3, 5]
Ru     15.710500     7.292400     3.204100
I      15.956300     5.150000     4.881400
C      17.770500     7.592100     2.306000
C      16.730700     8.098900     1.474600
C      15.869200     7.039000     1.021900
C      16.341900     5.912200     1.596000
C      17.507600     6.209900     2.381200
C      18.898500     8.386300     2.914000
C      19.119400     8.248200     4.378900
C      19.753600     6.900000     4.825600
C      21.038700     6.741400     4.046400
C      20.860100     6.874200     2.569400
C      20.259900     8.178200     2.128800
C      20.112200     6.855700     6.308700
C      20.191000     8.338900     0.572900
C      19.628700     9.730400     0.257300
C      21.634900     8.258500     0.032800
C      13.958300     7.506600     4.626500
C      13.529200     7.919700     3.329100
C      14.372000     9.037200     3.011100
C      15.306700     9.258700     4.076700
C      15.065100     8.326500     5.045300
C      12.385200     7.428400     2.491700
C      12.285800     5.900900     2.346000
C      11.797500     5.100600     3.489300
C      10.504300     5.734000     4.027000
C      10.616500     7.210000     4.243000
C      11.056200     7.966000     3.029300
C      11.612900     3.654400     3.183500
C      11.057300     9.520300     3.113100
C       9.730400    10.123900     3.694400
C      11.286300    10.193900     1.775600
H      16.619700     9.024900     1.247700
H      15.115700     7.116300     0.433300
H      15.957300     5.038800     1.495300
H      18.024600     5.571300     2.877600
H      18.588700     9.288500     2.807200
H      19.698900     8.958900     4.662900
H      18.269700     8.334800     4.817100
H      19.109500     6.206800     4.664200
H      21.398200     5.871000     4.229700
H      21.657000     7.412900     4.341300
H      21.723600     6.789800     2.157900
H      20.289500     6.163500     2.268400
H      20.839200     8.906400     2.366700
H      19.309500     6.901000     6.834200
H      20.679800     7.598300     6.524700
H      20.572100     6.034800     6.499200
H      19.637200     7.660100     0.179600
H      18.722300     9.787100     0.566800
H      19.652000     9.876700    -0.691800
H      20.159700    10.397900     0.696700
H      22.001300     7.393300     0.225700
H      22.171900     8.935300     0.451500
H      21.627700     8.398600    -0.917500
H      13.571100     6.792900     5.138700
H      14.317600     9.557400     2.205300
H      15.983900     9.939500     4.104700
H      15.550200     8.233800     5.868100
H      12.567500     7.768300     1.613000
H      13.166900     5.581600     2.136100
H      11.697800     5.725800     1.608100
H      12.476800     5.120100     4.166600
H      10.287100     5.318900     4.865600
H       9.799800     5.570200     3.397100
H      11.252700     7.365500     4.944500
H       9.756300     7.542700     4.511200
H      10.352200     7.792000     2.400700
H      11.276000     3.201200     3.960200
H      12.457100     3.272300     2.932200
H      10.990700     3.557600     2.460100
H      11.787100     9.698500     3.710200
H       9.527000     9.702600     4.531900
H       9.011700     9.970400     3.075500
H       9.840500    11.068400     3.827900
H      12.092300     9.853000     1.381200
H      11.368700    11.141500     1.904300
H      10.544300    10.013700     1.194300
