39
Refcode: QAWZOG_comp_0 | Dataset: tmCAT | Charge: unknown | Potential Spins: [1, 3, 5]
C       1.275100     4.199900     4.414300
C       0.184400     4.290900     5.304100
C       0.054200     5.466500     6.025700
H      -0.659500     5.544000     6.647200
C       0.934300     6.541600     5.871400
C       1.965300     6.417200     4.969000
H       2.561300     7.148300     4.855000
C       2.172300     5.266900     4.215500
C      -0.770400     3.146200     5.457000
H      -1.472800     3.391100     6.095200
H      -0.287900     2.360600     5.787900
H      -1.174300     2.939300     4.588100
C       0.763100     7.804400     6.668000
H       1.643500     8.167100     6.898800
H       0.265100     7.608100     7.489700
H       0.267700     8.462200     6.136900
C       3.321600     5.160000     3.245000
H       3.802600     6.012800     3.213000
H       2.976800     4.945600     2.352400
H       3.931200     4.451300     3.538400
C       1.825600    -0.855200     0.629800
H       2.262500    -0.305300    -0.068100
H       0.846000    -0.729400     0.560300
C       2.170000    -2.283400     0.442100
H       2.735900    -2.400500    -0.361500
H       1.349500    -2.825800     0.333700
C       2.920700    -2.703600     1.682300
H       2.338700    -3.229200     2.285700
H       3.713600    -3.247600     1.447300
C       3.333600    -1.405900     2.331600
H       3.374700    -1.500700     3.315900
H       4.219400    -1.111200     1.999300
Cl     -0.379800     0.985400     2.407200
Cl      2.082700     2.400200     0.799000
Cl      4.132600     1.566000     3.250400
Cl      1.613300     0.165800     4.842000
N       1.488700     3.009300     3.746900
O       2.286100    -0.457300     1.939500
W       1.826300     1.512400     2.944000
