78
Refcode: QAZLOV_comp_0 | Dataset: tmCAT | Charge: unknown | Potential Spins: [1, 3, 5]
Ni      4.652200     5.755100     4.118700
P       2.576400     5.058900     4.205000
P       5.092300     5.002300     6.087700
O       5.046900     6.465100     2.433900
C       6.080400     6.701300     3.240900
H       6.847600     6.161300     3.172300
C       6.359000     8.162500     3.589000
H       5.501600     8.640000     3.720600
H       6.868700     8.207900     4.436500
C       7.151600     8.842800     2.484000
C       8.527500     8.971200     2.587500
H       8.970900     8.647200     3.363400
C       9.261900     9.562200     1.580800
H      10.206300     9.632500     1.664000
C       8.636400    10.050500     0.456300
H       9.148700    10.471400    -0.223400
C       7.260100     9.932600     0.310200
H       6.825300    10.263400    -0.467500
C       6.525200     9.314300     1.336200
H       5.584100     9.216700     1.243600
C       1.974700     3.911400     2.836500
C       3.116300     2.907800     2.587900
H       3.955100     3.395200     2.447600
H       2.913800     2.372000     1.791900
H       3.208200     2.317700     3.364800
C       0.708000     3.107400     3.150200
H       0.790800     2.701000     4.038100
H       0.591700     2.404500     2.478400
H      -0.069800     3.704400     3.135500
C       1.788300     4.726600     1.547500
H       1.030000     5.336900     1.653800
H       1.617400     4.118400     0.798200
H       2.601900     5.244700     1.368600
C       1.321500     6.451100     4.442800
C       1.638300     7.576400     3.445700
H       2.588600     7.808300     3.507400
H       1.094800     8.363300     3.657400
H       1.434300     7.273200     2.535800
C       1.526900     7.013700     5.841800
H       1.328200     6.320400     6.504800
H       0.928300     7.777600     5.978500
H       2.456600     7.305700     5.943200
C      -0.145200     6.025200     4.324800
H      -0.352400     5.823200     3.388400
H      -0.723400     6.752500     4.636400
H      -0.298600     5.228400     4.873100
C       2.447800     4.018100     5.727000
H       1.535800     4.105700     6.102000
H       2.585600     3.068000     5.481700
C       3.476800     4.411500     6.810000
H       3.649400     3.628500     7.391200
H       3.092900     5.129000     7.373600
C       5.707100     6.205400     7.405800
C       4.894200     7.496800     7.225100
H       4.893500     7.752300     6.278400
H       5.298300     8.213300     7.755800
H       3.973100     7.347300     7.523500
C       7.183300     6.554700     7.153100
H       7.747000     5.794300     7.407400
H       7.430900     7.338300     7.688100
H       7.314200     6.754300     6.202000
C       5.535100     5.734700     8.867800
H       4.628200     5.383900     8.993500
H       5.678400     6.492200     9.472700
H       6.187800     5.031400     9.064100
C       6.206000     3.476400     6.088500
C       5.446900     2.371400     5.350800
H       4.644100     2.131500     5.858000
H       6.023500     1.583700     5.259700
H       5.188400     2.690200     4.461500
C       7.476300     3.776300     5.277300
H       7.225800     4.129200     4.398300
H       7.993100     2.952300     5.162700
H       8.019500     4.438400     5.753600
C       6.588600     2.945400     7.469100
H       7.192500     3.581400     7.907200
H       7.038800     2.080900     7.373600
H       5.780400     2.834800     8.013000
