47
Refcode: QEFSUP_comp_0 | Dataset: tmCAT | Charge: 0 | Potential Spins: [1, 3, 5]
Cr     13.149300     2.967900     3.057700
C      11.123300     3.758500     2.427000
C      12.115100     4.759800     2.243800
C      12.916600     5.115200     3.350100
H      13.560600     5.777700     3.240200
C      12.782700     4.516600     4.591800
H      13.302100     4.794000     5.310600
C      11.849500     3.488100     4.739800
H      11.776700     3.046500     5.555900
C      11.028100     3.115000     3.681400
H      10.407600     2.433600     3.801200
O      10.338200     3.469200     1.362900
C       9.543800     2.258900     1.386800
H       9.133700     2.137200     0.515800
H      10.131400     1.503200     1.544700
O       8.577800     2.257700     2.322700
C       7.588300     3.285000     2.132400
H       6.931300     3.228300     2.830100
H       7.161700     3.164500     1.281100
H       8.011300     4.145800     2.159200
C      12.410100     5.520200     0.961200
O      13.362000     6.241700     0.935800
N      11.601600     5.411600    -0.069100
H      10.930500     4.812900    -0.060600
C      11.834300     6.163800    -1.306500
H      12.795600     6.139000    -1.495400
C      11.113900     5.489500    -2.469300
H      11.387700     4.572100    -2.527100
H      11.333600     5.941800    -3.288100
H      10.165500     5.532000    -2.326900
C      10.091400     7.931400    -0.955600
H       9.469800     7.252500    -0.827300
C       9.688300     9.261000    -0.917500
H       8.795200     9.471200    -0.765300
C      10.619100    10.275300    -1.107800
H      10.348800    11.165600    -1.082400
C      11.953000     9.961200    -1.334700
H      12.575800    10.640200    -1.463000
C      12.357200     8.631600    -1.372800
H      13.250400     8.421500    -1.525000
C      11.426500     7.617300    -1.182500
C      13.042400     1.734600     1.702600
O      12.993000     0.942300     0.871000
C      13.809800     1.609400     4.108400
O      14.196400     0.754500     4.759500
C      14.847500     3.381800     2.508700
O      15.894600     3.690000     2.156400
