105
Refcode: QEFXIK_comp_0 | Dataset: tmCAT | Charge: 1 | Potential Spins: [1, 3, 5]
Mo      3.193200     9.342900     6.741400
S       2.343900     7.199800     7.099000
S       1.821400     9.814300     8.597800
S       2.128000    11.292200     5.912500
S       3.224200     8.817100     4.459700
S       4.921300    10.735800     7.673700
S       4.346900    13.463300     5.967700
P       5.295300     7.883300     6.714300
P       6.144200    14.479500     6.052500
F       0.337200     5.645700    10.010700
F       1.366200     4.831600     8.315600
F      -0.553700     5.713200     8.066600
F      -0.337900     9.803000    10.430000
F      -1.137900     7.861600     9.984400
F       0.482700     8.061600    11.384600
F       0.743600    12.100800     2.415800
F       2.328400    13.358000     3.173800
F       0.555900    13.018400     4.333700
F       3.001900    11.089100     1.402300
F       3.576000     9.065900     1.677500
F       1.513900     9.554900     1.518100
C       1.246900     7.189600     8.453200
C       0.968800     8.365000     9.086700
C       0.604600     5.869700     8.741600
C       0.002800     8.531200    10.200700
C       2.598700    10.152200     3.536400
C       2.089900    11.202400     4.180800
C       2.666200     9.964300     2.072900
C       1.431300    12.392200     3.521100
C       4.223500    12.194700     8.398600
C       3.925600    12.192300     9.772600
H       4.076600    11.397400    10.272800
C       3.427300    13.293000    10.416900
H       3.273500    13.276100    11.356200
C       3.158000    14.401000     9.700500
H       2.769700    15.147600    10.143900
C       3.424500    14.497300     8.350600
H       3.234900    15.294500     7.870000
C       3.979200    13.391800     7.717100
C       5.159500     6.385200     5.637700
C       5.489700     6.469500     4.276900
H       5.856800     7.271500     3.927400
C       5.284300     5.402500     3.451200
H       5.504800     5.482000     2.531600
C       4.780200     4.246300     3.903300
H       4.637800     3.518900     3.309200
C       4.474100     4.123500     5.235800
H       4.136200     3.299800     5.565600
C       4.648100     5.180900     6.100800
H       4.416100     5.086900     7.016000
C       6.838900     8.687800     6.096400
C       6.736500     9.540400     4.997700
H       5.878800     9.757200     4.652600
C       7.863800    10.075100     4.401400
H       7.790800    10.607400     3.617200
C       9.094400     9.827000     4.964900
H       9.873700    10.214800     4.584900
C       9.202000     9.022600     6.068000
H      10.060700     8.851600     6.435000
C       8.102900     8.463800     6.649000
H       8.195800     7.924300     7.424400
C       5.700900     7.216100     8.361500
C       4.997800     7.654500     9.510500
H       4.308400     8.302400     9.429600
C       5.316800     7.131800    10.749000
H       4.862000     7.449800    11.520000
C       6.279400     6.163600    10.886600
H       6.475300     5.799900    11.740600
C       6.961600     5.722800     9.766000
H       7.646700     5.070100     9.862100
C       6.663400     6.209300     8.527500
H       7.114000     5.860100     7.767400
C       7.326300    13.704900     7.206000
C       8.333400    12.895600     6.699300
H       8.385900    12.717400     5.768700
C       9.256400    12.356100     7.568600
H       9.939600    11.782800     7.238800
C       9.191300    12.642700     8.909800
H       9.852200    12.291000     9.495200
C       8.178900    13.437500     9.427400
H       8.131600    13.608500    10.360100
C       7.235000    13.977000     8.564600
H       6.535100    14.526200     8.901000
C       6.812300    14.360000     4.381700
C       6.197300    13.613400     3.379100
H       5.358100    13.194300     3.536400
C       6.818200    13.485700     2.151500
H       6.403800    12.984700     1.459100
C       8.040500    14.083000     1.933100
H       8.471500    13.967400     1.094300
C       8.635800    14.827300     2.878900
H       9.465600    15.253600     2.702000
C       8.028400    14.969400     4.119600
H       8.450100    15.487200     4.794500
C       5.907100    16.197800     6.546400
C       6.911000    16.864900     7.249700
H       7.742000    16.441000     7.428800
C       6.669800    18.153500     7.680000
H       7.347800    18.623200     8.149600
C       5.478000    18.755700     7.437500
H       5.312300    19.630000     7.771700
C       4.511800    18.107800     6.712400
H       3.682900    18.534100     6.531100
C       4.752000    16.843300     6.253700
H       4.096200    16.409700     5.720700
