93
Refcode: QEHTAB_comp_0 | Dataset: tmCAT;tmPHOTO | Charge: 0 | Potential Spins: [1, 3, 5]
Pd      5.285300    12.237100     8.070500
Cl      7.002500    12.838800     9.428500
Cl      6.696200    11.355300     6.518300
N       3.612900    11.865100     6.930000
N       3.866200    12.708200     9.474800
C       2.546900    11.924600     7.662700
C       2.693800    12.321400     9.082100
C       3.452100    11.434600     5.568400
C       3.399900    10.075700     5.441300
H       3.608500     9.532400     6.167600
C       3.998300    13.095100    10.872700
C       3.035300     9.502400     4.223300
H       3.021300     8.577000     4.130200
C       1.360600    12.257900     9.704200
C       3.656900    14.513500    12.724400
H       3.501000    15.362100    13.070100
C       2.856800    11.670700     3.297500
H       2.700500    12.208900     2.556200
C       4.188300    12.063500    11.727600
H       4.388900    11.221100    11.387700
C       2.690400    10.315800     3.144000
C       3.772500    14.392500    11.341400
C       3.243900    12.297600     4.482400
C       1.098000    11.676600     7.426700
C       0.489800    11.898800     8.684300
C       0.346500    11.345400     6.337500
H       0.739900    11.212500     5.504800
C       2.187200     9.679000     1.836900
C       0.876300    12.478100    10.983300
H       1.447700    12.716900    11.677600
C      -1.377900    12.007900    10.194400
H      -2.288000    11.950100    10.374700
C       3.757000    13.472000    13.617300
C      -0.503700    12.333300    11.201100
H      -0.837500    12.462800    12.058600
C       3.417100    13.835000     4.533600
C       3.613400    15.648200    10.451900
C      -1.658800    11.434600     7.730400
H      -2.584800    11.373100     7.795200
C       4.089300    12.236100    13.107300
H       4.247700    11.521700    13.680700
C      -1.047800    11.208500     6.512400
H      -1.570300    10.959000     5.785100
C      -0.901500    11.756000     8.880700
C       3.481800    13.702100    15.119100
C       1.068900     8.706900     2.145500
H       1.374800     8.058200     2.783600
H       0.800900     8.260000     1.338800
H       0.320100     9.185100     2.509600
C       3.615100    12.426500    15.932800
H       3.032200    11.755200    15.571000
H       3.374400    12.602700    16.844700
H       4.522800    12.117600    15.894200
C       1.665100    10.728400     0.831800
H       0.894400    11.167900     1.199000
H       1.422900    10.292600     0.010600
H       2.351200    11.376800     0.658900
C       3.349100     8.917200     1.183300
H       4.070600     9.524400     1.004500
H       3.050800     8.523300     0.359900
H       3.652500     8.225700     1.776600
C       4.795100    14.192100     5.178900
H       4.794500    13.928900     6.101900
H       4.943400    15.137900     5.115200
H       5.495800    13.726600     4.714500
C       4.514600    14.690000    15.675300
H       5.392100    14.308500    15.606300
H       4.317100    14.875100    16.596700
H       4.479500    15.506600    15.171100
C       2.168200    15.711700     9.945200
H       2.003300    14.975000     9.352300
H       2.030200    16.537700     9.474100
H       1.564400    15.664500    10.690000
C       2.094300    14.253600    15.312200
H       2.045000    15.134600    14.935400
H       1.892900    14.293900    16.249800
H       1.459200    13.681800    14.873200
C       4.558200    15.624400     9.228900
H       5.332300    15.094200     9.432400
H       4.831800    16.521200     9.019100
H       4.099200    15.246000     8.476300
C       2.317800    14.457900     5.376900
H       1.468800    14.310300     4.954900
H       2.475000    15.401000     5.460400
H       2.317000    14.054900     6.248300
C       3.448900    14.442100     3.157200
H       4.155300    14.039000     2.645900
H       3.603400    15.386500     3.226600
H       2.609000    14.286200     2.718700
C       3.907700    16.913900    11.204400
H       3.238800    17.047000    11.880000
H       3.902500    17.655700    10.596800
H       4.771400    16.844900    11.619100
