93
Refcode: QEJWUA_comp_0 | Dataset: tmCAT | Charge: unknown | Potential Spins: [1, 3, 5]
C      25.304500     4.091600     4.033000
C      24.973500     6.048900     5.207600
C      24.910700     5.007300     6.067300
C      23.986200     7.872600     6.473800
H      23.206700     7.290700     6.585800
H      23.687800     8.793100     6.321600
H      24.539200     7.837200     7.281400
C      25.887900     8.317800     5.028800
H      26.560000     8.250700     5.738100
H      25.562500     9.241300     4.974000
H      26.289900     8.062400     4.171900
C      25.378300     6.200000     2.724000
C      24.271600     6.885900     2.205700
C      24.472700     7.613900     1.033800
H      23.740500     8.078800     0.644300
C      25.707100     7.675700     0.428000
H      25.819000     8.181100    -0.368700
C      26.788800     7.000100     0.979600
H      27.636600     7.053300     0.553100
C      26.658100     6.246900     2.141500
C      22.883200     6.905700     2.845300
H      22.929500     6.394200     3.704400
C      21.808100     6.251000     1.959600
H      21.921900     6.549800     1.034000
H      20.920000     6.510900     2.278900
H      21.898300     5.276700     2.001400
C      22.476900     8.349100     3.172400
H      23.168400     8.766500     3.727200
H      21.626500     8.346900     3.658800
H      22.377400     8.856500     2.339700
C      27.852800     5.486100     2.722500
H      27.570000     4.533700     2.830100
C      28.287700     5.982400     4.102600
H      28.533700     6.928500     4.046500
H      29.060100     5.462900     4.407600
H      27.548700     5.874300     4.736400
C      29.065900     5.491800     1.795000
H      28.800500     5.172300     0.906600
H      29.758200     4.902100     2.159100
H      29.417800     6.404500     1.722000
C      25.088400     2.503000     5.958200
C      23.901900     1.770100     5.896400
C      23.858800     0.544700     6.563900
H      23.069500     0.016400     6.526900
C      24.949700     0.091900     7.275500
H      24.895000    -0.728700     7.750900
C      26.108700     0.817300     7.301800
H      26.851000     0.483000     7.792700
C      26.233000     2.032900     6.628000
C      22.690500     2.260900     5.131200
H      23.009700     2.853300     4.392400
C      21.909800     1.078700     4.497000
H      21.386700     0.624300     5.188800
H      22.545200     0.446200     4.095900
H      21.308000     1.420500     3.803200
C      21.775300     3.041600     5.977600
H      21.419800     2.470500     6.690300
H      21.034600     3.381300     5.432100
H      22.259000     3.794800     6.374800
C      27.565400     2.771600     6.631000
H      27.575300     3.401800     5.854000
C      27.763100     3.590100     7.910500
H      27.028800     4.234800     8.003700
H      28.615300     4.071100     7.863000
H      27.769900     2.990400     8.686000
C      28.765800     1.822100     6.492600
H      28.842500     1.271100     7.300400
H      29.585700     2.345600     6.376700
H      28.635100     1.242400     5.713400
C      24.220600     3.643700     1.075800
C      24.155000     2.253300     0.891200
C      25.277700     1.489300     0.652300
C      25.262200     0.014900     0.704400
C      26.033700    -0.712100    -0.198000
H      26.593200    -0.251800    -0.813500
C      26.000300    -2.089800    -0.213800
H      26.539300    -2.568700    -0.832500
C      25.185100    -2.776300     0.667500
H      25.149600    -3.725200     0.644300
C      24.423800    -2.076500     1.582100
H      23.867300    -2.544200     2.195300
C      24.473000    -0.688500     1.604700
H      23.958600    -0.212900     2.246600
N      25.214400     5.452100     3.954100
N      25.118900     3.821800     5.346400
N      24.769000     7.421300     5.329400
Cl     27.330800     1.538200     3.313400
Cl     24.514500     4.961500     7.728600
Pd     25.472200     2.724900     2.500900
H      24.865400     4.183700     0.591100
H      23.405800     3.839800     1.562300
H      23.418700     1.897400     1.410300
H      25.976300     1.926000     0.140600
