130
Refcode: QEKPIF_comp_0 | Dataset: tmCAT | Charge: 1 | Potential Spins: [1, 3, 5]
Ru      6.975000     6.845100     9.091900
P       7.851600     9.069600     9.101000
P       8.787200     6.450100     7.762500
P       5.944200     4.611900     9.278600
P       5.483300     7.039100     7.330000
Cl      7.474000     6.652800    11.432100
C       8.700600     9.277500     7.480300
C       9.570300     8.059500     7.302700
C       4.712400     4.523500     7.972000
C       5.076200     5.304900     6.692600
C       6.787900    10.568200     9.337800
C       6.775800    11.566100     8.372600
C       5.926800    12.666200     8.531900
C       5.258100    12.948600     9.638300
C       5.285800    11.973200    10.653600
C       6.041200    10.758800    10.530600
C       6.032500     9.831900    11.568700
C       5.258100    10.074400    12.702300
C       4.490600    11.288900    12.848000
C       4.558200    12.186300    11.828200
C       9.303500     9.412600    10.248400
C       9.610100    10.706800    10.603500
C      10.777800    10.956300    11.350100
C      11.580000     9.958400    11.759900
C      11.243900     8.603500    11.445700
C      10.081400     8.423400    10.694500
C      10.218200     5.564800     8.586600
C      10.024200     5.046700     9.802200
C      11.096600     4.558200    10.649000
C      12.394200     4.698500    10.157300
C      12.638500     5.161100     8.882500
C      11.552200     5.589000     8.017500
C      11.803500     5.952800     6.660700
C      13.201600     5.918200     6.210000
C      14.203000     5.523200     7.079600
C      13.970800     5.164600     8.322500
C       8.610500     5.608100     6.182700
C       8.768100     4.215100     6.105300
C       8.626100     3.517000     4.876000
C       8.367900     4.227300     3.751500
C       8.262200     5.582100     3.774300
C       8.355800     6.254300     5.012600
C       6.950700     3.063000     9.101000
C       6.914400     2.373500     7.876300
C       7.690500     1.226600     7.639600
C       8.468400     0.743200     8.604800
C       8.565400     1.351300     9.906900
C       7.735600     2.550200    10.189200
C       7.846400     3.016300    11.459400
C       8.577600     2.489600    12.451900
C       9.384900     1.391200    12.210600
C       9.365800     0.791700    10.995000
C       4.897700     4.249800    10.776500
C       4.336400     3.014500    10.935800
C       3.452900     2.733900    11.923800
C       3.061300     3.716200    12.766100
C       3.473600     4.975700    12.611300
C       4.424800     5.296200    11.577800
C       3.899800     7.603900     8.158600
C       4.059200     7.927900     9.474400
C       2.910600     8.295200    10.293900
C       1.671900     8.296900     9.720200
C       1.489900     7.900200     8.381700
C       2.602200     7.579600     7.544000
C       2.396000     7.347500     6.210000
C       1.100100     7.409900     5.668200
C       0.022500     7.668000     6.496800
C       0.240800     7.933100     7.808100
C       5.542200     8.063000     5.841200
C       5.509300     9.466300     5.982400
C       5.615000    10.332600     4.803200
C       5.637500     9.778200     3.610400
C       5.646200     8.437200     3.410000
C       5.566500     7.538100     4.557400
H       8.050900     9.338100     6.760900
H       9.239400    10.083100     7.480300
H      10.370700     8.173900     7.839900
H       9.845700     8.011000     6.373900
H       4.577200     3.593200     7.735200
H       3.872100     4.864800     8.313400
H       4.327800     5.329100     6.078000
H       5.840200     4.909900     6.251000
H       7.328400    11.502000     7.625900
H       5.824600    13.241400     7.808100
H       4.795500    13.749000     9.738400
H       6.538400     9.054000    11.504900
H       5.237300     9.440300    13.380700
H       3.972600    11.450000    13.603800
H       4.093900    12.986700    11.919200
H       9.052300    11.408400    10.357600
H      10.999600    11.834600    11.564100
H      12.350900    10.147200    12.247000
H      11.767100     7.888000    11.728000
H       9.831900     7.551900    10.489700
H       9.152700     4.996500    10.125400
H      10.926800     4.171800    11.477600
H      13.113200     4.475000    10.703600
H      11.113900     6.198800     6.087100
H      13.414700     6.164200     5.340400
H      15.081300     5.511100     6.770000
H      14.684600     4.904700     8.859700
H       8.969100     3.737000     6.879300
H       8.709200     2.590100     4.844200
H       8.258800     3.778600     2.945700
H       8.128800     6.058500     2.986600
H       8.239700     7.177700     5.030800
H       6.358200     2.685400     7.202500
H       7.659300     0.805600     6.811000
H       8.970800    -0.019100     8.431800
H       7.364800     3.785500    11.659700
H       8.541200     2.862100    13.303300
H       9.939300     1.063700    12.884400
H       9.866500     0.020800    10.849300
H       4.570300     2.340600    10.339400
H       3.118500     1.871100    12.019400
H       2.491300     3.508300    13.471700
H       3.147900     5.644500    13.166700
H       4.715800     6.171100    11.450300
H       4.909900     7.915700     9.847700
H       3.019700     8.522100    11.190800
H       0.935500     8.562000    10.225600
H       3.116700     7.148300     5.654600
H       0.966700     7.278200     4.757700
H      -0.843700     7.661100     6.155400
H      -0.488600     8.146200     8.345300
H       5.422700     9.844000     6.829200
H       5.663500    11.256000     4.894300
H       5.651400    10.336000     2.863700
H       5.701600     8.090700     2.549600
H       5.533600     6.616400     4.429900
