67
Refcode: QEMTEH_comp_0 | Dataset: tmCAT | Charge: 0 | Potential Spins: [1, 3, 5]
Rh     -0.486800    -4.322100     2.970600
P      -0.545300    -2.143800     3.721000
C       1.083700    -4.835600     4.205400
C       0.819600    -5.268800     5.513200
C       1.850100    -5.659400     6.374000
C       3.171000    -5.602000     5.952700
C       3.456100    -5.198500     4.669100
C       2.437400    -4.817100     3.787100
C      -0.596900    -5.292900     6.026900
C       2.834700    -4.363500     2.406500
C      -0.244500    -5.950100     1.594300
C      -1.096500    -6.353700     2.530800
C      -2.504000    -6.026000     2.018600
C      -2.325800    -6.262900     0.525900
C      -1.099700    -5.355800     0.465200
C      -1.625300    -4.121000     1.106300
C      -2.494900    -4.509800     2.074600
C       0.037900    -1.708700     5.401100
C       1.374800    -1.942000     5.711700
C       1.871400    -1.627300     6.962000
C       1.049600    -1.131100     7.937900
C      -0.270100    -0.896000     7.651500
C      -0.781800    -1.188500     6.396700
C       0.449200    -1.014500     2.682300
C       0.877400    -1.445900     1.436600
C       1.659400    -0.636800     0.627400
C       2.015900     0.622000     1.054800
C       1.598000     1.070100     2.291400
C       0.820200     0.261000     3.099100
C      -2.236400    -1.434800     3.702200
C      -3.242400    -2.160500     4.341800
C      -4.543800    -1.692100     4.363000
C      -4.866500    -0.507300     3.749200
C      -3.878700     0.246200     3.126400
C      -2.569800    -0.227700     3.099100
H       1.644800    -5.966700     7.248400
H       3.873400    -5.837100     6.546700
H       4.359600    -5.178100     4.376600
H      -0.825400    -6.177800     6.286100
H      -1.187800    -5.000400     5.342000
H      -0.671700    -4.713400     6.777100
H       3.300900    -5.063300     1.964000
H       2.056600    -4.139500     1.909500
H       3.398500    -3.600800     2.473200
H       0.591800    -6.375900     1.439700
H      -0.916200    -7.083100     3.111200
H      -3.230100    -6.470300     2.441400
H      -2.141300    -7.168200     0.303100
H      -3.054800    -5.950100     0.001500
H      -0.681000    -5.255800    -0.381900
H      -1.708900    -3.297200     0.642600
H      -3.242300    -3.991400     2.348900
H       1.950900    -2.319700     5.058600
H       2.795000    -1.755000     7.146900
H       1.390400    -0.951600     8.806300
H      -0.839600    -0.531300     8.318300
H      -1.701900    -1.033000     6.216400
H       0.631200    -2.312300     1.132000
H       1.948800    -0.951600    -0.221300
H       2.547700     1.181100     0.500100
H       1.844900     1.936500     2.589900
H       0.535700     0.577600     3.947700
H      -3.031200    -2.984300     4.766100
H      -5.218700    -2.193800     4.805500
H      -5.765200    -0.199900     3.750700
H      -4.095100     1.077500     2.720200
H      -1.896100     0.281400     2.664200
