56
Refcode: QENMEE_comp_0 | Dataset: tmCAT | Charge: 1 | Potential Spins: [1, 3, 5]
Ru     23.116100     2.731700     5.350400
Cl     23.573300     2.335400     3.029700
N      26.004300     4.211300     4.765300
H      25.748500     3.390900     4.574700
C      23.324900     2.837300     7.530300
H      23.300100     3.588300     8.111500
N      21.369100     3.754200     4.715500
N      23.764900     4.700900     5.072600
N      20.151700     1.840200     4.168000
H      20.908500     1.391000     4.191400
C      24.561900     2.412600     6.973300
H      25.353700     2.885400     7.201200
C      25.935800     0.902600     5.427300
H      25.804700     0.876300     4.456900
H      26.198800     0.013300     5.745700
H      26.641500     1.547900     5.644300
C      20.762800     2.582200     7.738800
H      20.150000     2.602400     6.949500
C      20.210300     3.154600     4.305500
C      22.141600     2.148400     7.221400
C      23.034000     6.947700     5.452600
H      22.331300     7.583800     5.505400
C      24.654800     1.317000     6.097200
C      25.065500     5.104900     5.084400
C      20.220100     1.543600     8.688400
H      20.237100     0.665200     8.255600
H      19.298400     1.772100     8.929900
H      20.773400     1.520200     9.497500
C      19.076000     3.982100     4.040900
H      18.253400     3.592600     3.770800
C      20.745700     3.976900     8.346400
H      21.278300     3.982500     9.168400
H      19.821500     4.230800     8.554200
H      21.123400     4.616600     7.707300
C      20.347200     5.915600     4.546500
H      20.412100     6.861000     4.620200
C      23.449600     0.590500     5.824700
H      23.480000    -0.172600     5.259600
C      19.181100     5.309500     4.176700
H      18.416900     5.848800     4.009700
C      25.378400     6.440000     5.470800
H      26.279300     6.717100     5.584400
C      27.427100     4.511800     4.713900
H      27.582600     5.250400     4.088700
H      27.918600     3.719600     4.412700
H      27.739000     4.769600     5.607100
C      22.237000     0.989400     6.378500
H      21.454500     0.483600     6.194200
C      21.440000     5.093200     4.811100
C      22.772400     5.638400     5.152400
C      18.900000     1.076100     3.977700
H      18.487100     1.333700     3.127300
H      18.283700     1.271700     4.713500
H      19.102100     0.117300     3.965900
C      24.334500     7.319300     5.674600
H      24.521800     8.200900     5.975900
