28
Refcode: QETDIF_comp_0 | Dataset: tmCAT | Charge: -2 | Potential Spins: [1, 3, 5]
Ag     -1.573000     1.528300     7.414900
Se      2.082200     2.667600     4.663100
Cl     -2.306800    -0.536300     8.291200
N      -1.141200     4.605900     7.562600
N      -0.277300     3.819900     5.775100
C      -1.841300     4.703800     8.846200
H      -2.165600     5.619600     8.973200
H      -1.225800     4.472000     9.572100
H      -2.601600     4.084600     8.851800
C      -0.592200     5.678000     6.879700
H      -0.600600     6.587500     7.153200
C      -0.047700     5.188300     5.763000
H       0.407700     5.680700     5.090700
C      -0.953700     3.447500     6.887100
C       0.144200     2.903700     4.734000
H      -0.171800     3.243400     3.859500
H      -0.282600     2.023000     4.887600
C       2.240000     1.864800     6.397200
C       2.980100     2.507400     7.379300
H       3.391200     3.344100     7.195400
C       3.119100     1.920500     8.630900
H       3.641400     2.350100     9.297600
C       2.504500     0.719900     8.911900
H       2.595300     0.328900     9.773900
C       1.754500     0.082700     7.934900
H       1.326900    -0.743200     8.129000
C       1.627600     0.648000     6.678100
H       1.122800     0.204000     6.007700
