109
Refcode: QEWGUU_comp_0 | Dataset: tmCAT | Charge: unknown | Potential Spins: [1, 3, 5]
Rh      5.465500     9.519000     4.766300
P       3.146700     9.473900     5.213900
P       6.597000    10.238800     6.667900
P       6.150600     9.539600     2.589400
O       6.042700     6.604100     5.366200
O       4.418400     8.733400     7.690800
C       5.831700     7.692200     5.112000
C       2.590100     8.152700     6.383200
C       1.419500     7.363300     6.226200
C       1.156400     6.335300     7.134300
C       2.047300     6.015800     8.173500
C       1.847400     4.976500     9.137800
C       2.797500     4.728500    10.104400
C       3.985100     5.420100    10.170000
C       4.219900     6.451800     9.270200
C       3.221300     6.763800     8.313000
C       3.396300     7.870800     7.445900
C       6.710400     8.989000     8.028200
C       7.855600     8.615000     8.723000
C       7.834300     7.547500     9.607600
C       6.686300     6.848400     9.831400
C       5.495800     7.177300     9.181200
C       5.559700     8.278600     8.309400
C       5.947500    11.710300     7.551400
C       5.565900    11.682100     8.876500
C       5.073300    12.822900     9.492800
C       5.006600    14.003100     8.812100
C       5.388200    14.046300     7.485800
C       5.835900    12.903700     6.854200
C       8.377700    10.644700     6.512100
C       9.015000    11.618200     7.287700
C      10.375300    11.824900     7.128400
C      11.101100    11.050600     6.241500
C      10.484200    10.094000     5.513800
C       9.130800     9.913600     5.634500
C       2.390500    10.986700     5.940300
C       1.607000    10.962300     7.086200
C       1.066500    12.135000     7.591200
C       1.306100    13.335900     6.966700
C       2.056900    13.371600     5.816100
C       2.614400    12.202700     5.328700
C       2.035900     9.135600     3.785600
C       0.900600     9.868500     3.472800
C       0.158700     9.558400     2.334000
C       0.554400     8.519100     1.515000
C       1.675000     7.786200     1.820800
C       2.415100     8.100000     2.943200
C       4.863100     9.842200     1.309900
C       3.920900    10.836400     1.575900
C       2.992700    11.199100     0.628000
C       2.956900    10.563900    -0.603400
C       3.860500     9.565900    -0.855300
C       4.814200     9.207000     0.087900
C       7.380200    10.810100     2.030500
C       7.930400    11.680200     2.935000
C       8.836200    12.651900     2.529600
C       9.137400    12.774000     1.189200
C       8.597700    11.926400     0.276500
C       7.702300    10.947300     0.677200
C       6.911200     7.962800     2.038700
C       6.125700     6.825800     1.987100
C       6.682400     5.576100     1.731700
C       8.010500     5.453900     1.556000
C       8.814800     6.559000     1.584100
C       8.282900     7.835100     1.851200
H       5.262900    11.088200     4.440600
H       0.819900     7.534400     5.509200
H       0.352300     5.839200     7.047600
H       1.053200     4.454100     9.112000
H       2.627700     4.053800    10.751200
H       4.635800     5.194600    10.823800
H       8.662500     9.098000     8.589500
H       8.628600     7.299400    10.062200
H       6.698000     6.123000    10.443000
H       5.641400    10.874000     9.371000
H       4.780000    12.781500    10.396200
H       4.702300    14.790600     9.247900
H       5.344900    14.865700     7.006500
H       6.066600    12.933800     5.934500
H       8.521900    12.133100     7.915800
H      10.812700    12.501500     7.631000
H      12.035400    11.191600     6.143000
H      10.988500     9.549000     4.918600
H       8.702800     9.259600     5.094400
H       1.439400    10.137300     7.526800
H       0.525600    12.106800     8.371500
H       0.954600    14.140300     7.331100
H       2.192500    14.192900     5.358000
H       3.162600    12.238400     4.554300
H       0.628400    10.584600     4.035200
H      -0.619200    10.062100     2.121900
H       0.048900     8.308700     0.738100
H       1.942000     7.066400     1.260700
H       3.196100     7.598300     3.142400
H       3.921600    11.266800     2.421800
H       2.370600    11.888800     0.820200
H       2.319000    10.817600    -1.259500
H       3.833900     9.113000    -1.689500
H       5.436600     8.517300    -0.110100
H       7.692300    11.618200     3.851300
H       9.244400    13.225100     3.168200
H       9.728500    13.458100     0.901000
H       8.835900    12.005400    -0.639700
H       7.307000    10.370300     0.034000
H       5.186900     6.899100     2.126600
H       6.124900     4.809300     1.682500
H       8.389800     4.596900     1.409500
H       9.747000     6.463100     1.423600
H       8.850600     8.594300     1.900400
