90
Refcode: QIBCAH_comp_0 | Dataset: tmCAT | Charge: 0 | Potential Spins: [1, 3, 5]
Pd     -4.280200    37.885100    12.689500
F       1.829900    33.264800    16.194800
F       2.794500    40.780800    15.819900
C      -5.151400    39.191900    11.363000
H      -4.475400    39.812700    11.024800
H      -5.859300    39.695500    11.818500
H      -5.538800    38.689100    10.616600
C      -2.174800    40.052800    12.265200
C      -2.607900    41.104100    13.111400
C      -2.253600    41.802500    15.499300
H      -1.291900    41.680100    15.360900
H      -2.483600    41.570900    16.424300
H      -2.492500    42.739100    15.331100
C      -3.024500    40.899200    14.541000
H      -2.788500    39.958200    14.779200
C      -4.513200    41.031800    14.717900
H      -4.970700    40.435200    14.089000
H      -4.781200    41.959000    14.544500
H      -4.756500    40.786800    15.635900
C      -2.645400    42.380100    12.545500
H      -2.945200    43.110900    13.071100
C      -2.262500    42.596000    11.263100
H      -2.326500    43.470600    10.897000
C      -1.787000    41.576200    10.487000
H      -1.480600    41.765000     9.607500
C      -1.741200    40.257300    10.961800
C      -1.233500    39.137700    10.087600
H      -0.900400    38.410200    10.685000
C      -2.295600    38.547200     9.185300
H      -3.058000    38.252500     9.726700
H      -1.924000    37.779600     8.701800
H      -2.592400    39.226600     8.542400
C      -0.060300    39.594500     9.206400
H       0.643900    39.974400     9.772200
H      -0.372300    40.273500     8.573900
H       0.294400    38.826500     8.712300
C      -1.543200    38.125600    13.538900
C      -0.315500    38.773900    14.080200
C       0.672800    39.320800    13.293600
H       0.617100    39.250900    12.347500
C       1.746400    39.969900    13.875200
H       2.442800    40.330100    13.337400
C       1.788000    40.084700    15.241700
C       0.830600    39.547200    16.066900
H       0.882000    39.643000    17.011200
C      -0.204200    38.865300    15.476500
H      -0.857800    38.446600    16.023100
C      -1.965200    36.803900    14.108200
C      -0.941400    35.898900    14.716100
C       0.297300    35.742100    14.071400
H       0.490500    36.251800    13.293600
C       1.239200    34.851300    14.556700
H       2.070000    34.728000    14.113500
C       0.934800    34.154500    15.700700
C      -0.242000    34.297100    16.377000
H      -0.406700    33.802400    17.168800
C      -1.190500    35.179900    15.882900
H      -2.013300    35.293900    16.343700
C      -3.868800    35.428900    14.625000
C      -4.698000    35.717500    15.711200
C      -4.900300    37.131700    16.229800
H      -4.712400    37.751300    15.467700
C      -3.932000    37.472100    17.326500
H      -3.016800    37.298700    17.019900
H      -4.121700    36.918700    18.113100
H      -4.023900    38.418300    17.561300
C      -6.321100    37.398100    16.680100
H      -6.939300    37.185500    15.949500
H      -6.414700    38.341500    16.921800
H      -6.527400    36.837900    17.457900
C      -5.331400    34.634600    16.333200
H      -5.888400    34.788600    17.086500
C      -5.158200    33.357000    15.872400
H      -5.583900    32.634300    16.317400
C      -4.370700    33.113300    14.767000
H      -4.280000    32.226100    14.444600
C      -3.698700    34.159700    14.106500
C      -2.911900    33.859400    12.841600
H      -2.410300    34.687600    12.594600
C      -3.869200    33.551800    11.709800
H      -4.505300    34.287400    11.608200
H      -4.357600    32.723200    11.911300
H      -3.365200    33.438600    10.877700
C      -1.881800    32.734900    13.030800
H      -1.278400    32.965700    13.768400
H      -1.365200    32.622200    12.207400
H      -2.346500    31.898700    13.241000
Cl     -6.352200    36.961200    12.918300
N      -3.225200    36.571500    14.015400
N      -2.379000    38.704800    12.750500
