80
Refcode: QICWEF_comp_0 | Dataset: tmCAT | Charge: unknown | Potential Spins: [1, 3, 5]
Cu      1.816400     0.694300     1.421000
S       2.696100     0.455700     3.362700
N      -0.126000     1.639000    -0.470300
N       1.485100     0.606900    -1.464000
C       1.008500     0.978000    -0.271000
C      -0.454500     1.819500    -1.906500
H      -0.334600     2.740000    -2.184600
H      -1.363500     1.541500    -2.099300
C       0.552100     0.906600    -2.565700
H       0.130500     0.098900    -2.898300
H       1.005400     1.353700    -3.297800
C      -0.959300     2.206500     0.552300
C      -2.070400     1.455100     0.983300
C      -2.902700     2.024900     1.930600
H      -3.620300     1.535300     2.262400
C      -2.685100     3.311000     2.394000
H      -3.279000     3.694200     2.998500
C      -1.594300     4.018500     1.961600
H      -1.448800     4.876300     2.292300
C      -0.695900     3.482600     1.040100
C      -2.310300     0.055100     0.466800
H      -1.855300    -0.027500    -0.396500
C      -1.716400    -0.976800     1.405000
H      -0.767900    -0.847800     1.461900
H      -1.902100    -1.857100     1.069800
H      -2.106200    -0.877800     2.277300
C      -3.785900    -0.258000     0.251400
H      -4.230900    -0.300500     1.099800
H      -3.871200    -1.102000    -0.199000
H      -4.184000     0.432000    -0.284300
C       0.503600     4.281500     0.610500
H       1.003800     3.738000    -0.032900
C       1.423700     4.516900     1.837400
H       2.275200     4.843800     1.539700
H       1.544100     3.690400     2.310200
H       1.018800     5.163100     2.421000
C       0.127100     5.580100    -0.083800
H      -0.456700     5.392300    -0.821500
H       0.921800     6.012100    -0.407000
H      -0.319500     6.158700     0.538700
C       2.602600    -0.286800    -1.664300
C       2.424900    -1.650500    -1.431900
C       3.513200    -2.489500    -1.698300
H       3.427900    -3.406200    -1.560600
C       4.712700    -1.978600    -2.165100
H       5.423700    -2.550900    -2.341700
C       4.853200    -0.627400    -2.365600
H       5.673000    -0.293000    -2.654400
C       3.798800     0.251700    -2.146700
C       1.139300    -2.277900    -0.938200
H       0.506900    -1.549100    -0.767600
C       1.340000    -3.018000     0.381500
H       2.005900    -3.701700     0.266300
H       0.511900    -3.419900     0.652400
H       1.631100    -2.399300     1.054900
C       0.515300    -3.175800    -1.990000
H       0.309500    -2.657300    -2.771100
H      -0.289400    -3.564000    -1.642900
H       1.132600    -3.873300    -2.222000
C       3.974400     1.750700    -2.344700
H       3.105000     2.108800    -2.620000
C       4.341300     2.431900    -1.033900
H       3.673800     2.235300    -0.372600
H       4.388100     3.381100    -1.168600
H       5.194500     2.108800    -0.733200
C       4.975400     2.122600    -3.433900
H       5.857000     1.852100    -3.164600
H       4.960300     3.071800    -3.573100
H       4.739500     1.675500    -4.250900
C       4.232600    -0.370700     3.094400
C       5.130900    -0.498400     4.140200
H       4.921800    -0.125200     4.966100
C       6.328800    -1.163400     3.990600
H       6.899200    -1.248500     4.719200
C       6.690100    -1.700600     2.786100
H       7.499800    -2.143900     2.684300
C       5.823500    -1.566600     1.732700
H       6.057800    -1.921000     0.905200
C       4.617300    -0.921700     1.870300
H       4.048500    -0.851500     1.137200
