63
Refcode: QIQDID_comp_0 | Dataset: tmCAT | Charge: 0 | Potential Spins: [1, 3, 5]
Pd      8.575200     1.357400    12.143600
Cl      6.319000     2.007900    12.278500
Cl      9.410600     3.074500    13.523900
P       8.256900    -0.425400    10.842500
N       9.897600    -0.898500    10.939600
P      10.558600     0.472400    11.719500
C      10.725500    -1.924400    10.283800
H      11.533100    -2.028000    10.829000
C      11.179100    -1.477300     8.906300
O      10.541700    -0.815200     8.163300
C      12.977200    -1.505200     7.374700
H      13.866100    -1.859400     7.293500
H      13.008100    -0.546100     7.321200
H      12.429700    -1.848600     6.666100
O      12.413300    -1.898900     8.657000
C      10.042600    -3.287200    10.237200
H       9.768900    -3.539400    11.123000
H      10.656800    -3.941600     9.893900
H       9.272700    -3.240800     9.665000
C       7.716500    -0.151600     9.136500
C       7.487300    -1.209700     8.258700
H       7.583000    -2.085300     8.557700
C       7.122600    -0.968400     6.954000
H       6.970800    -1.680000     6.376300
C       6.981400     0.318700     6.509200
H       6.732800     0.478000     5.627000
C       7.205800     1.375200     7.356300
H       7.112000     2.247700     7.048100
C       7.574300     1.140100     8.677700
H       7.725200     1.856300     9.253500
C       7.177700    -1.714000    11.516500
C       7.583000    -2.478200    12.599600
H       8.445800    -2.385400    12.934800
C       6.712500    -3.380100    13.184500
H       6.995900    -3.901400    13.900500
C       5.436700    -3.505400    12.712000
H       4.852500    -4.110200    13.108800
C       5.016000    -2.747400    11.661900
H       4.145500    -2.838600    11.348200
C       5.872000    -1.840900    11.054700
H       5.574100    -1.322600    10.342400
C      11.686000    -0.164000    12.971900
C      12.796300     0.580100    13.373100
H      12.946200     1.423200    13.012500
C      13.669700     0.063400    14.301400
H      14.410600     0.561500    14.563100
C      13.458900    -1.177200    14.845800
H      14.055600    -1.514500    15.474600
C      12.366900    -1.927500    14.465300
H      12.233400    -2.773700    14.828800
C      11.467400    -1.421600    13.541600
H      10.719700    -1.918200    13.300400
C      11.556300     1.403100    10.527100
C      10.948000     2.419400     9.809900
H      10.077500     2.673100    10.015500
C      11.629900     3.061400     8.786600
H      11.214900     3.737400     8.301200
C      12.915300     2.694800     8.495000
H      13.368900     3.117100     7.801100
C      13.536200     1.718700     9.214700
H      14.416400     1.492800     9.015400
C      12.877600     1.062700    10.233500
H      13.310900     0.399100    10.718800
