39
Refcode: QIWMUF_comp_0 | Dataset: tmCAT | Charge: unknown | Potential Spins: [1, 3, 5]
Ir      2.580800     1.023000     6.717000
Cl      0.525700     0.947300     8.022000
N       3.239900    -1.901800     7.629400
C       2.617800    -1.090500     6.779800
N       2.032200    -1.907000     5.798100
C       3.050400    -3.228900     7.230200
H       3.389800    -3.995600     7.677700
C       2.319100    -3.239300     6.127700
H       2.039600    -4.009100     5.646100
C       3.961500    -1.527300     8.886800
C       5.005400    -0.442000     8.619700
H       5.614600    -0.740800     7.912200
H       5.515100    -0.269800     9.439500
H       4.555700     0.380800     8.337000
C       2.971100    -1.053100     9.918300
H       2.595300    -0.193000     9.636900
H       3.424000    -0.945200    10.780700
H       2.251600    -1.710900    10.006300
C       4.661700    -2.745400     9.443700
H       3.996800    -3.422900     9.683800
H       5.173500    -2.492200    10.240800
H       5.269900    -3.109600     8.766000
C       1.310500    -1.524200     4.543600
C       0.336200    -0.374600     4.783700
H       0.839400     0.451300     4.944200
H      -0.220600    -0.574800     5.563700
H      -0.234500    -0.260400     3.995100
C       2.326600    -1.134100     3.497900
H       2.875800    -0.395300     3.834600
H       1.864100    -0.849800     2.682400
H       2.900500    -1.901800     3.296100
C       0.465700    -2.739200     4.088900
H      -0.007500    -2.516100     3.260600
H      -0.184200    -2.964300     4.786500
H       1.055700    -3.505900     3.932600
C       4.144600     1.057300     5.800900
O       2.505400     4.050600     6.930400
C       2.537500     2.892700     6.823900
O       4.947600     1.008500     5.285200
