33
Refcode: QODKUS_comp_0 | Dataset: tmCAT | Charge: unknown | Potential Spins: [1, 3, 5]
Pd      6.402500     1.226200     9.502500
Cl      6.996300     0.488200     7.388400
Cl      7.265100    -0.635200    10.514400
N       5.744900     3.038000     8.879700
N       5.679100     1.882600    11.308600
H       5.236900     1.100700    11.746500
C       6.129500     3.680800     7.750800
H       6.674800     3.227500     7.118800
C       5.744900     4.983600     7.504100
H       6.015600     5.422100     6.705300
C       4.959300     5.642200     8.430900
H       4.684600     6.538000     8.279800
C       4.584000     4.986500     9.569500
H       4.051000     5.432900    10.217500
C       4.973700     3.685100     9.785200
C       4.597400     2.867600    10.980200
H       3.753600     2.384100    10.798300
H       4.448200     3.465500    11.755800
C       6.679600     2.385100    12.245100
C       7.236900     3.632100    12.058600
H       6.995300     4.144900    11.296500
C       8.147900     4.144700    12.973700
H       8.518600     5.009600    12.845100
C       8.513000     3.383000    14.079300
O       9.401400     3.803900    15.031400
C       9.844600     5.168300    14.965400
H      10.281700     5.328500    14.102500
H      10.480400     5.341400    15.690400
H       9.074000     5.767200    15.056600
C       7.990600     2.107400    14.238700
H       8.265800     1.573800    14.974700
C       7.071300     1.603500    13.329300
H       6.710900     0.732100    13.446500
