72
Refcode: QONNAK_comp_0 | Dataset: tmCAT | Charge: unknown | Potential Spins: [1, 3, 5]
Y       3.367600     0.916000     2.502500
N       5.355800     1.876500     1.289100
N       4.017800    -1.417200     2.708400
O       1.726100     2.297400     1.414000
Si      2.335200     0.444000     6.300600
C       2.064900     1.063200     4.602400
H       1.925300     2.034500     4.725300
H       1.178900     0.697700     4.356700
C       4.120100     0.562500     6.881800
H       4.713000     0.183600     6.198700
H       4.226200     0.063400     7.719000
H       4.353900     1.502100     7.031700
C       1.361000     1.368600     7.634600
H       1.710500     2.279900     7.720000
H       1.453800     0.901300     8.490500
H       0.414800     1.403700     7.382600
C       1.817700    -1.353600     6.468400
H       0.941400    -1.482100     6.047700
H       1.762000    -1.590600     7.417000
H       2.478700    -1.927700     6.026900
C       4.490500     3.348100     2.985300
H       3.757100     3.928900     3.151900
C       4.965800     2.475200     3.929800
H       4.735700     2.610400     4.840900
C       5.776700     1.400300     3.590300
H       5.906100     0.667600     4.182800
C       7.499000     2.563600     2.141900
H       8.167000     2.345000     1.444200
H       7.967200     2.693800     3.005100
C       6.687700     3.822100     1.755600
H       7.000200     4.192600     0.893400
H       6.767200     4.519700     2.453200
C       5.226000     3.321400     1.643100
H       4.721800     3.823700     0.941300
C       6.433600     1.450400     2.254400
H       6.811600     0.559100     2.003400
C       5.750300     1.694100    -0.087500
H       5.003300     1.932700    -0.676800
H       5.996300     0.757700    -0.235300
H       6.519800     2.268200    -0.286300
C       1.739400    -1.183300     1.977400
H       0.879100    -0.944700     2.302300
C       2.203900    -0.739400     0.772600
H       1.586400    -0.387200     0.141600
C       3.547700    -0.782800     0.440500
H       3.909900    -0.262000    -0.266600
C       4.049300    -3.192900     1.073600
H       4.831000    -3.765300     1.273500
H       3.748800    -3.369800     0.146800
C       2.897400    -3.446500     2.090900
H       2.075700    -3.747000     1.626500
H       3.159200    -4.132500     2.755200
C       2.679600    -2.079600     2.766700
H       2.369900    -2.188100     3.711100
C       4.393600    -1.705700     1.265100
H       5.366400    -1.538800     1.105800
C       4.961800    -1.986100     3.666300
H       4.703000    -1.724100     4.575400
H       5.863700    -1.652300     3.474700
H       4.952400    -2.964200     3.593400
C       0.291900     2.181400     1.688900
H       0.129800     2.119700     2.663600
H      -0.080000     1.373600     1.254700
C      -0.338100     3.409800     1.132900
H      -0.333100     4.147500     1.791000
H      -1.269300     3.237900     0.842400
C       0.565900     3.716900    -0.055200
H       0.343200     3.147800    -0.834100
H       0.502600     4.669900    -0.318600
C       1.932400     3.388100     0.493600
H       2.545300     3.117700    -0.236400
H       2.318700     4.170900     0.960100
