122
Refcode: QOPWOK_comp_0 | Dataset: tmCAT | Charge: 0 | Potential Spins: [1, 3, 5]
Fe     12.660700     2.521000    15.787700
P      11.331900     3.107800    17.558500
P      13.658700     1.286700    14.144600
Si     11.464400     4.681000    13.769400
H      10.897600     3.857500    13.743900
N      12.568100     0.769200    16.624000
C      13.219200    -0.377900    16.220600
C      14.943700     5.134900    16.063500
C      15.105000     1.668000    13.057500
H      15.191100     0.911100    12.409700
C      12.880200    -1.422000    17.032400
H      13.192000    -2.316800    16.969500
C      12.022000     4.069200    18.978500
H      11.352000     4.036700    19.720300
C      11.798500     0.429400    17.723200
C      13.734500     5.255400    15.195300
H      13.609800     6.082500    14.744300
C      12.806500     4.305000    14.992000
C      12.022400     4.947500    11.989200
C      12.255400     5.550900    18.626300
H      12.867600     5.610900    17.850500
H      11.394500     5.966400    18.369000
C      14.107100    -0.283200    15.015500
H      13.963700    -1.060600    14.419800
H      15.058300    -0.265800    15.288800
C      14.862600     2.935600    12.235100
H      14.036200     2.825800    11.701100
H      14.731100     3.702300    12.847100
C      12.327000     0.813400    12.945700
H      12.098700     1.644600    12.438700
C      10.292500     6.064700    14.241100
C      15.684100     6.265500    16.377200
H      15.409400     7.108000    16.035800
C      11.963700    -0.902000    17.993300
H      11.545700    -1.390400    18.692600
C       9.662900     3.854000    17.258200
H       9.814500     4.753200    16.848900
C      16.553100     3.842700    17.366800
H      16.847800     3.001200    17.693900
C      13.316400     3.426700    19.493300
H      13.130200     2.495300    19.773500
H      13.981700     3.398700    18.761500
C      16.429700     1.762800    13.810900
H      16.375000     2.488300    14.482600
H      16.597500     0.913400    14.290500
C      10.935700     1.473400    18.335400
H      11.098400     1.515800    19.311200
H       9.982300     1.252300    18.188200
C      15.404600     3.919900    16.578300
H      14.921200     3.124300    16.386300
C      17.265300     4.992800    17.673500
H      18.045200     4.954000    18.214300
C      10.465600     6.903900    15.337300
H      11.247600     6.818200    15.868700
C      12.855100     6.318000    19.804200
H      13.051300     7.247000    19.524500
H      12.195800     6.353600    20.541700
C      17.585800     2.042800    12.855400
H      18.424700     2.133700    13.373000
H      17.690500     1.279100    12.234500
C      11.043800     0.392300    13.682300
H      11.211700    -0.442800    14.185900
H      10.790500     1.096200    14.331200
C       8.835500     4.075400    18.534800
H       8.701200     3.207800    18.993100
H       9.333300     4.671100    19.148800
C      16.809200     6.198600    17.171700
H      17.282300     6.996100    17.378100
C      12.923800     5.918500    11.588000
H      13.260500     6.533100    12.229600
C       8.863000     3.027200    16.240100
H       9.385700     2.938000    15.404600
H       8.708100     2.118700    16.602800
C      13.889300     4.201000    20.668200
H      14.744300     3.786300    20.948600
H      13.261800     4.153500    21.431700
C      17.346700     3.314500    12.055300
H      17.328100     4.092100    12.667400
H      18.089300     3.445900    11.413700
C      12.694000    -0.246100    11.892500
H      13.492300     0.053100    11.389000
H      12.920200    -1.096700    12.346500
C      16.032000     3.231100    11.300100
H      16.092500     2.517200    10.616500
H      15.868500     4.088000    10.832600
C      11.534500     4.086700    11.001600
H      10.894000     3.426600    11.239600
C       7.514100     3.685200    15.928200
H       7.666900     4.565500    15.501700
H       7.008800     3.119100    15.292700
C      13.350200     6.013200    10.267900
H      13.973400     6.685500    10.017500
C      14.133600     5.662100    20.302800
H      14.465100     6.149600    21.097900
H      14.827000     5.714700    19.598900
C       9.901200     0.173000    12.703100
H       9.684800     1.028500    12.255500
H       9.098200    -0.124700    13.199100
C       7.472700     4.697300    18.218900
H       6.945500     4.769900    19.053600
H       7.605800     5.610800    17.861600
C      12.866700     5.131800     9.319100
H      13.162100     5.190500     8.417800
C      10.259000    -0.869000    11.651100
H       9.515500    -0.949800    11.001400
H      10.381000    -1.749800    12.087100
C       6.700400     3.870500    17.208000
H       5.846300     4.324400    16.993700
H       6.488300     2.985500    17.596900
C       9.519200     7.861500    15.672500
H       9.652900     8.428700    16.423000
C       9.146700     6.248000    13.452000
H       9.025900     5.710700    12.678400
C      11.536500    -0.482900    10.916700
H      11.376800     0.340900    10.391700
H      11.782600    -1.204800    10.285100
C       8.375100     7.980900    14.897800
H       7.707200     8.611500    15.139700
C      11.958800     4.169100     9.687900
H      11.621800     3.560800     9.040700
C       8.199600     7.187000    13.772300
H       7.427700     7.292300    13.228100
