101
Refcode: QORHUB_comp_0 | Dataset: tmCAT | Charge: 1 | Potential Spins: [1, 3, 5]
Pt      9.751300     7.130300    15.791100
I      10.327000     8.857800    17.697600
P       8.190700     6.157200    17.149100
P       9.138300     5.593800    14.287100
N      10.898200     9.277200    13.967600
N      12.313200     7.704300    14.147000
C      11.096400     8.080900    14.550400
C      11.997100     9.567000    13.200800
H      12.082400    10.316000    12.658200
C      12.873900     8.675400    13.340000
H      13.729400     8.671000    12.972000
C       9.719100    10.114400    14.158800
H       9.119500     9.639100    14.772200
C      10.085400    11.431300    14.812300
H      10.693800    11.921300    14.236600
H      10.538200    11.260600    15.652300
C       8.823400    12.278800    15.069500
H       8.281500    11.844800    15.746600
H       9.088100    13.147000    15.409200
C       7.985500    12.471600    13.802500
H       7.158900    12.927700    14.021900
H       8.473500    13.018900    13.167800
C       7.678200    11.141400    13.186700
H       7.186500    11.273900    12.360900
H       7.120000    10.626500    13.788300
C       8.952700    10.377800    12.898800
H       8.734400     9.536100    12.471800
H       9.504600    10.891300    12.287800
C      13.025700     6.484500    14.680200
H      12.349600     5.859100    15.015200
C      13.915100     6.817000    15.779700
H      13.403300     7.226000    16.496900
H      14.574900     7.461500    15.480000
C      14.663900     5.500100    16.338800
H      15.371400     5.762000    16.949900
H      14.033000     4.948300    16.827200
C      15.258500     4.696700    15.175700
H      16.033700     5.173400    14.838300
H      15.568400     3.844800    15.520100
C      14.341600     4.434800    14.036100
H      13.604000     3.875700    14.326300
H      14.815700     3.971300    13.328300
C      13.805900     5.778200    13.514600
H      13.213800     5.629600    12.759600
H      14.542300     6.337300    13.219700
C       7.374600     4.765900    16.204400
H       7.950400     3.981600    16.317600
C       7.412200     5.116100    14.692000
H       6.844000     5.901800    14.552800
C       6.014800     4.364200    16.697500
H       6.063800     4.150800    17.631800
H       5.712500     3.593200    16.209100
H       5.398900     5.088100    16.565300
C       6.860300     3.986000    13.833200
H       6.903000     4.236200    12.908300
H       5.947100     3.816800    14.076200
H       7.380900     3.192900    13.974700
C       8.820900     5.366200    18.613300
C      10.199500     5.311800    18.816200
H      10.774000     5.741400    18.224000
C      10.718800     4.607000    19.915700
H      11.639600     4.543700    20.028900
C       9.898500     4.021300    20.805200
H      10.259700     3.577000    21.539000
C       8.575100     4.069900    20.654200
H       8.020600     3.660800    21.279400
C       8.026900     4.723200    19.573600
H       7.102400     4.739400    19.479200
C       6.807600     7.265800    17.598800
C       6.407500     7.476200    18.938900
H       6.909200     7.136300    19.642000
C       5.266000     8.188300    19.172500
H       4.975000     8.316400    20.045500
C       4.586100     8.690100    18.191000
H       3.799600     9.147700    18.382100
C       4.982500     8.570900    16.874400
H       4.495800     8.974100    16.190200
C       6.115200     7.842600    16.596000
H       6.402500     7.748400    15.716000
C       9.177200     6.068100    12.535500
C       8.089600     6.699300    11.983400
H       7.329500     6.870000    12.493000
C       8.151100     7.081800    10.633800
H       7.416000     7.492400    10.239800
C       9.275000     6.859700     9.897700
H       9.301400     7.133300     9.010500
C      10.378900     6.232900    10.449800
H      11.139100     6.069500     9.940200
C      10.321200     5.848800    11.797000
H      11.057500     5.442700    12.193400
C      10.079100     4.003700    14.427700
C      10.064100     3.066400    13.427300
H       9.656400     3.275300    12.618100
C      10.632300     1.833400    13.585400
H      10.580900     1.187400    12.920100
C      11.290900     1.584700    14.791100
H      11.729900     0.775400    14.918500
C      11.294600     2.472000    15.727800
H      11.707300     2.260100    16.534700
C      10.715100     3.725600    15.593300
H      10.760200     4.353900    16.277500
