76
Refcode: QOXXAD_comp_0 | Dataset: tmCAT | Charge: 0 | Potential Spins: [1, 3, 5]
Pd      3.606400     4.245500    13.758800
C       3.775600     4.273900    16.706500
C       4.218800     3.911500    17.968300
H       3.890000     4.347300    18.721100
C       5.150500     2.901400    18.104200
H       5.464600     2.658800    18.945400
C       5.609000     2.255400    16.972900
H       6.242800     1.579300    17.042300
C       5.112200     2.627800    15.729200
C       5.577900     1.961300    14.486900
C       6.881800     0.270400    13.458600
H       7.104300     0.913100    12.768100
H       6.190600    -0.315500    13.113400
C       8.090400    -0.534800    13.795000
H       7.825300    -1.215700    14.434700
H       8.376200    -0.993500    12.990700
C       9.255600     0.171300    14.348800
H       8.997900     0.578300    15.190000
H       9.947700    -0.481400    14.539800
C       9.808900     1.188700    13.500600
H       9.943400     0.831800    12.619200
H      10.650400     1.481300    13.858100
H       9.203800     1.932600    13.455100
C       2.820900     5.399300    16.519400
C       1.552900     7.173800    17.392400
H       0.737700     6.860600    16.970400
H       1.957000     7.834100    16.807500
C       1.213300     7.817700    18.709700
H       2.028900     8.133600    19.131200
H       0.812500     7.155300    19.294100
C       0.253700     8.984200    18.542300
H       0.656700     9.637400    17.950000
H      -0.556700     8.662000    18.118300
C      -0.119100     9.673200    19.844400
H      -0.520000     9.036000    20.440200
H      -0.743800    10.379600    19.663900
H       0.669800    10.039200    20.251000
C       1.227500     5.478900    11.651000
C       0.338000     4.607100    12.238700
H       0.659800     3.859500    12.689300
C      -1.014100     4.822500    12.168800
H      -1.603300     4.212900    12.550800
C      -1.494500     5.944500    11.532700
H      -2.410100     6.107200    11.494100
C      -0.617100     6.812200    10.958900
H      -0.940600     7.567300    10.523300
C       0.737900     6.591800    11.012400
H       1.322900     7.196900    10.616200
C       3.346900     4.080800    10.286900
C       2.335100     3.559000     9.504900
H       1.447000     3.719200     9.727700
C       2.644200     2.800800     8.394100
H       1.959000     2.455000     7.868400
C       3.949100     2.551400     8.057600
H       4.148500     2.034900     7.309300
C       4.973400     3.071900     8.837500
H       5.860700     2.911400     8.607900
C       4.678500     3.822800     9.945200
H       5.366500     4.162200    10.472500
C       3.879000     6.674400    11.401600
C       4.172200     7.064100    10.111500
H       3.931700     6.518200     9.396500
C       4.822400     8.265600     9.873800
H       5.023200     8.518800     9.002200
C       5.170400     9.083700    10.919300
H       5.598800     9.893100    10.756300
C       4.886700     8.707000    12.202100
H       5.125900     9.260200    12.910100
C       4.244000     7.502200    12.453000
H       4.056800     7.249800    13.328900
N       4.213900     3.627500    15.609100
N       2.470600     6.052100    17.558200
N       6.377800     0.975400    14.634500
P       3.008500     5.105400    11.765400
S       4.985300     2.590100    12.948300
S       2.246900     5.714900    14.885200
