89
Refcode: QUFTER_comp_0 | Dataset: tmCAT | Charge: 0 | Potential Spins: [1, 3, 5]
Ti      6.404200     5.165000    14.649600
O       7.260300     5.112600    13.057100
O       6.028300     4.730400    16.375100
N       6.585100     2.920500    14.229100
N       8.477600     4.693800    15.687600
Cl      6.612500     7.398800    14.963500
Cl      4.243200     5.080300    13.762400
C       7.147700     4.028700    12.231200
C       6.739700     2.844800    12.791000
C       6.466300     1.721300    12.017000
H       6.189900     0.917100    12.439900
C       6.588200     1.758300    10.657500
C       7.054600     2.955800    10.124500
H       7.177600     2.996700     9.184100
C       7.355800     4.104600    10.865500
C       6.127300     0.605600     9.717400
C       7.232500     0.231700     8.801600
H       8.004800    -0.066200     9.326900
H       7.484700     1.008600     8.261500
H       6.938300    -0.494600     8.213900
C       4.872400     1.063100     8.856400
H       5.118800     1.834200     8.306100
H       4.139000     1.312400     9.454900
H       4.583700     0.327100     8.279400
C       5.778300    -0.638700    10.493800
H       5.621800    -1.378600     9.871500
H       4.967800    -0.477100    11.020300
H       6.517100    -0.868400    11.094700
C       7.804700     5.411100    10.237000
C       9.115700     5.901800    10.963700
H       8.923600     6.065400    11.910100
H       9.429300     6.731300    10.547100
H       9.808400     5.212500    10.886400
C       8.050600     5.224200     8.771300
H       8.692600     4.494000     8.639500
H       8.416100     6.051700     8.392400
H       7.209100     5.002200     8.324000
C       6.710900     6.468400    10.316200
H       5.906500     6.141300     9.862600
H       7.019600     7.290100     9.880500
H       6.505000     6.655400    11.255400
C       5.438500     2.095100    14.607900
H       4.690400     2.278200    14.002300
H       5.174400     2.303500    15.529000
H       5.682700     1.146900    14.543900
C       7.815500     2.420300    15.029300
H       7.533800     2.208100    15.954600
H       8.152200     1.586900    14.615300
C       8.927600     3.430100    15.074600
H       9.683400     3.062900    15.597400
H       9.249300     3.606100    14.154100
C       9.512600     5.740200    15.480200
H       9.269900     6.544400    15.987300
H       9.568000     5.960200    14.526100
H      10.381200     5.409200    15.790900
C       8.293200     4.522100    17.115800
C       6.960200     4.565500    17.424100
C       6.641700     4.475900    18.753500
C       7.715900     4.314300    19.702000
H       7.467400     4.256500    20.618000
C       9.062500     4.233500    19.424600
C       9.324500     4.328500    18.087200
H      10.224700     4.264300    17.790800
C      10.167600     4.050100    20.548400
C       9.862300     2.815600    21.385000
H       9.828700     2.027000    20.805500
H       8.997500     2.928500    21.829300
H      10.564700     2.696800    22.058400
C      11.543500     3.859300    20.018400
H      12.168000     3.742400    20.763900
H      11.803700     4.644000    19.493100
H      11.566700     3.062900    19.445500
C      10.231500     5.300100    21.441500
H      10.857000     5.144400    22.180400
H       9.342000     5.489000    21.802500
H      10.536900     6.065400    20.909700
C       5.164700     4.610900    19.108900
C       5.042600     4.455100    20.605500
H       5.355300     3.563300    20.868000
H       4.104600     4.564100    20.871000
H       5.589500     5.136600    21.049600
C       4.278900     3.539900    18.372600
H       4.352000     3.666500    17.403900
H       3.344500     3.647000    18.644900
H       4.588000     2.642300    18.609200
C       4.635700     5.999200    18.683600
H       5.122600     6.698200    19.168700
H       3.681400     6.063400    18.891900
H       4.767300     6.117900    17.719400
