85
Refcode: QUMKEO_comp_0 | Dataset: tmCAT | Charge: 0 | Potential Spins: [1, 3, 5]
Pd     17.281600     5.801000     4.083100
Cl     18.777400     6.105200     2.351200
N      15.809500     5.340000     2.621400
O      14.046000     7.959100     2.438400
C      16.251300     4.095500     1.918200
C      14.443700     5.090900     3.160300
C      15.700200     6.434400     1.598900
C      15.430100     7.797600     2.151800
C      13.657200     9.230500     2.738900
C      12.400000     9.584300     2.951300
C      12.096600    11.021800     3.218300
C      12.797700    12.034700     2.590300
C      12.548100    13.349100     2.887600
C      11.584600    13.694900     3.782600
C      10.868400    12.712200     4.403200
C      11.128400    11.383800     4.121500
C      11.271400     8.614400     2.903900
C      10.097100     8.940400     2.255500
C       9.062200     8.043600     2.164900
C       9.171700     6.809200     2.728300
C      10.298300     6.463400     3.382400
C      11.350400     7.356800     3.485300
H      17.171500     4.420300     1.478100
H      16.275700     3.445800     2.596900
H      15.639200     3.886600     1.355600
H      14.504900     4.397100     3.789100
H      13.894900     4.919200     2.384500
H      14.166000     5.917000     3.699300
H      16.648100     6.404200     1.143300
H      15.039900     6.183800     1.012600
H      15.929500     7.970500     3.005200
H      15.689900     8.423000     1.551600
H      14.335000     9.794300     2.768300
H      13.392600    11.810700     1.919100
H      12.979900    13.922300     2.449900
H      11.386600    14.502400     3.985100
H      10.145900    12.866500     4.940600
H      10.600600    10.801400     4.483300
H      10.024800     9.768800     1.861900
H       8.377100     8.283800     1.698600
H       8.535500     6.207000     2.613200
H      10.445000     5.650100     3.805500
H      12.098900     7.146800     3.919800
Cl     15.785800     5.496700     5.815000
N      18.753700     6.261900     5.544900
C      18.311900     7.506400     6.248000
H      17.391700     7.181600     6.688100
H      18.287500     8.156100     5.569400
H      18.924000     7.715300     6.810600
C      20.119600     6.511000     5.005900
H      20.058300     7.204800     4.377100
H      20.668400     6.682700     5.781700
H      20.397300     5.684900     4.466900
C      18.863000     5.167500     6.567300
C      19.133100     3.804300     6.014400
O      20.517200     3.642800     5.727800
C      20.906000     2.371400     5.427300
C      22.163200     2.017600     5.214900
C      22.466600     0.580100     4.947900
C      21.765500    -0.432800     5.575900
C      22.015100    -1.747200     5.278600
C      22.978600    -2.093000     4.383600
C      23.694900    -1.110300     3.763000
C      23.434900     0.218100     4.044700
H      23.962700     0.800500     3.683000
H      24.417300    -1.264600     3.225700
H      23.176600    -2.900500     4.181100
H      21.583400    -2.320400     5.716400
H      21.170600    -0.208800     6.247200
C      23.291800     2.987500     5.262300
C      24.466200     2.661500     5.910700
C      25.501000     3.558300     6.001400
C      25.391500     4.792700     5.437900
C      24.264900     5.138500     4.783800
C      23.212800     4.245100     4.680900
H      22.464400     4.455100     4.246400
H      24.118200     5.951800     4.360800
H      26.027800     5.394900     5.553000
H      26.186200     3.318100     6.467600
H      24.538500     1.833100     6.304300
H      20.228200     1.807600     5.397900
H      18.633700     3.631400     5.161000
H      18.873300     3.178900     6.614600
H      17.915200     5.197700     7.022900
H      19.523300     5.418100     7.153600
