71
Refcode: QUNJOZ_comp_0 | Dataset: tmCAT | Charge: 0 | Potential Spins: [1, 3, 5]
Ti      1.925400     9.897500     6.093200
Cl      0.086500    10.927600     6.983700
F       2.482500     5.640000     6.807400
F       0.585900     5.755400     7.509300
F       1.003000     4.821400     5.661800
N       0.950400     9.582900     4.164800
O       1.206200     8.195700     6.545600
C       1.089000     7.177600     5.744700
C       1.232200     5.846600     6.428400
C       0.855500     7.233700     4.420000
H       0.840800     6.407600     3.949600
C       0.625700     8.434400     3.643800
C       0.083200     8.166800     2.224000
C       1.313300     7.918000     1.328300
H       1.874100     8.719700     1.312500
H       1.017000     7.708100     0.418000
H       1.829700     7.165800     1.685400
C      -0.785300     9.283000     1.609800
H      -1.530500     9.485700     2.211800
H      -1.136500     8.984900     0.744600
H      -0.240100    10.087500     1.481900
C      -0.811000     6.916300     2.211800
H      -0.255700     6.116600     2.325200
H      -1.287500     6.862900     1.356400
H      -1.459500     6.969800     2.944200
C       0.828500    10.822100     3.434100
C      -0.270100    11.644200     3.597400
H      -0.964400    11.407800     4.200700
C      -0.343800    12.814600     2.872300
H      -1.109000    13.369500     2.960100
C       0.668000    13.191300     2.024200
H       0.594200    13.991000     1.517200
C       1.785900    12.405500     1.912100
H       2.498900    12.676700     1.346600
C       1.882000    11.218600     2.622500
H       2.662100    10.681300     2.554300
Cl      3.764400     8.867300     5.202800
F       1.368400    14.154900     5.379100
F       3.265000    14.039500     4.677200
F       2.847900    14.973500     6.524600
N       2.900500    10.212000     8.021600
O       2.644700    11.599200     5.640900
C       2.761900    12.617300     6.441800
C       2.618600    13.948300     5.758100
C       2.995300    12.561200     7.766400
H       3.010100    13.387300     8.236800
C       3.225200    11.360500     8.542700
C       3.767600    11.628100     9.962400
C       2.537600    11.876900    10.858100
H       1.976700    11.075200    10.874000
H       2.833900    12.086800    11.768500
H       2.021200    12.629100    10.501100
C       4.636200    10.511900    10.576600
H       5.381400    10.309200     9.974600
H       4.987300    10.810000    11.441900
H       4.091000     9.707400    10.704600
C       4.661900    12.878600     9.974600
H       4.106500    13.678300     9.861300
H       5.138300    12.932000    10.830100
H       5.310400    12.825100     9.242200
C       3.022400     8.972800     8.752300
C       4.121000     8.150700     8.589000
H       4.815300     8.387100     7.985800
C       4.194600     6.980300     9.314100
H       4.959800     6.425400     9.226400
C       3.182800     6.603600    10.162300
H       3.256700     5.803900    10.669200
C       2.065000     7.389400    10.274400
H       1.352000     7.118200    10.839900
C       1.968800     8.576300     9.563900
H       1.188800     9.113600     9.632200
