85
Refcode: QUPVIG_comp_0 | Dataset: tmCAT | Charge: 0 | Potential Spins: [1, 3, 5]
Zn      3.894600    -2.304800    22.829600
N       5.194400    -2.558600    24.292400
C       6.489800    -2.501700    24.116200
O       7.223300    -2.748700    25.246400
C       6.293600    -2.874900    26.359600
H       6.385300    -2.114800    27.000800
C       4.901100    -2.887000    25.688300
H       4.295900    -2.205800    26.099000
C       6.460800    -4.229600    27.064600
H       7.296900    -4.674200    26.776100
H       6.481500    -4.112800    28.046900
C       5.256200    -5.035200    26.647500
C       4.375800    -4.273600    25.895600
C       3.183000    -4.825900    25.429600
H       2.585200    -4.304000    24.905300
C       2.875300    -6.136600    25.734800
H       2.061400    -6.517400    25.428400
C       3.761700    -6.898200    26.493400
H       3.542600    -7.799400    26.702300
C       4.945500    -6.365700    26.945600
H       5.546300    -6.896700    27.456500
C       7.197300    -2.176900    22.959300
H       8.146300    -2.174000    22.986300
N       5.292400    -1.968700    21.474500
C       6.556800    -1.857400    21.764300
O       7.329300    -1.362500    20.736100
C       6.416400    -0.901200    19.715000
H       6.722700    -1.168200    18.801700
C       5.069800    -1.559000    20.074100
H       4.846300    -2.330300    19.478800
C       6.175200     0.612900    19.809700
H       6.625100     0.989100    20.608400
H       6.520000     1.072600    19.003900
C       4.685000     0.769200    19.916200
C       4.051700    -0.460600    20.002800
C       2.682900    -0.552200    20.140500
H       2.258200    -1.400300    20.181600
C       1.931100     0.620500    20.216900
H       0.987000     0.573500    20.310000
C       2.563000     1.850800    20.157200
H       2.048000     2.647300    20.226500
C       3.937700     1.934300    19.997400
H       4.363900     2.780800    19.944100
N       2.435600    -1.214400    23.573500
C       1.160900    -1.451100    23.360800
O       0.307500    -0.545200    23.946400
C       1.124100     0.463000    24.572800
H       0.842000     0.602300    25.521400
C       2.564300    -0.081600    24.511500
H       2.875300    -0.388400    25.412300
C       1.120200     1.803800    23.804300
H       0.702900     1.700700    22.912500
H       0.631900     2.501700    24.308400
C       2.574700     2.150600    23.679400
C       3.388900     1.070000    24.014100
C       4.774900     1.154200    23.916300
H       5.322800     0.409600    24.131900
C       5.336200     2.345400    23.497500
H       6.280300     2.416700    23.419500
C       4.545900     3.431700    23.190100
H       4.951400     4.247900    22.922100
C       3.160900     3.345200    23.269300
H       2.620700     4.093100    23.047300
C       0.573400    -2.506200    22.651600
H      -0.372900    -2.553300    22.588400
N       2.661700    -3.564700    21.962000
C       1.351100    -3.492200    22.035100
O       0.701000    -4.510600    21.387900
C       1.714600    -5.443900    20.928700
H       1.561200    -5.704300    19.976200
C       3.042000    -4.680500    21.091000
H       3.400600    -4.363200    20.213700
C       1.848300    -6.688800    21.834900
H       1.303700    -6.585700    22.655800
H       1.553800    -7.503500    21.356100
C       3.300000    -6.770800    22.172500
C       3.979200    -5.641900    21.764600
C       5.330200    -5.463000    22.035100
H       5.777100    -4.675700    21.747600
C       6.010900    -6.434000    22.724400
H       6.935800    -6.327800    22.912500
C       5.345000    -7.558100    23.140600
H       5.826000    -8.219600    23.621700
C       3.992500    -7.767500    22.884900
H       3.553000    -8.556400    23.182000
