31
Refcode: QUSZOV_comp_0 | Dataset: tmCAT;tmPHOTO | Charge: 0 | Potential Spins: [1, 3, 5]
Pd     11.619400    10.683700     9.103800
Cl     10.772100    10.020500    11.129000
Cl     12.033200    12.719100    10.078300
Cl      8.390100     6.431400     5.450200
Cl     11.579800    12.848200     2.998700
N      12.126300    11.279800     7.193100
N      10.998000     9.013200     8.046800
C      10.703300     7.769900     8.432900
C       9.889800     6.951700     7.619000
H       9.667900     6.093300     7.899300
C       9.431000     7.417300     6.422800
C       9.830800     8.697700     5.933700
C       9.525800     9.215800     4.627100
H       8.919600     8.766100     4.083300
C      10.112600    10.355200     4.177900
H       9.911500    10.673100     3.327900
C      11.042200    11.073000     5.005700
C      11.795600    12.185200     4.586300
C      12.746500    12.731000     5.417800
H      13.278100    13.430400     5.112400
C      12.922000    12.246100     6.716100
C      11.259900    10.647000     6.317000
C      10.651500     9.437800     6.798700
C      11.308800     7.208600     9.682000
H      12.112600     7.689000     9.891700
H      11.516100     6.280100     9.547400
H      10.685400     7.294500    10.406800
C      14.043300    12.777400     7.558700
H      13.802700    13.640100     7.904800
H      14.835900    12.857400     7.023200
H      14.208500    12.174400     8.287200
