98
Refcode: QUTGUH_comp_0 | Dataset: tmCAT | Charge: 0 | Potential Spins: [1, 3, 5]
Rh     -3.354500   -10.373700     0.930500
Cl     -5.598400   -10.040900     0.131000
P      -3.147800    -8.063100     0.819700
H      -1.970400    -7.352600     1.158900
P      -1.429600   -10.801500     1.886500
P      -3.744900   -12.597200     1.046600
C      -4.381700    -7.254400     1.919500
H      -5.167300    -7.816800     1.998800
H      -4.002500    -7.134200     2.804400
C      -3.831100    -4.802600     1.856400
H      -2.925700    -5.021000     1.622100
H      -3.906100    -4.735700     2.809800
H      -4.070300    -3.963000     1.456300
C      -6.202000    -5.578000     1.697800
H      -6.437800    -4.724700     1.328300
H      -6.294800    -5.550700     2.653000
H      -6.782100    -6.253700     1.339100
C      -4.772400    -5.902900     1.340900
C      -4.538200    -6.021600    -0.178400
C      -5.127700    -5.142500    -1.081400
H      -5.746100    -4.518600    -0.775000
C      -4.802100    -5.183400    -2.442100
C      -5.449100    -4.210100    -3.433400
C      -5.343300    -2.783500    -2.899900
H      -5.751000    -2.178800    -3.523500
H      -4.419000    -2.552800    -2.784600
H      -5.796600    -2.723500    -2.054600
C      -4.761900    -4.248300    -4.814000
H      -4.815400    -5.138400    -5.170800
H      -3.841400    -3.995800    -4.720300
H      -5.204500    -3.638100    -5.407000
C      -6.935500    -4.584100    -3.595600
H      -7.003600    -5.481000    -3.930900
H      -7.350800    -3.978000    -4.213800
H      -7.375000    -4.525400    -2.744900
C      -3.875600    -6.143100    -2.835000
H      -3.643600    -6.177300    -3.736200
C      -3.269700    -7.059100    -1.975300
C      -2.187600    -8.009300    -2.516000
C      -1.841100    -7.728100    -3.993900
H      -1.523900    -6.827100    -4.082200
H      -2.627500    -7.844100    -4.532800
H      -1.159900    -8.338300    -4.284100
C      -2.688300    -9.457700    -2.436700
H      -3.498200    -9.545100    -2.945000
H      -2.858400    -9.687000    -1.521200
H      -2.021000   -10.047400    -2.797200
C      -0.889100    -7.820900    -1.717600
H      -0.600200    -6.909000    -1.786100
H      -0.208100    -8.399700    -2.072700
H      -1.045400    -8.039300    -0.796600
C      -3.643900    -7.010000    -0.605600
C       0.352400   -10.765500    -0.283000
H      -0.452700   -10.668600    -0.796600
H       0.569100   -11.696500    -0.201900
H       1.070800   -10.306800    -0.724500
C       0.143300   -10.163500     1.115600
H       0.015400    -9.201000     0.984100
C       1.432800   -10.317700     1.935700
H       1.301400    -9.942300     2.809800
H       2.149700    -9.859000     1.494100
H       1.648900   -11.248800     2.018600
C      -1.214700    -8.788800     3.846100
H      -0.556800    -8.395600     3.267600
H      -1.001700    -8.582600     4.758100
H      -2.080900    -8.436600     3.629900
C      -1.217800   -10.304100     3.655100
H      -0.343200   -10.633100     3.945300
C      -2.263900   -10.934800     4.574300
H      -2.265300   -11.886300     4.451700
H      -3.132200   -10.583900     4.359800
H      -2.053000   -10.728600     5.488100
C      -1.107800   -12.626200     1.977100
H      -0.587700   -12.900600     1.205800
H      -0.588100   -12.821400     2.773800
C      -2.420200   -13.426200     2.018600
H      -2.709000   -13.521700     2.939600
H      -2.264400   -14.313500     1.658100
C      -4.980800   -13.177700    -1.404000
H      -5.772500   -13.383800    -0.899400
H      -4.968000   -13.703300    -2.207800
H      -4.978500   -12.245300    -1.631100
C      -3.745500   -13.499900    -0.567700
H      -3.747400   -14.462300    -0.378500
C      -2.483000   -13.175000    -1.368000
H      -1.707700   -13.378400    -0.838100
H      -2.479200   -12.242600    -1.595100
H      -2.469400   -13.699200    -2.170000
C      -5.463500   -12.555200     3.238800
H      -5.350400   -11.603700     3.188300
H      -4.799600   -12.926500     3.826300
H      -6.339000   -12.755900     3.579400
C      -5.307300   -13.165400     1.836600
H      -6.043300   -12.814600     1.292300
C      -5.484500   -14.691600     1.887000
H      -5.382700   -15.054800     1.003900
H      -6.359500   -14.901900     2.222300
H      -4.819500   -15.072500     2.467400
