82
Refcode: RADQOF_comp_1 | Dataset: tmCAT | Charge: unknown | Potential Spins: [1, 3, 5]
Ni     14.806500     7.107100     3.438400
Cl     14.528800     7.218600     1.286000
P      16.536600     8.498200     3.340100
P      13.381300     5.407200     3.586400
O      14.915600     7.133000     5.314500
C      14.971400     3.791600     1.964100
H      15.610900     4.532700     1.915300
H      14.299300     3.894400     1.258100
H      15.445300     2.942400     1.842300
C      18.089500     7.555900     3.009100
H      18.861800     8.186600     3.080500
C      11.986700     5.434400     2.367800
H      12.394400     5.444200     1.453900
C      13.973900     8.093700     5.474800
C      15.775900     9.839200     5.696900
C      11.456300     6.149200     7.135200
H      11.226000     6.897900     7.674700
C      18.150300     9.751700     5.255700
H      18.877100     9.463200     4.717000
C      17.712600    10.679700     1.975100
H      17.653600    11.276500     1.201700
H      18.502300    10.105900     1.888800
H      17.785600    11.213100     2.795000
C      11.661700     8.771300     5.728800
H      10.748200     8.538500     5.842300
N      11.059200    11.192300     5.626200
C      15.256900     3.518400     4.462400
H      15.720800     2.674600     4.288800
H      14.767000     3.452800     5.307900
H      15.911000     4.246300     4.517800
C      10.879900    11.758500     4.291100
H      11.756300    11.915900     3.883800
H      10.393000    12.605600     4.358500
H      10.369300    11.131100     3.737700
C      18.251800     6.472700     4.078700
H      17.520800     5.824600     4.000000
H      18.230500     6.885900     4.966000
H      19.108400     6.014800     3.953500
C       9.759400    10.885200     6.210100
H       9.256700    10.305900     5.600000
H       9.261700    11.717000     6.356800
H       9.887100    10.425000     7.067200
C      14.282400     3.801500     3.336400
H      13.600500     3.069100     3.336100
C      11.065700     4.227700     2.431900
H      10.612100     4.208100     3.299600
H      11.591200     3.408000     2.320300
H      10.398500     4.286700     1.716200
C      12.539600     5.233300     5.193700
C      12.110900     3.964300     5.611600
H      12.341000     3.205800     5.088800
C      14.342200     9.461000     5.498100
C      16.455200     9.809700     2.044100
H      16.357700     9.351700     1.161800
C      12.212700     6.353600     5.974700
C      12.614000     7.755900     5.681300
C      11.364700     3.785100     6.759800
H      11.084000     2.916100     7.020700
C      18.406200    10.504800     6.395700
H      19.301100    10.703700     6.642300
C      12.003600    10.115700     5.615200
C      13.358200    10.440300     5.548500
H      13.614800    11.355200     5.536900
C      16.056500    10.639300     6.809300
H      15.337600    10.970400     7.332700
C      18.079300     6.962400     1.591400
H      18.878500     6.411500     1.460600
H      18.072700     7.688200     0.932800
H      17.278400     6.408300     1.473900
C      15.213500    10.672100     2.249900
H      15.301200    11.177000     3.087100
H      14.420700    10.098200     2.297100
H      15.122200    11.296200     1.500400
C      11.034500     4.886800     7.520300
H      10.517800     4.780800     8.308700
C      11.211700     6.744900     2.528800
H      10.528000     6.807200     1.829000
H      11.829200     7.501300     2.449800
H      10.781200     6.763500     3.409100
C      17.358300    10.962800     7.166800
H      17.526400    11.494000     7.936900
C      16.845600     9.411800     4.889300
