23
Refcode: RAGVUQ_comp_0 | Dataset: tmCAT | Charge: 0 | Potential Spins: [1, 3, 5]
Pd      4.769000     7.575000     1.899000
Cl      5.209500     5.472000     2.722800
Cl      2.767400     6.827900     1.073800
N       4.524000     9.466000     1.218900
C       3.432500     9.959300     0.605000
H       2.699400     9.402200     0.474000
C       3.367400    11.264500     0.164800
H       2.600000    11.580300    -0.254800
C       4.446500    12.093000     0.350200
H       4.420100    12.975800     0.057900
C       5.575900    11.596400     0.981000
H       6.318400    12.140900     1.112000
C       5.589300    10.278700     1.414900
N       6.525300     8.372400     2.510900
C       6.725800     9.660500     2.119700
C       7.920800    10.302900     2.379000
H       8.045800    11.184100     2.107200
C       8.931800     9.631200     3.045500
H       9.745100    10.047600     3.216500
C       8.709100     8.328400     3.451800
H       9.369000     7.860700     3.909800
C       7.503600     7.731700     3.172900
H       7.360100     6.855900     3.450900
