78
Refcode: RAHCAF_comp_0 | Dataset: tmCAT | Charge: unknown | Potential Spins: [1, 3, 5]
Cu      3.641300     8.590000     3.723900
C       0.978700     8.691600     4.952100
C       0.092900     8.484700     3.903300
N       4.984500     9.930600     4.036900
N       2.163800     9.455800     4.726200
N       3.218500     6.883200     2.895800
C       2.283900    10.656900     5.253900
C      -1.226300     7.032000     5.311600
H      -1.983800     6.472000     5.437000
C       0.802900     8.027500     6.187300
C       2.512600     5.970200     3.565300
H       2.252600     6.174500     4.455800
C      -0.322100     7.216000     6.332400
H      -0.468800     6.777700     7.161900
C       1.812600     8.127600     7.310300
H       2.300900     8.991900     7.183300
C       2.130400     4.735300     3.042500
H       1.640100     4.118600     3.571900
C       3.462600    11.406200     5.191300
H       3.395500    12.285400     5.545800
C       1.098100    11.319700     5.959700
H       0.328200    11.342700     5.352900
H       1.339200    12.235300     6.213700
H       0.867600    10.808400     6.761200
C      -1.025500     7.658300     4.126000
H      -1.656700     7.536500     3.426800
C       0.289400     9.139300     2.536300
H       1.232400     9.465300     2.490100
C       3.549200     6.595100     1.624300
C       7.129800     8.810600     4.384900
C       4.722200    11.069400     4.693200
C       5.871700    12.020300     4.940600
H       6.586200    11.550900     5.418800
H       5.560300    12.777700     5.479800
H       6.214600    12.350300     4.083100
C       6.315500     9.624900     3.598300
C      -0.625600    10.352600     2.397700
H      -1.555700    10.078000     2.534600
H      -0.526600    10.735300     1.500600
H      -0.380500    11.024800     3.068900
C       3.189100     5.380500     1.037300
H       3.438300     5.203300     0.138500
C       8.014300     9.684400     1.908000
H       8.328300    10.000900     1.068600
C       6.751600    10.080700     2.351600
C       8.815500     8.853900     2.645100
H       9.660400     8.569900     2.316900
C       6.654500     8.353500     5.733800
H       7.310300     7.735300     6.118000
H       5.793400     7.896300     5.638200
H       6.550000     9.128500     6.322500
C       2.470900     4.424300     1.748000
C       5.887400    10.984200     1.484200
H       5.130700    10.471600     1.129600
H       6.421500    11.334500     0.742100
H       5.550600    11.729500     2.025100
C       4.349400     7.605500     0.857500
H       3.811800     8.414300     0.723900
H       4.597500     7.232200    -0.014800
H       5.158700     7.830000     1.360500
C       1.239700     8.154600     8.684000
H       0.638500     8.922900     8.773000
H       1.965900     8.231700     9.338600
H       0.739700     7.326900     8.847200
C       0.078100     8.162800     1.367100
H       0.669200     7.389100     1.477600
H       0.286600     8.614500     0.522800
H      -0.854300     7.863800     1.355500
C       2.865500     7.000900     7.216300
H       3.540600     7.125300     7.915500
H       3.297700     7.029300     6.337400
H       2.427200     6.132600     7.336700
C       2.079500     3.100100     1.147700
H       2.527900     2.376500     1.632600
H       2.347800     3.077100     0.206100
H       1.108400     2.986500     1.215400
C       8.366000     8.445400     3.863800
H       8.926100     7.881400     4.384900
