45
Refcode: RAHVAZ_comp_0 | Dataset: tmCAT | Charge: 0 | Potential Spins: [1, 3, 5]
Pd      5.005500     3.728100     0.000000
Cl      6.772200     3.771800    -1.486400
N       5.291200     1.740500     0.241500
C       5.017800     0.963900    -0.831000
H       4.771500     1.383900    -1.647000
C       5.081900    -0.407900    -0.787600
H       4.881600    -0.925300    -1.558300
C       5.441900    -1.019400     0.391500
H       5.475200    -1.967000     0.450900
C       5.753700    -0.239000     1.483800
H       6.028000    -0.648000     2.296000
C       5.663700     1.154800     1.396100
C       5.998800     2.011700     2.560100
C       5.428000     1.747200     3.786300
H       4.849100     1.000100     3.888200
C       5.693600     2.564200     4.869200
H       5.285000     2.382700     5.707800
C       6.542700     3.636200     4.746600
H       6.701200     4.207600     5.489000
C       7.163500     3.878100     3.542000
H       7.780600     4.595400     3.460000
C       6.886100     3.072500     2.446900
H       7.306500     3.248600     1.614000
Cl      3.238700     3.684400     1.486400
N       4.719700     5.715700    -0.241500
C       4.993100     6.492300     0.831000
H       5.239500     6.072200     1.647000
C       4.929100     7.864100     0.787600
H       5.129300     8.381500     1.558300
C       4.569100     8.475500    -0.391500
H       4.535700     9.423200    -0.450900
C       4.257300     7.695200    -1.483800
H       3.982900     8.104100    -2.296000
C       4.347300     6.301400    -1.396100
C       4.012100     5.444400    -2.560100
C       4.582900     5.708900    -3.786300
H       5.161800     6.456100    -3.888200
C       4.317300     4.891900    -4.869200
H       4.726000     5.073500    -5.707800
C       3.468300     3.819900    -4.746600
H       3.309700     3.248500    -5.489000
C       2.847400     3.578100    -3.542000
H       2.230300     2.860700    -3.460000
C       3.124800     4.383700    -2.446900
H       2.704400     4.207600    -1.614000
