78
Refcode: RAJBOU_comp_0 | Dataset: tmCAT | Charge: 0 | Potential Spins: [1, 3, 5]
Pd     12.019600     2.868100    15.441200
Cl     13.810400     3.618200    16.663200
Cl     13.333500     3.031800    13.471100
P      10.946500     2.879700    17.417200
O       8.182400     3.175100    13.998100
N      10.289400     2.217200    14.386300
C      10.157700     2.541800    12.887500
C       9.877700     1.164200    12.263000
C      11.185600     0.390500    12.255300
C      11.387600     0.119900    13.784800
C      10.141100     0.706400    14.399700
C       9.081200     0.447500    13.369800
C       9.030000     3.578700    12.876000
C       9.108000     2.952800    15.014600
C       8.159400     3.577300    11.611600
C       6.808000     3.632900    11.696200
C       6.037100     3.801000    10.527900
C       6.676300     3.888800     9.294300
C       8.008500     3.821500     9.215500
C       8.770500     3.679700    10.376100
C       9.460900     5.039800    13.129600
C       8.590200     5.921700    13.688800
C       8.948200     7.239400    13.905900
C      10.179400     7.689800    13.560000
C      11.048800     6.802100    12.968200
C      10.724100     5.499000    12.772200
C       8.516100     2.253700    16.200200
C       7.227400     1.727200    16.154100
C       6.705700     1.067600    17.247400
C       7.457500     0.937500    18.404100
C       8.709100     1.464000    18.475200
C       9.283200     2.117700    17.383800
C      11.790300     1.987500    18.753800
C      11.846600     0.608400    18.688500
C      12.503700    -0.114100    19.699200
C      13.075200     0.563100    20.763700
C      13.042000     1.908600    20.815600
C      12.404000     2.636900    19.822200
C      10.617900     4.565900    17.981400
C       9.877700     4.776500    19.142000
C       9.611800     6.075200    19.558900
C      10.026000     7.153100    18.824900
C      10.748300     6.952700    17.649000
C      11.055200     5.683300    17.224300
H      10.120600     0.358300    15.379700
H      11.146000    -0.403600    11.736500
H      11.907900     0.938900    11.892200
H      11.470700    -0.830700    13.959700
H      12.193100     0.532400    14.123000
H       8.225900     0.862900    13.588800
H       8.900900    -0.485500    13.223800
H      10.970800     2.930900    12.555100
H       9.432800     1.194900    11.406000
H       6.387400     3.575800    12.537800
H       5.089700     3.856600    10.575900
H       6.148300     3.975100     8.502600
H       8.416400     3.897600     8.373900
H       9.716600     3.656300    10.314600
H       7.715700     5.621900    13.942400
H       8.319200     7.837500    14.284400
H      10.440200     8.595100    13.723400
H      11.911800     7.119500    12.710700
H      11.367100     4.899400    12.378300
H       6.714700     1.812000    15.358500
H       5.824800     0.709300    17.203200
H       7.088000     0.482600    19.155400
H       9.219300     1.366000    19.272600
H      11.445100     0.150600    17.958300
H      12.544600    -1.064700    19.670400
H      13.493300     0.077500    21.468900
H      13.457500     2.370700    21.540000
H      12.389900     3.586100    19.866400
H       9.545300     4.021900    19.656900
H       9.115700     6.214200    20.375600
H       9.827800     8.046700    19.128500
H      11.030900     7.739600    17.137900
H      11.560200     5.545800    16.403800
H       9.554200     3.799600    15.252900
