55
Refcode: RAKMAU_comp_0 | Dataset: tmCAT | Charge: unknown | Potential Spins: [1, 3, 5]
C      -1.198600    -0.334400     4.722500
C      -1.061800     1.034700     5.170300
C      -0.655200     1.804800     4.048600
C      -0.491200     0.928200     2.922700
C      -0.867600    -0.380900     3.334800
C      -1.866000    -1.460500     5.471500
H      -2.759300    -1.616900     5.099400
H      -1.943100    -1.222600     6.420200
H      -1.329400    -2.275600     5.382900
C      -1.391400     1.570300     6.530000
H      -0.594800     1.991100     6.916300
H      -1.686100     0.835100     7.106300
H      -2.107800     2.234000     6.455600
C      -0.595500     3.310300     4.012200
H      -1.485100     3.667900     3.807700
H       0.038500     3.596400     3.321200
H      -0.302300     3.647900     4.883600
C      -0.145900     1.332400     1.512400
H       0.423200     0.645400     1.104900
H       0.333300     2.187400     1.523700
H      -0.968900     1.425600     0.989000
C      -0.996100    -1.575300     2.444400
H      -1.904500    -1.613500     2.077800
H      -0.817700    -2.388700     2.960400
H      -0.350700    -1.507100     1.710500
C       1.024100    -1.174400     6.223000
C       1.624900    -2.573400     6.025900
H       1.194900    -2.992500     5.237900
H       2.589200    -2.476900     5.821000
C       1.473700    -3.506600     7.215200
H       1.834200    -3.075700     8.018000
H       1.964200    -4.338300     7.041900
H       0.524500    -3.711200     7.351200
C       2.605900     0.875000     6.127400
C       3.158300     1.186000     4.885900
C       2.453200     2.044400     4.021900
C       2.905100     2.363800     2.643800
C       3.534700     1.427200     1.811100
H       3.722100     0.555600     2.139000
C       3.884600     1.763300     0.512200
H       4.314600     1.121200    -0.041900
C       3.611000     3.035800     0.012200
H       3.840000     3.258700    -0.882700
C       3.004100     3.969000     0.830100
H       2.822000     4.840600     0.499300
C       2.659500     3.639600     2.128400
H       2.248400     4.293400     2.680200
N       2.027700    -0.963100     3.495500
O       2.525700    -1.754900     2.706600
O       0.520000    -0.886600     7.293800
W       1.097400     0.187800     4.471300
H       2.093500     1.497100     6.571600
H       3.045700     0.199600     6.681100
H       3.869500     0.798500     4.600100
H       1.934700     2.744700     4.464800
