64
Refcode: RAMDUG_comp_0 | Dataset: tmCAT | Charge: unknown | Potential Spins: [1, 3, 5]
Ni      8.897100     3.026300     1.211200
C       9.263300     6.166700     1.709100
Cl     10.428600     2.154300     2.677600
C      11.074200     5.648900     3.423700
H      11.191900     4.878900     2.830900
Cl      6.969900     3.471100     2.153400
N      10.029400     2.844800    -0.397500
O       8.341000     1.122000     0.444600
N       9.673500     5.002400     0.948700
C      10.082300     1.690600    -1.045700
N       9.069900    -0.502600    -0.914100
C      10.539500     5.109100     0.013800
C      10.768200     3.885500    -0.772800
C      10.945300     1.501100    -2.099600
H      10.997500     0.678600    -2.531800
C       9.097700     0.731100    -0.455700
C       9.926400     6.469700     2.890500
C      11.650800     3.758600    -1.829600
H      12.185300     4.476100    -2.083000
C       8.176100     6.899500     1.254800
C       7.814000     8.023200     1.999900
H       7.102900     8.544400     1.706300
C      11.732600     2.562100    -2.498500
H      12.315000     2.469100    -3.217300
C       8.461600     8.378600     3.134200
H       8.208300     9.141800     3.602400
C       8.117400    -1.490900    -0.429300
H       7.933700    -1.318300     0.506900
H       8.519300    -2.372600    -0.491700
C      11.272600     6.358000    -0.351800
H      11.019700     7.065400     0.246500
H      11.052200     6.608400    -1.252000
H      12.218000     6.205700    -0.285300
C       7.423100     6.550900    -0.004200
H       7.729400     5.670900    -0.306100
C       9.501300     7.596700     3.587100
H       9.931000     7.826900     4.379300
C       6.845900    -1.490900    -1.174500
H       6.444900    -0.610900    -1.106600
H       6.240500    -2.123800    -0.757600
C       5.932000     6.466300     0.250700
H       5.761000     5.819800     0.939000
H       5.483400     6.200600    -0.555400
H       5.605000     7.326000     0.530500
C       7.436600    -3.208600    -2.926500
H       7.502100    -3.316900    -3.878000
H       6.804500    -3.839800    -2.576100
H       8.295900    -3.360900    -2.527600
C       6.988600    -1.842900    -2.619000
H       6.130600    -1.704100    -3.049700
H       7.617300    -1.221800    -3.020700
C       7.694400     7.547700    -1.112100
H       8.637100     7.583200    -1.286700
H       7.385100     8.415800    -0.844800
H       7.231400     7.275200    -1.908500
C      12.381700     6.446000     3.423700
H      12.568000     6.757400     2.534500
H      13.099100     5.884100     3.722800
H      12.297600     7.199000     4.015100
C      10.810900     5.132700     4.803100
H      10.791600     5.865500     5.422200
H      11.507400     4.520100     5.053800
H       9.964900     4.677500     4.819800
H       9.494300    -0.778500    -1.509600
