73
Refcode: RAMFIW_comp_0 | Dataset: tmCAT | Charge: 0 | Potential Spins: [1, 3, 5]
Zn      2.559400     1.854600     3.397800
O       3.792600     5.145400     1.209800
O      -0.261300    -0.727400     1.795100
N       3.363200     3.140200     2.076300
N       2.212700     3.212200     4.749500
N       0.912300     0.944500     2.698000
N       3.551800     0.198100     3.629700
C       2.209200     4.543600     4.538100
C       1.696700     5.462800     5.511400
H       1.341900     5.122400     6.300800
C       1.708600     6.817000     5.331600
H       1.367800     7.366800     5.998900
C       2.214700     7.387700     4.178200
H       2.228300     8.311000     4.071500
C       2.695900     6.564100     3.196800
H       3.036400     6.943600     2.418700
C       2.694700     5.152600     3.327400
C       1.840900     2.706300     6.080600
H       1.654700     1.755700     6.012500
H       1.024600     3.145500     6.363900
C       2.905500     2.920900     7.140800
H       3.024500     3.872000     7.286700
H       3.748100     2.558700     6.824400
C       2.537600     2.255300     8.456800
H       3.231500     2.411900     9.099800
H       2.434300     1.310100     8.320300
H       1.711700     2.622900     8.780900
C       3.275100     4.410900     2.230400
C       4.177800     4.225100     0.176000
H       5.073900     4.417100    -0.138200
H       3.564200     4.274600    -0.574800
C       4.116900     2.837400     0.836100
C       5.502200     2.329200     1.203200
H       5.427200     1.463500     1.611900
H       5.914300     2.939600     1.820000
H       6.039400     2.263300     0.411100
C       3.365000     1.818700    -0.004300
H       3.356800     0.973800     0.450300
H       3.800400     1.720300    -0.854500
H       2.462900     2.118700    -0.139900
C       3.231500    -1.006600     3.118000
C       4.110600    -2.134000     3.194100
H       4.930200    -2.027600     3.622900
C       3.803800    -3.357300     2.666800
H       4.413800    -4.054400     2.747900
C       2.598900    -3.581200     2.013900
H       2.404800    -4.412100     1.646000
C       1.715000    -2.558500     1.925400
H       0.902500    -2.711100     1.499300
C       1.970900    -1.271400     2.450700
C       4.800800     0.329600     4.382200
H       5.038000     1.269000     4.422800
H       5.503100    -0.128900     3.895800
C       4.758400    -0.216000     5.789400
H       4.671700    -1.182200     5.755000
H       3.979300     0.137700     6.246200
C       6.008900     0.146200     6.578800
H       5.944600    -0.216300     7.465800
H       6.088600     1.102000     6.630000
H       6.781500    -0.216300     6.140500
C       0.911500    -0.295500     2.335400
C      -1.109600     0.419900     1.657200
H      -2.002900     0.227500     1.983700
H      -1.168700     0.693500     0.728300
C      -0.447900     1.509500     2.502200
C      -0.358200     2.852900     1.789300
H       0.063800     3.493800     2.367500
H      -1.241000     3.156500     1.565800
H       0.158900     2.755600     0.987600
C      -1.107700     1.634700     3.860800
H      -0.671000     2.325700     4.366500
H      -1.035100     0.800500     4.330700
H      -2.034200     1.859600     3.747400
