65
Refcode: RANPEB_comp_0 | Dataset: tmCAT | Charge: 1 | Potential Spins: [1, 3, 5]
Ni     12.735800     8.945000     2.873500
P      12.591300    11.127800     2.672100
N      11.966600     8.450800     4.655000
C      12.871300     6.930900     2.580900
C      14.105200     7.539700     2.264200
H      14.920600     7.372500     2.678600
C      13.881100     8.441600     1.214700
H      14.483300     9.082000     0.913600
C      12.551000     8.209200     0.675300
C      11.843300     8.757200    -0.397600
H      12.238400     9.391400    -0.950700
C      10.557900     8.343700    -0.620900
H      10.087300     8.691600    -1.343800
C       9.943000     7.417700     0.204700
H       9.065100     7.164200     0.034100
C      10.610600     6.867900     1.274500
H      10.191400     6.246500     1.825800
C      11.922300     7.256600     1.516000
C      12.545700     6.174300     3.831600
H      13.180300     5.451900     3.960100
H      11.656000     5.793800     3.768800
C      12.619300     7.165700     5.019100
H      12.174800     6.782700     5.791800
H      13.547500     7.327300     5.253400
C      10.492300     8.271300     4.620100
H      10.260100     7.675100     3.903700
H      10.069700     9.121200     4.479200
H      10.194700     7.899900     5.453600
C      12.238200     9.420900     5.751200
H      11.826100     9.112200     6.561600
H      11.877500    10.279400     5.515900
H      13.185600     9.497500     5.883800
C      12.766500    11.770300     0.970300
C      14.039200    11.861900     0.428600
H      14.776700    11.636000     0.949200
C      14.228900    12.284600    -0.874200
H      15.087700    12.352000    -1.223600
C      13.134000    12.606700    -1.655200
H      13.253900    12.879400    -2.536200
C      11.876800    12.523500    -1.129100
H      11.143000    12.746200    -1.655200
C      11.683900    12.112100     0.173800
H      10.822900    12.064000     0.520600
C      13.854700    12.085100     3.566300
C      14.829200    11.410200     4.275600
H      14.818500    10.480800     4.307100
C      15.819500    12.108700     4.937500
H      16.468500    11.647600     5.418000
C      15.850400    13.474200     4.889700
H      16.516800    13.939400     5.343900
C      14.900400    14.163700     4.173500
H      14.925900    15.092800     4.142500
C      13.910200    13.478700     3.501000
H      13.278600    13.945400     3.003400
C      10.965200    11.715700     3.232400
C       9.843000    11.080100     2.705800
H       9.946600    10.412600     2.067500
C       8.580200    11.437900     3.128000
H       7.832500    11.019600     2.767600
C       8.427500    12.413000     4.083200
H       7.574100    12.648600     4.368000
C       9.514600    13.041900     4.617600
H       9.398000    13.698600     5.265300
C      10.790100    12.705900     4.197500
H      11.528400    13.139600     4.559300
