104
Refcode: RASDAT_comp_0 | Dataset: tmCAT | Charge: 0 | Potential Spins: [1, 3, 5]
Rh     -0.073500     5.333100     6.899100
P       1.215300     3.355100     6.588900
P       1.521600     6.900900     7.513800
P      -2.191900     4.543200     6.790100
O      -0.066000     6.797900     5.282800
C      -0.994600     7.101800     6.186300
C       0.463500     8.376000     7.732500
C      -0.768200     8.288400     7.079500
C      -2.398700     6.942000     5.590300
C      -3.081400     5.761300     5.832200
C      -2.647500     3.025800     5.875400
C      -2.129200     2.875800     4.610800
C      -2.426300     1.759400     3.854100
C      -3.226500     0.793000     4.341300
C      -3.778100     0.923500     5.569600
C      -3.498800     2.057500     6.347000
C      -3.114600     4.350700     8.375100
C      -2.671400     3.433000     9.302800
C      -3.340600     3.271300    10.506900
C      -4.373300     4.021400    10.812700
C      -4.844100     4.960600     9.936800
C      -4.182500     5.153400     8.653300
C      -4.307600     5.533400     5.160200
C      -4.798900     6.478300     4.294700
C      -4.101100     7.629800     4.061500
C      -2.893300     7.879200     4.709300
C      -1.704000     9.295700     7.323100
C      -1.419700    10.357500     8.176500
C      -0.201200    10.431600     8.805300
C       0.762500     9.437900     8.577300
C       2.448500     6.817300     9.076500
C       3.781700     7.234300     9.190500
C       4.401800     7.171900    10.411900
C       3.786600     6.737500    11.479500
C       2.444000     6.316600    11.427700
C       1.791400     6.361400    10.185600
C       2.758500     7.466200     6.271000
C       3.179100     8.742300     6.153500
C       4.107800     9.151500     5.213700
C       4.615600     8.270800     4.370700
C       4.242900     6.971300     4.375900
C       3.273900     6.575700     5.381300
C       1.399800     2.813400     4.868200
C       1.150300     3.698000     3.849000
C       1.270000     3.337600     2.539500
C       1.632000     2.067200     2.200900
C       1.913600     1.172900     3.177000
C       1.802500     1.535300     4.498500
C       0.562000     1.858700     7.428400
C      -0.233300     0.958600     6.811700
C      -0.787600    -0.111100     7.468200
C      -0.464600    -0.323400     8.710300
C       0.343300     0.570900     9.439300
C       0.812800     1.691200     8.756900
C       2.980000     3.308300     7.145100
C       3.384000     3.766200     8.293900
C       4.704500     3.772000     8.720600
C       5.625700     3.384300     7.927700
C       5.367000     2.949800     6.675200
C       4.053700     2.905000     6.210500
H      -0.138900     4.832000     8.181600
H      -1.553700     3.557700     4.258400
H      -2.060000     1.667800     2.981700
H      -3.406800     0.023400     3.819600
H      -4.352400     0.239600     5.922000
H      -3.908400     2.170500     7.207300
H      -1.880900     2.901100     9.119700
H      -3.029300     2.603000    11.137500
H      -4.801400     3.892800    11.645400
H      -5.606800     5.496400    10.168300
H      -4.494400     5.837300     8.024400
H      -4.787400     4.728700     5.331200
H      -5.618000     6.328300     3.852400
H      -4.445500     8.268900     3.458500
H      -2.416700     8.685800     4.543400
H      -2.539200     9.252800     6.879100
H      -2.071700    11.033600     8.321600
H      -0.013500    11.154400     9.389200
H       1.605400     9.478800     9.014300
H       4.251700     7.553800     8.406200
H       5.303100     7.452500    10.491400
H       4.247000     6.706300    12.305300
H       1.968400     6.016600    12.220600
H       0.882600     6.071100    10.120000
H       2.817100     9.402800     6.751200
H       4.393700    10.057500     5.174000
H       5.258900     8.568900     3.724600
H       4.585500     6.341900     3.728000
H       2.974900     5.654200     5.403800
H       0.885100     4.584500     4.071800
H       1.107800     3.976600     1.848500
H       1.677000     1.815900     1.283600
H       2.169000     0.288400     2.945500
H       2.007100     0.900100     5.182600
H      -0.460800     1.100800     5.885700
H      -1.337200    -0.740400     7.003500
H      -0.776100    -1.100800     9.159400
H       0.587300     0.387700    10.354900
H       1.427300     2.312700     9.202600
H       2.697300     4.064300     8.921000
H       4.919100     4.066200     9.603400
H       6.531700     3.396000     8.238700
H       6.091700     2.669300     6.093000
H       3.841400     2.614700     5.307000
