55
Refcode: RECGAK_comp_0 | Dataset: tmCAT | Charge: 0 | Potential Spins: [1, 3, 5]
Rh      1.940300     2.458500    14.989600
Cl      4.019000     2.512300    13.786000
O       4.495300     2.726600    19.563200
N       2.563500     4.030100    16.169400
N       3.159600     3.757900    17.273600
O       3.597200     4.620200    18.043000
C       3.389600     2.360600    17.490200
C       2.395200     5.426200    15.823500
C       4.104900     1.870100    18.598900
C       2.929000     1.522900    16.471700
C       0.844100     1.135700    13.685300
C       0.226500     1.104000    14.955000
C       2.797700     5.784100    14.572100
H       3.215600     5.164600    14.018700
C      -0.192400     2.416900    15.241500
C       4.375800     0.515100    18.628300
H       4.850100     0.156000    19.344600
C       0.017300     3.237000    14.097800
C       1.790600     6.333100    16.671800
H       1.529600     6.091500    17.531500
C       0.665000     2.482600    13.159100
C       3.244000     0.173600    16.553200
H       2.975400    -0.411800    15.883800
C       2.576600     7.086400    14.125000
H       2.837500     7.339800    13.270300
C       3.959900    -0.288600    17.637700
H       4.163400    -1.195500    17.684600
C       1.463800    -0.016400    12.941700
H       1.739000     0.275700    12.069700
H       0.819700    -0.723900    12.855200
H       2.226400    -0.337900    13.428400
C       1.975500     7.987400    14.955000
H       1.833500     8.860300    14.666000
C      -0.014600    -0.098600    15.789900
H       0.644500    -0.766100    15.589800
H      -0.890200    -0.447000    15.604700
H       0.045000     0.139600    16.718700
C      -0.940200     2.858000    16.486500
H      -0.846600     2.190400    17.168300
H      -1.869700     2.973000    16.276600
H      -0.578000     3.689800    16.800300
C       1.587300     7.615500    16.190100
H       1.169500     8.240800    16.738500
C      -0.458700     4.661300    13.966900
H      -0.221700     5.152900    14.757400
H      -1.412400     4.671800    13.858200
H      -0.044700     5.068400    13.201100
C       5.204300     2.188100    20.678600
H       6.040500     1.823200    20.379700
H       4.680000     1.494700    21.086200
H       5.369700     2.883800    21.318400
C       1.071200     2.930800    11.793000
H       1.140000     3.888100    11.778200
H       0.413300     2.646800    11.153200
H       1.921700     2.544800    11.568200
