32
Refcode: REDYUX_comp_0 | Dataset: tmCAT | Charge: 0 | Potential Spins: [1, 3, 5]
Pd      0.770700     3.908600    11.879400
Cl      1.130500     2.562900    13.705800
Cl     -1.489700     3.901000    12.234900
N       2.762900     4.197500    11.526500
N       0.574200     5.097900    10.173400
C       3.741400     4.046300    12.410300
H       3.538700     3.683100    13.265400
C       5.043400     4.400400    12.123000
H       5.731500     4.258200    12.762000
C       5.335600     4.957600    10.906800
H       6.227100     5.204300    10.692000
C       4.298300     5.161500     9.979200
H       4.472500     5.560500     9.135000
C       3.022600     4.771500    10.325300
C       1.844600     4.883000     9.384000
H       1.984200     5.642100     8.764300
H       1.767200     4.055200     8.847700
C       0.542700     6.498700    10.656400
H       0.589200     7.109600     9.891600
H       1.307200     6.657900    11.248800
H      -0.289800     6.655900    11.150300
C      -0.574600     4.730700     9.352600
C      -1.524100     5.667900     8.950300
H      -1.436500     6.580300     9.199300
C      -2.607000     5.246100     8.177300
H      -3.264900     5.866900     7.890000
C      -2.706100     3.923900     7.838000
F      -3.782100     3.501100     7.111600
C      -1.769500     2.978700     8.202000
H      -1.867300     2.069400     7.944800
C      -0.689700     3.393600     8.947600
H      -0.015600     2.768800     9.188400
