83
Refcode: REMYEQ_comp_0 | Dataset: tmCAT | Charge: unknown | Potential Spins: [1, 3, 5]
Pd      4.777600    10.955200     3.179300
Br      4.777600    13.534500     3.179300
P       2.461500    10.495300     3.476200
C       2.124200     8.600300     3.440400
C       2.412100    11.119800     0.755400
H       3.260400    11.538800     0.913100
H       1.985500    11.531800     0.001300
H       2.545500    10.186400     0.576100
C       3.096600     7.855600     4.386000
H       4.000400     8.026800     4.114000
H       2.921900     6.912100     4.346700
H       2.968800     8.166600     5.285300
C       1.516100    11.280900     2.004900
C       2.420300     8.059700     2.031100
H       1.732500     8.348300     1.426900
H       2.444000     7.100800     2.055100
H       3.269900     8.393700     1.732100
C       2.263500    12.561600     5.392500
H       3.221600    12.524200     5.446800
H       1.907600    12.884100     6.223800
H       2.005800    13.153200     4.682500
C       1.712100    11.154700     5.110400
C       1.340900    12.796400     2.213000
H       0.719300    12.950500     2.927500
H       1.006200    13.195200     1.405300
H       2.188200    13.188200     2.435300
C       0.128800    10.699700     1.707000
H       0.214800     9.774100     1.466300
H      -0.271900    11.182300     0.981800
H      -0.424800    10.777000     2.487500
C       2.194100    10.286700     6.284700
H       1.764800     9.428100     6.245400
H       1.972700    10.717600     7.112700
H       3.145300    10.172400     6.228900
C       0.694100     8.164200     3.836800
H       0.545400     8.362300     4.765100
H       0.594600     7.219600     3.689300
H       0.054300     8.641800     3.302700
C       0.174800    11.219000     5.155800
H      -0.138600    11.860300     4.514600
H      -0.107800    11.479400     6.034300
H      -0.187700    10.354100     4.947000
H       4.777600     9.512000     3.179300
P       7.093700    10.495300     2.882400
C       7.431000     8.600300     2.918200
C       7.143100    11.119800     5.603200
H       6.294800    11.538800     5.445500
H       7.569700    11.531800     6.357300
H       7.009600    10.186400     5.782500
C       6.458600     7.855600     1.972600
H       5.554700     8.026800     2.244600
H       6.633300     6.912100     2.011900
H       6.586400     8.166600     1.073300
C       8.039000    11.280900     4.353700
C       7.134800     8.059700     4.327500
H       7.822700     8.348300     4.931700
H       7.111200     7.100800     4.303500
H       6.285200     8.393700     4.626500
C       7.291600    12.561600     0.966100
H       6.333500    12.524200     0.911800
H       7.647500    12.884100     0.134800
H       7.549400    13.153200     1.676100
C       7.843100    11.154700     1.248200
C       8.214300    12.796400     4.145600
H       8.835900    12.950500     3.431100
H       8.549000    13.195200     4.953400
H       7.367000    13.188200     3.923300
C       9.426400    10.699700     4.651600
H       9.340400     9.774100     4.892300
H       9.827000    11.182300     5.376800
H       9.980000    10.777000     3.871100
C       7.361100    10.286700     0.073900
H       7.790400     9.428100     0.113200
H       7.582400    10.717600    -0.754100
H       6.409900    10.172400     0.129700
C       8.861000     8.164200     2.521800
H       9.009700     8.362300     1.593500
H       8.960600     7.219600     2.669300
H       9.500900     8.641800     3.055900
C       9.380400    11.219000     1.202800
H       9.693700    11.860300     1.844000
H       9.663000    11.479400     0.324300
H       9.742800    10.354100     1.411600
