54
Refcode: RERBIB_comp_1 | Dataset: tmCAT | Charge: 1 | Potential Spins: [1, 3, 5]
Ni      1.629300     4.554200     7.343900
O       0.264400     3.422700     8.232200
C      -0.510500     4.146400     5.185700
H      -0.597300     5.087400     5.013000
H      -1.034400     3.911100     5.949800
H      -0.821500     3.653000     4.418400
C      -0.478800     6.611700     7.800900
H      -0.873600     6.015400     8.440300
H      -0.793000     6.391200     6.918500
H      -0.725200     7.515200     8.008700
C       1.375300     6.892700     9.191600
H       2.330700     6.838800     9.281200
H       0.966800     6.314400     9.840600
H       1.091600     7.796200     9.345100
C       3.578800     4.278700     9.738300
H       4.353400     3.840900    10.102800
H       2.806100     4.038600    10.249900
H       3.703600     5.229600     9.776700
C       3.377600     2.421200     8.347600
H       3.292800     2.109100     7.442800
H       2.636100     2.101000     8.862300
H       4.197200     2.094400     8.731300
C      -1.097300     2.373800     9.836200
H      -0.727800     1.738300    10.457700
H      -1.423400     1.911500     9.057400
H      -1.819700     2.846000    10.249900
C       0.988900     2.375400     5.428700
H       0.736600     2.047100     4.562200
H       0.402000     2.007900     6.090500
H       1.892700     2.114000     5.626900
C       1.567600     7.348500     6.848200
H       0.914100     7.451400     6.132000
H       1.688300     8.222600     7.251000
O       0.457500     4.041800    10.310300
C       4.365300     5.192000     6.550800
H       4.819500     4.793400     5.793100
H       4.838900     6.007200     6.777800
C       4.477200     4.353900     7.586700
H       5.087700     4.775400     8.213300
H       4.934400     3.568100     7.251000
C       2.763900     7.000500     6.266300
H       3.485400     7.374700     6.800200
H       2.802100     7.410600     5.387100
N       0.891500     3.824600     5.443700
N       3.385300     3.870300     8.359100
N       3.001700     5.557900     6.115100
N       0.978000     6.481000     7.856500
C      -0.023900     3.357300     9.431100
C       1.726100     4.404500     4.428000
H       2.026000     3.674300     3.865300
H       1.151900     4.961600     3.878100
C       2.795800     5.126600     4.728500
H       2.772000     5.922300     4.172200
H       3.576900     4.616900     4.466300
