52
Refcode: RESPUD_comp_0 | Dataset: tmCAT | Charge: 0 | Potential Spins: [1, 3, 5]
Pd      4.565600     8.011400     1.755000
P       5.079300     9.738700     3.019600
N       3.993800     6.257700     0.659700
C       7.733200     9.495500     3.742600
H       7.423800     8.767900     4.233300
C       6.826500    10.282500     3.029800
C       9.093000     9.788200     3.729500
H       9.685000     9.255300     4.210100
C       8.683300    11.631500     2.280700
H       9.001400    12.348600     1.781300
C       7.325300    11.350500     2.288000
H       6.742600    11.878700     1.792900
C       4.388600     5.931200    -0.579200
H       5.006300     6.480400    -1.006100
C       3.926300     4.822400    -1.250000
H       4.230100     4.634700    -2.107900
C       9.569200    10.862000     3.006600
H      10.476100    11.066000     3.009500
C       3.096800     5.452000     1.238300
H       2.795100     5.658400     2.093400
C       3.017400     4.000400    -0.648900
H       2.693100     3.244800    -1.081600
C       2.600900     4.328000     0.614100
H       1.982000     3.789300     1.052500
O       3.749400     7.202300     3.547500
C       4.053900     7.835200     4.656300
C       4.767700     9.064100     4.671600
C       5.133800     9.666900     5.875200
H       5.619800    10.460900     5.860700
C       3.688600     7.302300     5.920500
H       3.194300     6.515300     5.958000
C       3.908200    11.192000     2.839600
C       5.368900     8.884500     0.100900
H       5.269900     8.295700    -0.651800
H       6.300700     9.058300     0.251200
H       4.913200     9.710000    -0.078400
C       2.512900    10.583300     3.063200
H       1.848500    11.271200     2.989100
H       2.472000    10.191600     3.938600
H       2.349800     9.907100     2.401200
C       3.918100    11.774900     1.424200
H       3.308600    12.515300     1.377700
H       3.647900    11.098700     0.798500
H       4.803300    12.074600     1.207900
C       4.178600    12.282100     3.873300
H       3.560800    13.005000     3.745500
H       5.076300    12.606300     3.767300
H       4.071300    11.919500     4.754500
C       4.052000     7.927300     7.090300
H       3.799400     7.553000     7.903300
C       4.788400     9.104900     7.083100
H       5.042900     9.507200     7.883000
