83
Refcode: RIDZIN_comp_0 | Dataset: tmCAT | Charge: unknown | Potential Spins: [1, 3, 5]
Zr     -2.218100    -9.728200     0.259600
Cl     -4.583300    -9.292100    -0.176800
Cl     -1.702000   -10.610100    -1.970400
C      -0.681000    -9.817700     3.370600
C       0.192600    -8.821000     2.590000
C      -0.572400    -8.256400     1.402900
C      -0.146400    -8.293400     0.049300
C       1.182000    -8.731400    -0.533100
C       1.523000    -7.847600    -1.698800
C       0.432100    -7.851400    -2.740700
C      -0.917200    -7.314100    -2.213200
C      -1.109900    -7.623700    -0.744300
C      -2.123500    -7.135000     0.113500
C      -3.280500    -6.237500    -0.224200
C      -3.774900    -5.484100     1.030800
C      -3.932500    -6.455600     2.205800
C      -2.590700    -7.033800     2.630000
C      -1.806100    -7.551600     1.435500
C      -1.497600   -10.674300     2.435600
C      -2.908800   -10.841700     2.418800
C      -3.948300   -10.306400     3.388200
C      -5.113800   -11.242800     3.445000
C      -5.580300   -11.865700     2.292300
C      -4.616700   -12.387500     1.247600
C      -3.232900   -11.801500     1.422500
C      -2.042100   -12.237600     0.822400
C      -1.848000   -13.394000    -0.138600
C      -0.368800   -13.600300    -0.470700
C       0.558300   -13.329700     0.666100
C       0.482100   -11.912500     1.188000
C      -0.959400   -11.542600     1.438300
C       0.770800    -7.705400     3.485900
C       1.762400    -6.823500     2.724000
C       2.304300    -5.678800     3.577100
C       2.941800    -6.220000     4.865600
C       1.990700    -7.127200     5.623800
C       1.467900    -8.252500     4.738100
H      -1.261700    -9.323200     3.953000
H      -0.125300   -10.382300     3.912000
H       0.928200    -9.321300     2.230000
H       1.090800    -9.634700    -0.843800
H       1.867200    -8.713900     0.138600
H       2.325700    -8.184300    -2.106300
H       1.708600    -6.967600    -1.364800
H       0.336700    -8.717800    -3.143600
H       0.718600    -7.246000    -3.428300
H      -1.601700    -7.748300    -2.727700
H      -1.007400    -6.366000    -2.334200
H      -3.988200    -6.767100    -0.596300
H      -2.999700    -5.602900    -0.887500
H      -4.625300    -5.081100     0.843800
H      -3.157700    -4.787200     1.268000
H      -4.508400    -7.177900     1.944400
H      -4.334400    -6.011700     2.956600
H      -2.717100    -7.752200     3.255200
H      -2.085400    -6.344600     3.067300
H      -4.261700    -9.457600     3.069100
H      -3.553200   -10.172000     4.252500
H      -5.845300   -10.763900     3.843200
H      -4.861500   -11.933900     4.060900
H      -6.164700   -11.240800     1.858800
H      -6.123300   -12.607500     2.569600
H      -4.956600   -12.171400     0.375900
H      -4.560900   -13.343400     1.313600
H      -2.342600   -13.240200    -0.947100
H      -2.189200   -14.198000     0.262400
H      -0.138500   -13.024100    -1.202000
H      -0.249700   -14.507600    -0.765700
H       1.454300   -13.520500     0.378600
H       0.347400   -13.933200     1.381500
H       0.862100   -11.309000     0.545200
H       0.994700   -11.854100     1.997400
H       0.038100    -7.148600     3.761300
H       1.329900    -6.457500     1.950000
H       2.496900    -7.362800     2.421600
H       1.588800    -5.065600     3.759400
H       2.969600    -5.207700     3.070100
H       3.145600    -5.449100     5.398700
H       3.759200    -6.697000     4.700900
H       1.225800    -6.613300     5.891800
H       2.410900    -7.471800     6.415500
H       2.229300    -8.784000     4.499100
H       0.858200    -8.809300     5.227500
