34
Refcode: RIHGEU_comp_0 | Dataset: tmCAT | Charge: unknown | Potential Spins: [1, 3, 5]
Cr      1.105900     2.125700     2.365700
O      -1.239200     3.457000     3.648400
O       0.017500     2.940400    -0.290300
O       2.474400     4.769800     2.368800
O      -0.699000    -0.263100     4.247600
N      -3.414900    -0.336300     8.117400
C      -0.338900     2.908800     3.149100
C       0.443100     2.595200     0.742200
C       1.944000     3.727200     2.389400
C       1.897200     0.235900     1.499900
C       0.696400    -0.114000     2.151600
C       2.922300     0.905400     2.173200
C       2.785100     1.261800     3.527000
C       1.630200     0.964800     4.258900
C      -1.011400     0.057700     5.484000
C      -2.103000    -0.428800     6.101700
C      -2.375700    -0.029600     7.415300
C      -4.490900    -1.179200     7.587200
C      -3.585400     0.120200     9.498900
B       0.522200     0.180300     3.602100
H       2.011600     0.011700     0.583700
H      -0.001700    -0.537600     1.665700
H       3.722500     1.122800     1.709900
H       3.498900     1.718500     3.957300
H       1.544900     1.254600     5.159700
H      -0.445600     0.655500     5.958600
H      -2.681000    -1.034800     5.652800
H      -1.728100     0.524600     7.835300
H      -5.183700    -1.293200     8.271800
H      -4.128000    -2.056300     7.341100
H      -4.880700    -0.752900     6.795500
H      -4.434400    -0.217800     9.852000
H      -3.590200     1.100900     9.520500
H      -2.845800    -0.215300    10.047600
