29
Refcode: RIMRIO_comp_0 | Dataset: tmCAT | Charge: 0 | Potential Spins: [1, 3, 5]
Ti      1.479800    -0.120600     1.978500
Cl      3.107500     0.053200     3.528200
Cl      2.317800     1.137300     0.303100
Cl      2.375800    -2.001500     1.106400
Cl      0.409700     1.707100     2.822000
N      -0.445400    -0.517800     0.776800
N       0.295200    -1.418600     3.431100
C      -1.348900    -1.248400     1.636100
C      -0.855900    -1.914000     2.635100
C      -0.196300    -1.363100    -0.451700
C      -1.128000     0.694000     0.286900
C       1.032100    -2.592600     3.931300
C      -0.192600    -0.698700     4.600800
H      -1.893900    -0.760200     1.013700
H      -2.065700    -0.540300     2.026000
H      -1.662700    -2.057000     3.338400
H      -0.588900    -2.892800     2.265800
H      -1.127300    -1.517900    -0.976900
H       0.503400    -0.859500    -1.102000
H       0.211900    -2.318300    -0.156000
H      -2.013700     0.413800    -0.264800
H      -1.408400     1.301600     1.134400
H      -0.467700     1.255500    -0.356100
H       0.400100    -3.149400     4.606600
H       1.316200    -3.223900     3.101500
H       1.917700    -2.266300     4.455100
H      -0.742900    -1.373700     5.239300
H       0.647700    -0.294400     5.145100
H      -0.839500     0.107600     4.287400
