84
Refcode: RIQKAD_comp_0 | Dataset: tmCAT;tmPHOTO | Charge: 0 | Potential Spins: [1, 3, 5]
Ni      0.634800    12.864100     3.574300
N       0.180600    12.292100     1.788600
N       0.163600    11.132300     4.272000
N       0.894600    13.504900     5.369500
N       1.345600    14.515700     2.893300
N      -1.201500    11.250800    -2.156900
C       0.548700    12.923300     0.587700
C      -0.124100    12.271300    -0.506100
C      -0.896600    11.228400     0.021800
C      -0.641800    11.206000     1.456700
C      -0.940600    10.175900     2.298400
C      -0.414700    10.092600     3.593600
C      -0.368300     8.887900     4.380800
H      -0.693700     8.032400     4.126900
C       0.222900     9.205100     5.541800
H       0.424800     8.604300     6.251100
C       0.495100    10.605200     5.520000
C       0.814700    11.398200     6.623000
C       0.856200    12.771100     6.532300
C       0.892000    13.655400     7.666000
H       0.884800    13.400700     8.580300
C       0.937500    14.925800     7.183500
H       0.940800    15.725200     7.696800
C       0.979400    14.831300     5.761300
C       1.331300    15.895000     4.928700
C       1.635400    15.686800     3.584500
C       2.295100    16.606300     2.722800
H       2.585500    17.481000     2.953200
C       2.437500    16.015200     1.512900
H       2.885300    16.372400     0.756400
C       1.779300    14.746400     1.596300
C       1.414100    13.974200     0.486200
C      -1.549300    10.592400    -1.005000
H      -2.128500     9.842700    -0.932400
C      -0.322000    12.274500    -1.875700
H       0.073400    12.868900    -2.503300
C      -1.720300    10.928800    -3.481100
H      -2.609500    10.526700    -3.395800
H      -1.116000    10.297700    -3.923700
H      -1.784100    11.749100    -4.014400
C      -1.792900     9.057700     1.777700
C      -1.235700     7.921900     1.229900
H      -0.293000     7.806500     1.248000
C      -2.028200     6.944700     0.649400
H      -1.631400     6.188500     0.234000
C      -3.398600     7.080800     0.683900
H      -3.947000     6.403200     0.306600
C      -3.980500     8.189400     1.255300
H      -4.926800     8.271100     1.286100
C      -3.172800     9.185900     1.785000
H      -3.571100     9.964400     2.156900
C       0.970000    10.765400     7.969000
C       2.155700    10.892000     8.674600
H       2.880500    11.372600     8.291800
C       2.295300    10.328100     9.933500
H       3.111800    10.424200    10.408800
C       1.244000     9.626400    10.494100
H       1.348600     9.217900    11.346600
C       0.062500     9.519100     9.828300
H      -0.666600     9.062500    10.231000
C      -0.081900    10.079800     8.558500
H      -0.905100     9.990100     8.094100
C       1.456300    17.232700     5.558100
C       2.700400    17.767800     5.879200
H       3.492300    17.317600     5.610700
C       2.790300    18.962900     6.599400
H       3.642000    19.320100     6.818900
C       1.656700    19.619700     6.987600
H       1.721600    20.433500     7.471900
C       0.430200    19.102200     6.675600
H      -0.357300    19.546000     6.969400
C       0.328000    17.939200     5.937300
H      -0.530600    17.618800     5.686900
C       1.876300    14.397200    -0.885200
C       2.847100    13.655400    -1.532800
H       3.221800    12.894500    -1.106500
C       3.279000    14.017500    -2.806300
H       3.960500    13.516100    -3.238000
C       2.718700    15.102100    -3.437600
H       2.992900    15.339200    -4.315500
C       1.758000    15.840600    -2.788100
H       1.380800    16.599900    -3.216200
C       1.336600    15.492900    -1.531000
H       0.667800    16.010400    -1.099300
