125
Refcode: RIVLAK_comp_1 | Dataset: tmCAT | Charge: -1 | Potential Spins: [1, 3, 5]
C      15.538300     7.068100    12.067300
H      15.751400     8.005800    12.156900
H      16.253200     6.533400    12.455600
C      15.289300     6.693800    10.678400
H      15.951900     6.044800    10.402100
H      15.402900     7.485100    10.122000
C      13.906300     6.127100    10.428200
H      13.531400     6.466100     9.603100
H      13.933100     5.155100    10.394600
C      13.195600     6.597600    11.578200
H      12.500700     5.968800    11.824600
H      12.783400     7.456200    11.387800
C      11.872500     7.538600    18.018800
H      11.002900     7.735300    17.641700
H      12.299600     8.356600    18.317500
C      11.804100     6.426500    19.172500
H      11.486300     6.818900    19.997700
H      11.190300     5.717500    18.914900
C      13.056800     5.902500    19.351700
H      13.024500     5.031100    19.769900
H      13.610200     6.494900    19.893100
C      13.596200     5.817000    17.876900
H      14.527800     6.080000    17.828400
H      13.513900     4.907000    17.533400
C      12.732400     6.758000    17.096600
H      13.336100     7.395300    16.667200
C      14.195900     6.736600    12.683400
H      13.923000     7.448700    13.295700
C      16.327700     3.838800    16.125800
C      16.925900     4.929500    16.753100
C      17.775600     4.704900    17.914300
H      18.221100     5.420300    18.317500
C      17.899900     3.453800    18.392200
H      18.365900     3.305200    19.183700
C      17.339500     2.405900    17.708900
H      17.502600     1.537700    18.007600
C      16.579400     2.577000    16.648500
H      16.200100     1.834900    16.237800
C      15.247800     5.378600    14.408300
C      15.817200     6.383700    15.080400
H      15.662500     7.256300    14.792900
C      16.625000     6.180600    16.181800
H      17.001200     6.926900    16.577600
C      15.401000     3.999200    14.912400
C      15.549100     1.069300    12.571300
C      14.533700     0.213900    13.165000
H      14.362800    -0.636200    12.821500
C      13.885300     0.652300    14.173100
H      13.239900     0.089800    14.531500
C      14.038900     1.914000    14.811600
C      15.018100     2.865700    14.285100
C      15.759500     2.405900    13.157500
C       7.492000     3.699800    17.447600
H       7.056600     2.933100    17.731300
C       7.232500     4.886700    18.157000
H       6.658200     4.880300    18.888800
C       7.833700     6.020200    17.757400
H       7.685700     6.805000    18.224200
C       8.684400     6.020200    16.633600
H       9.062000     6.829600    16.372200
C      11.129300     2.202800    12.496700
H      11.278900     1.428600    13.079100
C       9.823200     2.063700    11.626700
H       9.523200     1.142000    11.611800
H       9.113300     2.614400    11.992600
C      10.178600     2.523500    10.226600
H       9.498500     3.135200     9.909200
H      10.202800     1.760100     9.632900
C      11.580300     3.250700    10.193000
H      11.499600     4.197000    10.379700
H      12.027200     3.124500     9.338000
C      12.364200     2.438000    11.421400
H      13.070400     2.984400    11.809700
H      12.735900     1.601800    11.115200
C      10.042700     3.464500    14.210400
C       9.373100     2.341800    14.636100
H       9.482200     1.525900    14.199200
C       8.531800     2.448700    15.730100
H       8.087700     1.688400    16.013800
C       8.311400     3.582200    16.398400
C       9.015100     4.811900    15.849500
C       9.753200     4.694200    14.863800
C       8.391900     6.469300    10.988300
H       7.823700     6.005200    10.413300
C       8.813700     7.795200    10.768000
H       8.489300     8.225100    10.010000
C       9.603300     8.458200    11.525900
H       9.836700     9.324300    11.268300
C      10.156000     7.944900    12.769200
C      12.048400     2.266900    18.892500
H      12.269900     3.145900    19.224800
H      11.443800     1.823200    19.512300
C      13.177300     1.497000    18.646100
H      13.347100     0.927100    19.411500
H      13.944900     2.094800    18.560200
C      13.100600     0.673700    17.466200
H      12.658600    -0.161500    17.660400
H      13.992300     0.490800    17.115300
C      16.369500     0.737800    11.481100
H      16.257500    -0.125100    11.145100
C      17.288400     1.475600    10.861300
H      17.741900     1.206200    10.095900
C      17.495300     2.748100    11.518400
H      18.203500     3.273100    11.223500
C      16.764300     3.207900    12.496700
H      16.895000     4.083700    12.776700
C      10.406600     6.052200    14.236600
C      11.492100     2.309700    17.507300
H      11.457200     3.234600    17.216100
H      10.583800     1.969700    17.522200
C      12.312200     1.497000    16.502900
H      11.742200     0.945300    15.931700
C       9.786900     6.597600    13.038100
C       8.926800     5.902500    12.175600
H       8.692500     5.030000    12.395900
C      11.037200     8.639900    13.620500
H      11.263100     9.509300    13.385300
C      11.567000     8.148100    14.729400
H      12.083600     8.691300    15.285700
C      11.319400     6.715200    15.076700
N      11.040500     3.485900    13.254600
N      13.202900     2.460500    15.674000
N      14.300200     5.453400    13.426400
N      12.004600     6.052200    15.995100
Y      12.647500     4.372400    14.586000
