76
Refcode: RIWREX_comp_0 | Dataset: tmCAT | Charge: unknown | Potential Spins: [1, 3, 5]
W       3.608300     9.675900     0.329800
Cl      2.565600    10.198400     3.954400
P       3.365100     8.863100     2.606500
O       5.912300     7.517500    -0.001500
O       1.436300     7.570700    -0.692800
O       4.088100    10.571200    -2.645300
O       5.722800    11.828200     1.310300
O       4.749500     8.460600     3.267900
O       4.460100     6.819600     6.569800
O       3.117700     5.331700     5.492500
O       2.426400     7.586300     2.700400
C       2.120000    11.052500     0.652900
O       1.302200    11.807500     0.857200
C       5.081900     8.285500     0.090600
C       2.208000     8.312700    -0.328700
C       3.906700    10.262500    -1.577600
C       4.973600    11.055100     0.975500
C       5.180000     8.224500     4.654500
C       5.491600     9.585300     5.284400
C       6.200700    10.512800     4.522400
H       6.432300    10.306600     3.625300
C       6.570000    11.729600     5.066200
H       7.034000    12.367900     4.536300
C       6.260300    12.013700     6.385800
H       6.523400    12.844000     6.765200
C       5.573300    11.096600     7.149300
H       5.364200    11.300300     8.054100
C       5.183000     9.874600     6.607000
H       4.711100     9.244100     7.138500
C       6.486000     7.433200     4.543900
C       6.877600     6.802700     3.373400
H       6.315900     6.833900     2.606900
C       8.084700     6.126900     3.319600
H       8.342100     5.681900     2.519300
C       8.920100     6.095700     4.424100
H       9.751400     5.636500     4.379600
C       8.547800     6.730100     5.585500
H       9.121700     6.711900     6.341200
C       7.333500     7.395600     5.653000
H       7.076400     7.827500     6.459500
C       4.031400     7.474700     5.376500
H       3.323700     8.138900     5.617700
C       4.138300     5.413400     6.488700
C       3.379200     6.347400     4.533200
H       4.042200     6.008800     3.866500
C       2.057500     6.696400     3.806600
C       1.515300     5.422500     3.132200
C       1.932000     5.051500     1.863400
H       2.559600     5.592400     1.397900
C       1.449300     3.908600     1.271900
H       1.738700     3.671200     0.397900
C       0.538600     3.093900     1.941700
H       0.200800     2.306500     1.531500
C       0.136100     3.448100     3.213600
H      -0.474300     2.895400     3.685200
C       0.617600     4.607800     3.809700
H       0.331600     4.843900     4.685300
C       0.960100     7.394300     4.619200
C      -0.074400     7.997500     3.881900
H      -0.089200     7.923500     2.935600
C      -1.066300     8.692800     4.531700
H      -1.764700     9.094900     4.027800
C      -1.057700     8.813400     5.912700
H      -1.733000     9.316800     6.352000
C      -0.059500     8.198600     6.645400
H      -0.056400     8.266000     7.593200
C       0.945100     7.477300     5.997100
H       1.619800     7.042700     6.505600
C       3.556000     4.942500     7.796000
H       2.797400     5.513300     8.040200
H       4.240100     4.993100     8.494900
H       3.249700     4.016300     7.702300
C       5.370400     4.611700     6.087800
H       5.142700     3.659500     6.046300
H       6.080800     4.750500     6.749900
H       5.682000     4.911400     5.207600
