71
Refcode: RIXWED_comp_0 | Dataset: tmCAT | Charge: 1 | Potential Spins: [1, 3, 5]
Zn      2.455800    -0.431100     9.689900
Cl      0.634400    -1.748900     9.695600
N       1.898400     0.761800     8.016400
N       4.079900    -0.789200     8.354400
N       3.971400    -0.960400    11.172600
N       2.123500     1.004100    11.204500
C       0.732600     1.365400     7.771500
H       0.015400     1.246900     8.383600
C       0.532700     2.169700     6.642100
H      -0.310000     2.581500     6.489000
C       1.561300     2.355500     5.762900
H       1.446600     2.923000     5.010400
C       2.800200     1.701300     5.975800
C       2.899900     0.886200     7.121900
C       3.945800     1.862200     5.137000
H       3.884300     2.413500     4.365000
C       5.118500     1.243800     5.420700
H       5.880200     1.405500     4.875500
C       5.217300     0.345600     6.540500
C       4.103200     0.130600     7.354200
C       6.396700    -0.343000     6.891000
H       7.200900    -0.177900     6.413900
C       6.388200    -1.247400     7.914800
H       7.186800    -1.701000     8.156900
C       5.178000    -1.508300     8.617300
C       5.088700    -2.587500     9.709200
C       4.953800    -1.866800    11.058500
C       5.801100    -2.149800    12.165700
H       6.497800    -2.790700    12.083700
C       5.604100    -1.489300    13.357800
H       6.130300    -1.713700    14.115900
C       4.626500    -0.484300    13.458000
C       3.845300    -0.249300    12.299300
C       4.409400     0.298400    14.637500
H       4.900000     0.103700    15.426200
C       3.517000     1.308700    14.643100
H       3.415700     1.838600    15.424900
C       2.715900     1.599700    13.483000
C       2.870200     0.807500    12.325700
C       1.762000     2.619400    13.449600
H       1.641800     3.181700    14.206300
C       0.994000     2.811900    12.322900
H       0.336800     3.498000    12.292300
C       1.205800     1.969800    11.224000
H       0.667200     2.092900    10.452000
C       6.339900    -3.503900     9.691100
H       7.146200    -2.936600     9.777400
H       6.306700    -4.095000    10.484000
C       6.492100    -4.373800     8.446200
H       6.424200    -3.802900     7.639400
H       5.752400    -5.031500     8.415600
C       7.826500    -5.118000     8.421100
H       8.566400    -4.460200     8.415600
H       7.886200    -5.650600     7.589300
C       7.990000    -6.047800     9.625800
H       8.102700    -5.513200    10.439500
H       8.779300    -6.614500     9.496400
H       7.194000    -6.613700     9.714800
C       3.819500    -3.477600     9.517300
H       3.012900    -2.905000     9.559000
H       3.848500    -3.893500     8.620100
C       3.702700    -4.583200    10.577200
H       4.335500    -5.310600    10.353300
H       3.966200    -4.213900    11.456300
C       2.289600    -5.168600    10.684300
H       1.653900    -4.450600    10.933300
H       2.013900    -5.529800     9.805200
C       2.233100    -6.280900    11.730300
H       2.843000    -7.003700    11.471600
H       1.319200    -6.630000    11.787400
H       2.501100    -5.923200    12.602500
