27
Refcode: RIYHAI_comp_0 | Dataset: tmCAT | Charge: unknown | Potential Spins: [1, 3, 5]
Zr      3.302400     2.152100    -0.026700
Cl      3.619400     0.769700     2.021600
Cl      1.819600     3.427100    -1.565700
Cl      3.422000     0.186200    -1.502200
O       1.285600     1.304000     0.359400
H       1.200000     0.591700     0.655500
H       0.923100     1.367500    -0.230000
C       1.060700     3.898000     1.794400
H       0.948700     4.245500     2.692300
H       0.576200     3.062000     1.707600
H       0.716900     4.539200     1.154000
O       2.448600     3.669900     1.542400
C       3.293300     4.700600     2.097400
H       3.164400     5.532300     1.594700
H       3.035100     4.867400     3.028300
C       4.671100     4.327300     2.049200
H       4.855300     3.686000     2.766600
H       5.224000     5.120200     2.207500
C       5.052100     3.721500     0.750500
C       5.716900     2.491800     0.589400
H       6.085600     1.985000     1.290400
C       5.751700     2.136700    -0.742300
H       6.139000     1.357800    -1.100300
C       5.107300     3.141600    -1.458400
H       4.977600     3.161000    -2.389300
C       4.687700     4.121800    -0.544000
H       4.236300     4.916900    -0.762900
