91
Refcode: ROBGIA_comp_0 | Dataset: tmCAT | Charge: -2 | Potential Spins: [1, 3, 5]
Pd      9.019700     4.812000     2.004600
Cl      7.857600     4.044300     0.181700
Cl     10.280000     5.609600     3.753200
O       7.932000     8.678400     0.538700
N      10.390400     2.168100     2.459700
N       8.360300     2.184900     3.171600
N       8.461700     6.763900     1.533400
C       9.306000     2.963700     2.571100
C      10.109000     0.912200     2.973200
H      10.691600     0.188200     2.997500
C       8.863100     0.922700     3.428600
H       8.415400     0.219800     3.840000
C      11.686200     2.592000     1.923000
C      12.669200     2.944200     2.831500
C      13.890900     3.413800     2.281600
H      14.580600     3.665200     2.850200
C      14.071500     3.502600     0.915300
H      14.867700     3.836800     0.572300
C      13.078500     3.097700     0.069000
H      13.217400     3.157900    -0.848200
C      11.857800     2.596500     0.538700
C      10.860100     1.964300    -0.417600
H       9.989500     1.935700     0.029800
C      10.700900     2.741000    -1.701900
H      11.468700     2.596500    -2.261100
H      10.621700     3.677200    -1.502500
H       9.910900     2.444400    -2.160500
C      11.295300     0.535900    -0.693400
H      10.564500     0.048200    -1.079300
H      11.561300     0.117400     0.128600
H      12.036100     0.538900    -1.304900
C      12.568000     2.744000     4.317200
H      11.625000     2.613000     4.552100
C      13.354500     1.466100     4.706800
H      12.886000     0.690900     4.388100
H      13.437700     1.419400     5.663100
H      14.228700     1.496200     4.311600
C      13.116100     3.892400     5.139300
H      14.056700     3.988800     4.967800
H      12.978500     3.714800     6.073200
H      12.662500     4.703700     4.898800
C       7.021000     2.656700     3.542700
C       6.919900     3.403300     4.724200
C       5.655900     3.919500     5.021800
H       5.545700     4.437300     5.784300
C       4.560600     3.674200     4.199800
H       3.740900     4.064000     4.403000
C       4.669400     2.876400     3.101800
H       3.915000     2.679300     2.592900
C       5.938500     2.339100     2.730900
C       6.019900     1.393800     1.558400
H       6.950800     1.380300     1.250800
C       5.665400    -0.022600     2.043000
H       6.221600    -0.254400     2.790500
H       5.809900    -0.650200     1.329100
H       4.743700    -0.048200     2.309600
C       5.136600     1.843900     0.371000
H       4.227400     1.937200     0.665500
H       5.180200     1.186100    -0.328100
H       5.452400     2.685300     0.037300
C       8.046900     3.555300     5.708600
H       8.890900     3.410800     5.230600
C       8.094700     4.940100     6.352800
H       8.278500     5.599300     5.679900
H       8.786000     4.959600     7.018300
H       7.249400     5.129700     6.764800
C       7.924600     2.482100     6.792700
H       7.028300     2.474500     7.137600
H       8.538900     2.674700     7.504800
H       8.130200     1.622600     6.418100
C       7.300600     7.256600     2.304000
H       7.523200     7.361900     3.241600
H       6.546100     6.651500     2.222000
C       6.998600     8.599200     1.657200
H       6.080100     8.635300     1.345900
H       7.145100     9.326200     2.283500
C       8.729500     7.589200     0.597800
C       9.773100     7.524500    -0.413800
C       9.717400     8.317700    -1.524800
H       9.006400     8.909300    -1.632900
C      10.715300     8.250000    -2.505300
H      10.655800     8.796400    -3.256600
C      11.766300     7.408600    -2.382300
C      11.843600     6.630400    -1.258300
H      12.569800     6.058400    -1.155700
C      10.868500     6.671000    -0.264700
H      10.945500     6.133700     0.492100
C      12.819300     7.372500    -3.469100
H      12.556500     7.952000    -4.188600
H      12.908800     6.475400    -3.799000
H      13.659500     7.667500    -3.111200
