51
Refcode: ROGGEC_comp_0 | Dataset: tmCAT | Charge: 0 | Potential Spins: [1, 3, 5]
Zn      2.022800     2.696900     3.131500
Cl      2.977900     0.716600     3.405800
Cl      3.228800     4.557000     3.012400
N       0.503400     2.917700     4.581600
N       0.490600     2.757000     1.736900
C       1.946300     2.621100     6.616400
H       2.716100     2.673400     6.045600
H       2.120400     2.005800     7.332900
H       1.757700     3.489600     6.979900
C       0.763400     2.142500     5.822100
H       0.905900     1.213600     5.582700
H      -0.025400     2.183600     6.384200
C      -0.967800     4.706300     5.674900
H      -1.747400     4.347400     5.244700
H      -1.050400     5.660500     5.742100
H      -0.885300     4.329600     6.553900
C       0.263500     4.361400     4.859100
H       0.201200     4.826100     4.010200
H       1.039300     4.712400     5.323800
C      -0.630200     2.298700     3.866200
H      -1.447100     2.462500     4.363900
H      -0.494600     1.339000     3.826000
C      -0.788200     2.836800     2.461900
H      -1.462400     2.323400     1.990300
H      -1.083800     3.760500     2.498800
C       0.483000     2.979500     0.483300
C      -0.709400     3.386200    -0.349300
H      -1.108500     4.205900    -0.019100
H      -1.382400     2.687700    -0.368000
C      -0.080700     3.589600    -1.727400
H      -0.716000     3.587800    -2.474200
C       0.826200     4.842200    -1.648400
H       1.154200     5.092500    -2.526200
H       0.350100     5.594300    -1.262200
C       1.943000     4.404100    -0.764400
H       1.956700     4.925100     0.054200
H       2.796300     4.506300    -1.213600
C       1.663700     2.924400    -0.459400
C       0.961900     2.471700    -1.769200
C       0.363800     1.080800    -1.704600
H      -0.217100     0.946800    -2.456500
H      -0.138300     0.986200    -0.891400
H       1.067700     0.428300    -1.723100
C       1.862700     2.497500    -3.014500
H       2.465900     1.751600    -2.988800
H       2.365700     3.315500    -3.027700
H       1.319200     2.443500    -3.803500
C       2.848800     2.090800     0.014400
H       3.314200     2.562600     0.708700
H       3.445000     1.934800    -0.721800
H       2.533100     1.250400     0.354200
