69
Refcode: ROJZOG_comp_0 | Dataset: tmCAT | Charge: 0 | Potential Spins: [1, 3, 5]
Pd      3.917100     3.361000    10.095200
C       5.707000     3.786800    10.969300
H       6.281800     2.969000    10.921500
C       5.656000     4.261100    12.451000
H       6.053400     3.552200    13.034600
C       6.616500     5.472000    12.403100
H       6.578900     6.058000    13.212800
C       8.054300     5.010900    12.013000
H       8.678800     5.782700    12.133300
C       7.933900     4.707700    10.498100
H       8.495000     5.323200     9.962800
H       8.195900     3.774200    10.297700
C       6.433900     4.937100    10.223500
H       6.187500     5.043800     9.259900
C       6.169200     6.162600    11.103700
H       5.214800     6.426700    11.118500
H       6.736600     6.937100    10.865500
C       4.277700     4.652600    13.005700
H       4.372800     4.955600    13.932900
H       3.681800     3.875200    12.975600
H       3.900500     5.375900    12.462500
C       8.564400     3.849900    12.829900
O       8.574300     2.689500    12.505400
O       9.009700     4.273200    14.019600
C       9.581200     3.255400    14.871400
H       8.925100     2.541300    15.013900
H       9.826700     3.649900    15.734000
H      10.381000     2.882900    14.444700
Cl      3.031300     5.501400     9.692400
P       4.217200     1.121100     9.923500
C       2.755900     0.865600     8.725700
C       1.629000     1.822100     9.180200
H       0.865000     1.739800     8.571400
H       1.958600     2.744800     9.167900
H       1.348400     1.588200    10.089300
C       2.189900    -0.561400     8.630700
H       1.485100    -0.588400     7.950400
H       1.816400    -0.823000     9.498500
H       2.907400    -1.181600     8.383100
C       3.124400     1.343400     7.305400
H       3.786500     0.733600     6.916900
H       3.500300     2.246700     7.352400
H       2.321000     1.352200     6.744400
C       3.906700     0.143900    11.522500
C       2.483200     0.414600    12.040000
H       2.386800     0.039400    12.939700
H       1.832600    -0.005400    11.439000
H       2.324900     1.381200    12.070000
C       4.845200     0.719300    12.600600
H       4.708800     0.237000    13.442800
H       4.646200     1.670600    12.732700
H       5.775700     0.617600    12.311500
C       4.101900    -1.375500    11.416600
H       5.033100    -1.569700    11.180300
H       3.507300    -1.734300    10.724600
H       3.890100    -1.793500    12.277000
C       5.823800     0.481600     9.108400
C       6.339000     1.580800     8.159800
H       6.589700     2.371300     8.682000
H       5.634200     1.819600     7.523500
H       7.122400     1.250600     7.671500
C       6.947500     0.218600    10.127800
H       7.768900    -0.025500     9.652300
H       6.684100    -0.515500    10.723200
H       7.104800     1.027800    10.657100
C       5.624800    -0.825200     8.314300
H       5.001800    -0.667000     7.575200
H       5.259800    -1.514800     8.906300
H       6.486700    -1.124300     7.956100
