69
Refcode: RONLAJ_comp_0 | Dataset: tmCAT | Charge: 0 | Potential Spins: [1, 3, 5]
Pd      8.071300    10.731500    13.392700
P       7.471100    12.399400    14.784500
S       5.417700     9.600100    14.516800
O       6.867300     9.293300    14.455600
O       4.913900    10.196600    13.290800
C       4.546500    13.617900    13.054800
H       4.268500    14.460900    13.468500
H       4.386800    12.878100    13.677700
H       4.029300    13.470800    12.235500
O       4.682800     8.442900    14.974500
C       8.787100    12.951100    15.971500
H       8.477300    13.824400    16.346300
C       5.235400    10.852000    15.785000
C       6.068700    11.982100    15.908100
C       3.932300    11.557400    17.696900
H       3.204300    11.418200    18.290500
N       8.717800     9.153400    12.110600
C       9.768100     8.383800    12.484700
C       4.182300    10.651800    16.683600
H       3.631000     9.883500    16.595100
C       5.807200    12.866300    16.961900
H       6.367500    13.623500    17.079500
C       8.989500    12.006100    17.180500
H       9.721900    12.368800    17.740000
H       8.165500    12.019400    17.726800
C      10.103600    13.242600    15.231100
H      10.580500    12.390000    15.069200
H       9.898100    13.646200    14.351400
C       9.315700    10.561500    16.845900
H      10.108000    10.529900    16.271400
H       8.556700    10.155100    16.379300
H       9.493100    10.065900    17.674000
C       6.972100    13.959800    13.909100
H       7.817800    14.294000    13.492700
C      10.434800     8.700900    13.781200
H       9.782000     8.634400    14.507800
H      10.797100     9.610500    13.748100
H      11.163500     8.064300    13.937500
C       6.489900    15.126100    14.795500
H       5.600300    14.905100    15.170500
H       7.119000    15.241800    15.551400
C       8.095300     8.921000    10.930700
C       6.396400    16.432400    14.018100
H       5.712700    16.349400    13.321000
H       7.262200    16.629400    13.605000
H       6.153300    17.159900    14.628900
C      10.206300     7.345100    11.675100
H      10.920500     6.788400    11.962500
C      11.013600    14.183700    16.010500
H      11.203600    13.798900    16.892300
H      10.569600    15.050800    16.121700
H      11.853400    14.306800    15.520600
C       4.742900    12.664000    17.844600
H       4.579000    13.285500    18.543700
C       9.606400     7.120800    10.453300
H       9.918900     6.430500     9.881700
C       6.036100    13.682900    12.713300
H       6.172300    14.394500    12.037300
H       6.302400    12.824300    12.299300
C       8.543000     7.917200    10.076800
H       8.119700     7.780000     9.236600
C       6.909800     9.766100    10.602400
H       7.179700    10.708100    10.568700
H       6.223200     9.648600    11.290900
H       6.548400     9.498700     9.732000
C       9.259700    11.960300    12.278400
H       9.234300    11.677100    11.341500
H      10.180900    11.911900    12.609800
H       8.934800    12.882300    12.350000
