93
Refcode: RUBNUZ_comp_0 | Dataset: tmCAT | Charge: 1 | Potential Spins: [1, 3, 5]
Ni      9.173000     9.502500    12.870900
P      10.288900    10.361800    11.234600
P       7.396200    10.601100    12.192000
F      11.848200     8.309600    13.686300
F      10.770900     9.671200    14.996200
O       8.407200     8.547100    14.352000
C       7.997500     4.584100    13.149700
C      11.791200    11.336700    11.674200
C       9.193300    11.537300    10.332100
C       7.704400    11.190800    10.489300
C       5.701400     8.596500    11.208400
C      10.824100     9.134300     9.966100
C      10.620300     8.747900    14.007700
C       9.497200     7.872400    14.068600
C      12.543800    11.845900    10.449200
C       5.313100     9.326100    13.583600
C       9.640900     8.343400     9.391300
C       5.748500     9.777800    12.173500
C      12.711800    13.275600    13.004100
C      13.475900    13.769300    11.806700
C      12.370200     7.206800     9.402100
C      11.192400     6.432400     8.849000
C       4.298800     7.993800    11.168500
C       7.932700    13.394500    15.270900
C      11.448400    12.505000    12.617600
C       7.844900    12.011500    14.610700
C       7.308400    12.158200    13.182200
C      11.909800     8.180300    10.492900
C       5.927600    12.836400    13.168800
C       9.413600     6.479400    13.592400
C      13.804800    12.615900    10.845500
C       6.036200    14.215500    13.850400
C      10.117900     7.374500     8.319800
C       3.905100     8.717400    13.541600
C       6.578700    14.095200    15.247300
C       8.148600     5.896900    13.539400
C       3.833800     7.559100    12.533200
C       9.097300     3.847000    12.768200
C      10.349300     4.400200    12.816700
C      10.519900     5.719100    13.228500
H       7.135400     4.187100    13.144000
H      12.408100    10.725700    12.170100
H       9.350500    12.453300    10.673300
H       9.429600    11.527000     9.370600
H       7.454400    10.487200     9.840400
H       7.152500    11.991400    10.306900
H       5.958000     8.899100    10.302200
H       6.350400     7.906500    11.496800
H      11.227500     9.650400     9.210900
H      11.950600    12.437500     9.923300
H      12.795000    11.078300     9.876400
H       5.953500     8.655000    13.929900
H       5.319300    10.102500    14.197700
H       9.194000     7.840800    10.117500
H       8.981400     8.971000     9.001100
H       5.081000    10.450800    11.855400
H      12.459000    14.049400    13.568300
H      13.299200    12.687200    13.541600
H      14.317900    14.197200    12.105900
H      12.939200    14.451900    11.330900
H      12.807000     7.710800     8.670800
H      13.033200     6.576000     9.779300
H      10.808700     5.863200     9.561700
H      11.501900     5.841800     8.118100
H       3.667400     8.664500    10.806400
H       4.296900     7.212700    10.559000
H       8.236300    13.293900    16.208000
H       8.598400    13.946900    14.791100
H      10.812100    13.116100    12.168500
H      11.012800    12.153700    13.433600
H       8.741700    11.592900    14.590600
H       7.242600    11.427900    15.135500
H       7.926600    12.799600    12.727500
H      12.684200     8.707300    10.811100
H      11.553000     7.667700    11.260400
H       5.272300    12.273400    13.651200
H       5.615200    12.945600    12.235900
H      14.444600    11.998000    11.279200
H      14.236200    12.979300    10.031400
H       6.630600    14.799700    13.316200
H       5.140600    14.637300    13.881400
H       9.348900     6.842400     7.992800
H      10.481600     7.886700     7.554400
H       3.663300     8.385100    14.441900
H       3.251400     9.417000    13.286400
H       5.938100    13.586400    15.804100
H       6.673200    14.999400    15.639700
H       7.383800     6.409300    13.773400
H       4.399500     6.812000    12.851200
H       2.901000     7.232400    12.473800
H       8.986800     2.952300    12.469100
H      11.104700     3.880700    12.567800
H      11.390500     6.098300    13.261400
