79
Refcode: RUCBEY_comp_0 | Dataset: tmCAT | Charge: 0 | Potential Spins: [1, 3, 5]
C       5.716500     8.434100     9.875100
H       4.916800     7.941600     9.596900
H       6.454700     8.233000     9.263300
H       5.530500     9.395600     9.857800
C       6.106300     8.013700    11.306100
H       6.973400     8.428600    11.544600
H       5.423300     8.343900    11.942100
C       6.219200     6.509800    11.427100
H       6.731700     6.164300    10.642400
C       4.876800     5.843800    11.449500
C       3.730100     3.798800    11.112500
H       3.135500     4.180300    10.435100
H       3.302800     3.857000    11.993900
H       3.909200     2.858100    10.900000
C       4.836000     4.824100    14.548300
H       5.052900     4.081800    13.996900
C       3.878000     4.664500    15.526400
H       3.441600     3.827900    15.642200
C       3.564900     5.738400    16.335200
H       2.925200     5.648200    17.031700
C       4.195100     6.938500    16.110600
H       3.979500     7.698800    16.637700
C       5.144100     7.025900    15.113400
H       5.579600     7.857000    14.964800
C       9.481000     6.860800    10.658900
C       9.750200     8.177500    11.079700
C      10.217600     9.163900    10.222500
H      10.428800    10.029700    10.552600
C      10.370500     8.862800     8.876200
C      10.033900     7.593300     8.400900
H      10.113400     7.400500     7.474600
C       9.586000     6.622200     9.268500
C       9.548500     4.983600     7.505700
H       9.302000     4.045700     7.372600
H      10.511900     5.091800     7.364000
H       9.059800     5.545500     6.868000
C      10.262200     9.446900    13.030900
H       9.982700    10.321000    12.686900
H      11.214100     9.311000    12.844200
H      10.110200     9.412300    13.998700
C      11.163100    11.063300     8.423400
H      11.458400    11.615500     7.668200
H      11.888000    10.993900     9.080100
H      10.381000    11.476700     8.843400
C       9.277900     3.864000    11.596400
C      10.548400     3.490700    10.832600
H      11.329000     3.633700    11.408100
H      10.626500     4.051300    10.032400
H      10.505700     2.548700    10.568100
C       8.037000     3.396400    10.827400
H       7.957400     3.907000     9.994400
H       7.238000     3.542100    11.376900
H       8.121800     2.443200    10.620000
C       9.303200     3.135600    12.942700
H       9.336200     2.168500    12.790600
H       8.495200     3.358900    13.449100
H      10.094900     3.413100    13.449100
C      10.647500     6.004800    13.051600
C      11.866100     6.047800    12.369000
H      11.872300     5.904900    11.430500
C      13.071800     6.296100    13.020500
H      13.888700     6.303000    12.534900
C      13.063600     6.533400    14.384100
H      13.876600     6.713700    14.840300
C      11.866600     6.507000    15.084000
H      11.870700     6.676300    16.019000
C      10.660100     6.237800    14.448000
N       5.471300     5.978400    14.346400
O       4.972400     4.532700    11.131500
O       3.829000     6.372400    11.719100
O       9.504700     8.424800    12.396900
O      10.816300     9.751300     7.950900
O       9.213900     5.381000     8.848500
O       8.250100     5.346600    14.952000
O       9.641400     5.989500    16.810200
O       8.717500     7.696200    15.350300
P       9.130500     5.694200    12.026200
Pd      7.218000     5.957800    13.160900
S       9.210000     6.341500    15.483700
