119
Refcode: RUKBIK_comp_0 | Dataset: tmCAT | Charge: unknown | Potential Spins: [1, 3, 5]
C       3.952900    12.842100     9.082400
H       3.963300    13.659100     8.596800
C       3.722500    11.649300     8.371000
C       3.624900    10.487700     9.065400
H       3.459500     9.673200     8.606500
C       3.771900    10.492500    10.466200
C       3.605600     9.314100    11.291700
H       3.296200     8.502000    10.903200
C       3.891600     9.362300    12.622100
H       3.768700     8.581500    13.151400
C       4.374700    10.564800    13.250900
C       4.825200    10.627500    14.554600
H       4.810500     9.849100    15.096000
C       5.293100    11.813100    15.074200
C       5.192300    12.974700    14.265700
H       5.433100    13.810900    14.644500
C       4.417600    11.743200    12.461900
C       4.103500    11.699900    11.085300
C       3.564100    11.697500     6.894900
C       4.232600    12.651800     6.127800
H       4.795000    13.283100     6.557500
C       4.090700    12.692700     4.748800
C       3.293100    11.764900     4.095700
H       3.216300    11.772200     3.148800
C       2.605100    10.820300     4.858000
C       2.740300    10.779300     6.234600
H       2.268600    10.123800     6.737100
C       4.810700    13.692800     3.974300
C       1.736800     9.808100     4.173400
C       5.888200    11.924000    16.419200
C       5.500800    11.063700    17.453400
H       4.821000    10.415400    17.305300
C       6.114300    11.160100    18.689200
C       7.101200    12.097500    18.948900
H       7.494600    12.160200    19.810800
C       7.492800    12.926500    17.941400
C       6.891800    12.837300    16.693500
H       7.179100    13.422900    16.001600
C       5.706500    10.164800    19.772000
C       8.547200    13.972400    18.152600
C       3.198100    17.126900     8.375900
C       3.718400    18.184800     9.334900
C       4.025600    16.943700     7.159600
H       4.968500    16.861800     7.414500
H       3.913900    17.714900     6.567200
H       3.743500    16.129200     6.691000
C       1.755400    17.307600     7.968000
H       1.466700    16.536500     7.436300
H       1.668000    18.124600     7.431500
H       1.195400    17.382300     8.766800
C       4.436900    19.336700     8.808000
H       4.692600    19.924700     9.548500
H       3.859400    19.823500     8.186500
H       5.240600    19.033100     8.339500
C       2.591000    18.770400    10.242900
H       2.050200    18.037800    10.607000
H       2.020100    19.363200     9.711200
H       2.993700    19.274100    10.978500
C       4.611100    18.177600    14.132200
C       5.565600    17.237700    14.918800
C       5.346900    19.182500    13.267900
H       5.962600    18.710200    12.668200
H       5.854300    19.797000    13.838400
H       4.700400    19.691000    12.736200
C       3.557000    18.859600    14.981900
H       3.034600    19.474100    14.426000
H       3.992100    19.360800    15.703000
H       2.961000    18.184800    15.367900
C       6.886600    17.842600    15.321800
H       7.398900    17.191900    15.843800
H       6.727700    18.645100    15.863200
H       7.392200    18.088400    14.518200
C       4.914000    16.570200    16.135100
H       4.053200    16.182200    15.872900
H       4.770500    17.237700    16.839200
H       5.501900    15.861700    16.472600
C       7.220400    13.938600     9.567900
H       8.199800    13.796400     9.563100
H       6.796700    13.044600     9.592200
C       6.844800    14.586900     8.252100
H       5.877600    14.743500     8.230200
H       7.098300    13.996500     7.511600
H       7.316700    15.442400     8.162200
C       7.517800    16.570200    11.017300
H       6.956600    17.098000    10.395800
H       7.486900    17.011200    11.901000
C       8.964700    16.587100    10.509900
H       9.529000    16.056900    11.109600
H       9.291300    17.510000    10.485600
H       8.999300    16.206300     9.606800
C       7.937300    13.916900    12.398700
H       7.441600    13.131300    12.741100
H       8.699300    13.569900    11.874300
C       8.520200    14.644700    13.612600
H       9.086400    15.384500    13.309200
H       9.056300    14.018200    14.144300
H       7.789600    14.996600    14.166200
B       4.146300    16.112300    10.274400
B       4.779100    16.158100    13.003300
N       4.158000    12.887900    10.386100
N       4.777600    12.948200    13.005700
O       3.282200    15.904400     9.169800
O       4.554200    17.435600    10.252600
O       3.947800    17.247600    13.226600
O       5.808800    16.169700    13.950100
F       4.569400    13.767500     2.787100
F       4.596200    14.866400     4.316600
F       6.023700    13.661500     4.059300
F       2.455500     8.812900     3.634400
F       1.038400    10.309400     3.209500
F       0.926400     9.196000     4.998800
F       6.545700     9.306900    19.985600
F       5.476300    10.813000    20.949400
F       4.536500     9.675600    19.599600
F       9.522600    13.876000    17.237300
F       9.139900    13.878400    19.330100
F       8.063400    15.204300    18.055500
Si      6.776400    14.828400    11.178500
Ir      4.481900    14.643300    11.663900
