47
Refcode: RUKJIS_comp_0 | Dataset: tmCAT;tmPHOTO | Charge: unknown | Potential Spins: [1, 3, 5]
Cl      7.502900    -0.709700     4.433300
Au      7.672600     1.200500     5.694700
O       8.294000     4.173200    13.792900
O       6.787100     2.354200    15.438400
O       4.627800     1.797800    17.397400
N       8.395100     3.022000     7.981200
N       7.799800     4.136500     6.240000
N       9.117000     6.274000     9.676200
N       9.562200     6.565800    10.877800
N       9.782900     5.405300    11.508200
C       7.933600     2.893300     6.721900
C       8.562900     4.375700     8.284100
C       8.181100     5.069500     7.178100
H       8.177900     6.014300     7.072600
C       8.651800     1.907300     8.881500
H       8.297700     1.082400     8.488100
H       8.212500     2.074800     9.741700
H       9.617400     1.815600     9.019900
C       7.325300     4.481200     4.902600
H       8.079600     4.475100     4.276300
H       6.921600     5.374000     4.918800
H       6.656400     3.825300     4.614900
C       9.042500     4.919100     9.541500
C       9.480800     4.345200    10.723300
H       9.552600     3.421700    10.934300
C      10.212600     5.411700    12.908900
H      10.750800     6.223900    13.084800
H      10.784100     4.622400    13.081500
C       9.021000     5.385800    13.845100
H       9.338200     5.530300    14.771200
H       8.415200     6.133900    13.613300
C       8.867300     3.141000    14.600000
H       9.037100     3.482300    15.512800
H       9.729800     2.849500    14.211200
C       7.917400     1.983200    14.657500
H       7.628600     1.737500    13.742200
H       8.365000     1.199100    15.063500
C       5.721200     1.434800    15.294100
H       5.984400     0.560900    15.676300
H       5.526300     1.303100    14.331800
C       4.493300     1.935500    15.988800
H       4.348500     2.887900    15.760500
H       3.704800     1.421300    15.679600
C       3.424200     2.170900    18.059700
H       3.237000     3.117200    17.887900
H       3.522400     2.025500    19.022600
H       2.683500     1.625400    17.721100
