81
Refcode: RURMOI_comp_0 | Dataset: tmCAT | Charge: unknown | Potential Spins: [1, 3, 5]
Ir     11.361200    11.463200    10.851500
P      12.002100     9.454500    11.688000
C      13.789700     9.679800    11.899000
C      14.314300    10.907100    11.488300
P      10.997000    13.735500    10.947300
C      14.463400    13.441800    13.003500
H      15.208600    12.852200    13.005000
C      14.436600    14.502800    13.901900
H      15.156600    14.623600    14.511300
C      13.378000    15.379600    13.918200
H      13.357600    16.099400    14.537900
C      12.334400    15.198200    13.013900
H      11.604200    15.806400    13.012400
C      12.348000    14.140100    12.115500
C      13.425900    13.220200    12.099100
C      11.888000     7.807200    10.830100
H      12.242700     7.115100    11.458700
C      11.364400     9.091800    13.393400
H      11.607700     8.150600    13.626200
C      15.710800    11.034700    11.463100
H      16.099900    11.829900    11.117700
C      16.535200    10.021900    11.930100
H      17.478400    10.137500    11.916800
C      15.996600     8.845000    12.416400
H      16.560500     8.170100    12.773700
C      14.627200     8.664100    12.374900
H      14.250600     7.844200    12.671400
C       9.438600    14.303000    11.781900
H       9.578000    15.247500    12.076900
C      11.453700    10.623300     7.653000
H      11.046600    11.355200     7.144400
H      10.751800    10.019700     7.974700
H      12.071400    10.127700     7.076200
C      13.184300    12.079400     8.539500
C      13.523500    12.497800     7.261600
H      13.081700    12.137800     6.499500
C      14.524700    13.454100     7.117800
H      14.776800    13.741900     6.247500
C      15.154300    13.987300     8.222300
H      15.824700    14.651500     8.117000
C      14.798800    13.544800     9.497300
H      15.243900    13.910000    10.251900
C      13.812500    12.582300     9.695900
C      13.380300    12.061300    11.092500
H      11.041600    11.671900    12.216300
C      12.754100     7.778200     9.580300
H      12.647500     6.914200     9.129600
H      13.692800     7.902000     9.829300
H      12.477900     8.498200     8.975400
C       9.839700     9.233000    13.485300
H       9.590400    10.173400    13.366700
H       9.534900     8.923700    14.364500
H       9.419100     8.692700    12.784100
C      12.032700    10.028000    14.416400
H      12.982700     9.800700    14.495000
H      11.597900     9.921800    15.288100
H      11.940900    10.956000    14.116900
C      10.440100     7.437800    10.508400
H      10.015900     8.174700    10.022100
H       9.951200     7.274200    11.343000
H      10.424300     6.629400     9.956800
C       9.128300    13.466100    13.028700
H       8.937700    12.542000    12.763300
H       8.347400    13.842200    13.488300
H       9.899700    13.480700    13.632100
C       8.234200    14.284100    10.841900
H       8.357000    14.955900    10.140700
H       7.421700    14.486900    11.350500
H       8.152200    13.396500    10.434200
C      11.283300    14.933900     9.547700
H      12.260200    14.882800     9.338600
C      10.556700    14.509500     8.265300
H      10.930200    14.997800     7.501700
H       9.601600    14.713400     8.348300
H      10.674200    13.547500     8.127400
C      11.006300    16.393400     9.888700
H      11.331300    16.966800     9.163700
H      11.467000    16.628400    10.721800
H      10.041500    16.525700    10.001300
Cl      9.088100    10.793100    10.213900
O      12.175700    11.162900     8.777200
