45
Refcode: RUWQIJ_comp_0 | Dataset: tmCAT | Charge: 1 | Potential Spins: [1, 3, 5]
Zr      0.907300    11.774800    -3.511100
O      -1.280600    11.915200    -3.974300
B       1.425400    14.236100    -3.143600
C       1.745000    12.318800    -5.817200
C       0.788600    11.388900    -5.958700
C       1.212800    10.200100    -5.363100
C       2.515700    10.459000    -4.815600
C       2.856500    11.766600    -5.130800
C       1.224800     9.787900    -2.064600
C       2.154400    10.756200    -1.672000
C       1.442300    11.791500    -1.073700
C       0.079700    11.531700    -1.137800
C      -0.033000    10.257700    -1.754800
C      -1.903600    13.135600    -4.596600
C      -3.131300    12.662000    -5.283000
C      -2.931900    11.178000    -5.494000
C      -2.178700    10.756200    -4.252000
C       4.175500    12.395500    -4.877000
C      -1.032900    12.366700    -0.627700
H       1.966300    13.325400    -3.178300
H       0.266200    13.603400    -3.365300
H       1.757400    14.955100    -3.899500
H       1.423100    14.763400    -2.136700
H       1.684500    13.219000    -6.132300
H      -0.053700    11.517300    -6.402100
H       0.726400     9.370900    -5.325700
H       3.056600     9.836800    -4.321500
H       1.425200     8.944300    -2.478600
H       3.106200    10.712100    -1.789500
H       1.836600    12.567100    -0.675700
H      -0.857100     9.795600    -1.925700
H      -1.299100    13.531500    -5.232300
H      -2.124200    13.778800    -3.920900
H      -3.240400    13.110600    -6.124300
H      -3.904900    12.821100    -4.732800
H      -2.415400    11.012100    -6.284600
H      -3.776000    10.723600    -5.560800
H      -2.784400    10.609500    -3.520200
H      -1.673300     9.958600    -4.412300
H       4.730600    11.783800    -4.385600
H       4.595200    12.610200    -5.713000
H       4.052000    13.196900    -4.364200
H      -1.870500    11.934400    -0.811900
H      -1.011400    13.223800    -1.057700
H      -0.937000    12.481800     0.320500
