50
Refcode: SABTIB_comp_0 | Dataset: tmCAT | Charge: 0 | Potential Spins: [1, 3, 5]
Pd      2.725900     9.786400    16.865700
S       4.884600     9.081900    17.103400
Cl      2.848200    10.867700    18.977400
N       0.806100    10.401400    16.343500
C       0.338600     9.833300    15.288600
H      -0.528800     9.990400    14.991800
N       3.233300     7.988100    14.438000
C       2.468000     8.810000    15.189700
C       0.442600    12.831700    16.655200
C       2.469000     7.519800    13.357800
C       4.953700     7.570100    18.028000
C       0.029700    11.445800    17.059400
H       0.159200    11.340100    18.015400
H      -0.913100    11.327000    16.869900
C       0.717600    13.777500    17.627900
H       0.708700    13.528700    18.522800
C       4.571200     7.514700    14.781200
H       5.011600     7.210500    13.972700
H       4.490600     6.754300    15.377100
C       0.258700     7.762500    12.456600
H      -0.605900     8.103900    12.492400
C       1.215000     8.952000    14.600100
C       5.139900     5.265600    19.550300
H       5.201300     4.498200    20.072500
C       1.204500     8.131100    13.429400
C       5.424100     8.551100    15.433900
H       5.450700     9.331700    14.857000
H       6.327300     8.206700    15.499200
C       0.836300    14.546000    15.008600
H       0.885400    14.792700    14.113700
C       2.833700     6.639500    12.351400
H       3.690800     6.281900    12.307100
C       0.511800    13.236600    15.351800
H       0.338300    12.621200    14.675900
C       3.835200     6.962800    18.524900
H       2.996500     7.328400    18.356500
C       6.180900     7.027200    18.297500
H       6.953600     7.436200    17.983800
C       1.004300    15.084800    17.288900
H       1.146600    15.713300    17.958500
C       1.081400    15.467600    15.983500
H       1.299100    16.343800    15.760300
C       0.612600     6.903300    11.462800
H      -0.005200     6.704900    10.797400
C       6.260800     5.858900    19.049200
H       7.092600     5.476100    19.211300
C       1.870900     6.315100    11.414400
H       2.065900     5.698700    10.746900
C       3.938800     5.816600    19.274500
H       3.166300     5.411700    19.596700
