99
Refcode: SADVOJ_comp_0 | Dataset: tmCAT | Charge: 0 | Potential Spins: [1, 3, 5]
Pd     12.435400     9.233700     3.567400
P      11.639500     7.136000     4.006000
P      12.736600    11.482900     3.214700
O      14.769700     7.382500     5.334000
O      13.518500     3.873800     2.513300
O      14.882000     9.864300     1.183200
O      16.332400    13.140700     4.185100
C      12.781600     5.717800     4.465100
H      12.884500     5.723200     5.430100
H      12.332900     4.890700     4.230400
C      10.690700     6.452500     2.505000
C       9.612900     7.454000     2.085000
H       9.340300     7.271700     1.183200
H       9.966400     8.345000     2.138500
H       8.856800     7.374800     2.671100
C      10.077400     5.071700     2.645000
H       9.650000     4.825500     1.821500
H       9.428700     5.080800     3.353300
H      10.766000     4.435400     2.850900
C      11.722900     6.416900     1.379500
H      12.414700     5.788500     1.600500
H      12.107000     7.289600     1.269700
H      11.297600     6.148400     0.562800
C      10.535500     7.117400     5.568700
C       9.349100     8.042400     5.371100
H       8.921200     8.199100     6.215200
H       8.723100     7.635600     4.765700
H       9.650600     8.876500     5.005900
C      11.413100     7.711200     6.676400
H      11.727700     8.577100     6.406000
H      12.162500     7.133300     6.834300
H      10.897400     7.795200     7.482100
C      10.048200     5.743300     6.020300
H       9.653000     5.815200     6.893300
H      10.789600     5.135500     6.054600
H       9.393300     5.415200     5.399900
C      14.163300     5.680600     3.855700
C      15.168900     6.534100     4.312800
C      16.458000     6.482400     3.824100
H      17.108300     7.066600     4.143900
C      16.766600     5.552000     2.857800
H      17.630400     5.522600     2.513300
C      15.820500     4.662600     2.388400
H      16.042500     4.033400     1.740500
C      14.534900     4.723000     2.901700
C      15.629700     8.477000     5.637300
H      16.462200     8.143900     5.979100
H      15.213900     9.038000     6.296200
H      15.792800     8.986800     4.839900
C      13.838000     2.813000     1.622400
H      14.075000     3.174500     0.765900
H      13.077400     2.235200     1.527700
H      14.578400     2.312400     1.973800
C      14.312400    12.195500     2.506400
H      14.195600    12.281100     1.546900
H      14.421900    13.089900     2.863300
C      12.565800    12.406800     4.861800
C      11.510600    12.158400     1.943600
C      12.648100    13.916100     4.830200
H      12.670700    14.252900     5.729300
H      11.879600    14.269400     4.375900
H      13.445100    14.184200     4.367700
C      11.251100    11.994200     5.553600
H      11.252300    12.313200     6.459500
H      11.175300    11.036500     5.550900
H      10.507000    12.374800     5.081400
C      13.702300    11.854400     5.732100
H      14.547200    12.129500     5.369700
H      13.656100    10.895100     5.747200
H      13.613000    12.192400     6.627000
C      11.714500    11.282500     0.695900
H      11.566100    10.361500     0.923800
H      12.612000    11.391900     0.372000
H      11.093100    11.547600     0.013700
C      10.091200    11.962100     2.433700
H       9.905400    12.587600     3.136400
H       9.988500    11.066700     2.765800
H       9.479200    12.105500     1.707500
C      11.700600    13.622900     1.529100
H      11.090500    13.836000     0.819500
H      12.601500    13.755100     1.227100
H      11.528100    14.193400     2.281300
C      15.593800    11.434200     2.753500
C      16.578900    11.925400     3.601700
C      17.769000    11.223600     3.806300
H      18.415500    11.552600     4.386900
C      17.971500    10.046400     3.141900
H      18.761000     9.574200     3.279200
C      17.020200     9.547700     2.267600
H      17.177300     8.756300     1.805000
C      15.846500    10.230000     2.093200
C      14.845800     8.477800     0.815300
H      15.681700     8.232400     0.410400
H      14.132800     8.331100     0.189400
H      14.700000     7.942600     1.599100
C      17.337800    13.698900     5.016900
H      17.512200    13.104000     5.751300
H      17.039000    14.545800     5.356000
H      18.142000    13.823100     4.507700
