92
Refcode: SAGXED_comp_0 | Dataset: tmCAT | Charge: unknown | Potential Spins: [1, 3, 5]
Ru      4.389900     0.430700     3.996600
P       2.064400     0.590400     4.097000
P       4.997400    -1.291200     2.512100
O       4.093900    -0.730800     5.754300
O       4.790200     2.416200     1.819000
C       4.601600     1.601900     2.651400
C       5.149900     1.799000     5.425500
C       6.249800     1.017900     4.940500
C       6.903100     0.005400     5.702300
C       8.265800    -0.217500     5.533200
C       8.998800    -1.041500     6.380500
C       8.373600    -1.652300     7.456300
C       7.028100    -1.544000     7.614200
C       6.265300    -0.762900     6.726100
C       4.811900    -0.878600     6.765100
C       4.132100    -1.281500     8.067600
C       1.511000     0.880800     5.821200
C       1.948000     2.002600     6.493800
C       1.686100     2.199800     7.850200
C       0.974900     1.237600     8.548800
C       0.547900     0.118900     7.930100
C       0.800300    -0.106100     6.560700
C       1.274000     1.969400     3.192100
C       0.375200     2.851300     3.771800
C      -0.242900     3.843500     3.021200
C       0.063600     3.984900     1.664800
C       0.936200     3.100900     1.075800
C       1.545400     2.101200     1.811600
C       0.984000    -0.819700     3.634300
C      -0.235800    -0.669700     2.998900
C      -1.016800    -1.755100     2.675600
C      -0.597200    -3.033400     2.993300
C       0.597700    -3.200600     3.639900
C       1.396200    -2.108700     3.944600
C       4.312700    -1.230100     0.797100
C       2.949700    -1.270800     0.618700
C       2.400500    -1.302900    -0.648500
C       3.213500    -1.211900    -1.765100
C       4.544400    -1.170100    -1.601600
C       5.114800    -1.172200    -0.358600
C       4.655300    -3.005600     3.050900
C       3.888700    -3.907800     2.352300
C       3.521900    -5.105700     2.907800
C       3.949900    -5.446400     4.189900
C       4.739200    -4.595700     4.890400
C       5.110600    -3.380600     4.338500
C       6.785100    -1.334000     2.166500
C       7.496000    -2.514800     2.043800
C       8.860400    -2.538400     1.741000
C       9.509900    -1.339400     1.536600
C       8.812600    -0.144700     1.616500
C       7.478900    -0.147900     1.950900
H      -0.537000     0.226100     2.761000
H       2.243500    -2.249100     4.383100
H       5.035700    -4.841000     5.772900
H       9.282900     0.684700     1.438100
H       5.698200    -2.788000     4.836500
H       8.716100     0.212200     4.788200
H       0.902500    -4.092100     3.890700
H       0.173700     2.769800     4.712000
H      -1.158900    -3.792000     2.768500
H       6.085400    -1.142200    -0.247100
H       0.503200    -0.944000     6.120400
H       3.601800    -3.692400     1.445600
H       7.000900     0.698600     2.025300
H       9.958100    -1.162600     6.228100
H       2.370300    -1.279400     1.397200
H       0.047000    -0.540000     8.437400
H      -1.862700    -1.622300     2.220400
H      -0.878300     4.436000     3.450400
H       7.007500    -3.354900     2.157200
H       3.685200    -6.303600     4.570800
H       2.158900     1.487200     1.384200
H       0.793100     1.375800     9.500200
H       6.575800    -2.008000     8.335200
H       8.900200    -2.161200     8.097300
H       1.132300     3.171600     0.128200
H       1.990600     3.014100     8.298000
H       1.433600    -1.368300    -0.765500
H      10.451900    -1.319000     1.328500
H      -0.336500     4.696400     1.139000
H       5.111900    -1.120800    -2.385700
H       9.365500    -3.370900     1.703800
H       2.947100    -5.707900     2.406200
H       2.817800    -1.187200    -2.653300
H       3.477000    -0.636500     8.320300
H       3.680800    -2.131200     7.959800
H       4.764300    -1.374700     8.773700
H       2.447100     2.663700     6.010800
H       6.827400     1.504400     4.357100
H       5.119700     2.739800     5.221100
H       4.887000     1.696200     6.345200
