43
Refcode: SAGYEH_comp_0 | Dataset: tmCAT | Charge: unknown | Potential Spins: [1, 3, 5]
Zn      5.111600     5.666900     1.999900
N       5.478400     5.683900    -0.074100
N       4.908200     7.706900     1.550300
O       6.922200     5.683200     2.888900
O       5.341700     6.282000     4.300500
O       3.391600     4.709000     2.198700
O       4.951800     3.182200     1.883400
C       5.651500     4.606200    -0.853300
H       5.611200     3.743600    -0.457600
C       5.885400     4.705400    -2.212900
H       5.977700     3.924200    -2.745700
C       5.983500     5.961600    -2.782300
H       6.176700     6.055100    -3.707500
C       5.795400     7.087400    -1.988100
H       5.850600     7.959900    -2.361000
C       5.524300     6.910100    -0.633800
C       5.248800     8.049500     0.289200
C       5.320200     9.375500    -0.115300
H       5.562000     9.597700    -1.006800
C       5.030700    10.372000     0.811300
H       5.070100    11.287300     0.558500
C       4.686000    10.020700     2.102600
H       4.485200    10.687500     2.748800
C       4.638700     8.677600     2.434700
H       4.406500     8.434100     3.322800
C       6.547000     6.054300     4.055000
C       7.567600     6.195900     5.140500
C       8.824900     5.818300     4.926600
H       9.075800     5.458400     4.084400
H       9.471600     5.909000     5.617100
C       7.076500     6.763000     6.442700
H       7.791300     6.711500     7.110900
H       6.302100     6.248200     6.752600
H       6.815900     7.699200     6.313600
C       3.753700     3.490600     2.024800
C       2.686700     2.433500     1.975800
C       1.380600     2.785600     2.095300
H       0.702900     2.121500     2.047700
H       1.144300     3.696500     2.226000
C       3.137400     1.047900     1.770800
H       2.364500     0.446000     1.796300
H       3.768100     0.800900     2.478900
H       3.579600     0.973600     0.899700
