63
Refcode: SAHBIP_comp_0 | Dataset: tmCAT | Charge: -8 | Potential Spins: [1, 3, 5]
Ru      2.540000     2.540000     2.840600
N       4.120600    -0.019300     3.653600
C       3.994100     1.085900     2.840600
C       5.238500    -0.769100     3.349600
H       5.513800    -1.550400     3.772300
C       3.191300    -0.378500     4.706400
H       2.708700     0.402300     4.986900
H       3.676900    -0.739600     5.451700
H       2.573500    -1.035300     4.377900
H       2.540000     2.540000     4.454000
N       5.099300     0.959400     2.027600
C       5.849100    -0.158500     2.331600
H       6.630400    -0.433800     1.908900
C       5.458500     1.888700     0.974800
H       4.677700     2.371300     0.694200
H       5.819600     1.403100     0.229500
H       6.115300     2.506500     1.303300
N       5.099300     4.120600     3.653600
C       3.994100     3.994100     2.840600
C       5.849100     5.238500     3.349600
H       6.630400     5.513800     3.772300
C       5.458500     3.191300     4.706400
H       4.677700     2.708700     4.986900
H       5.819600     3.676900     5.451700
H       6.115300     2.573500     4.377900
N       4.120600     5.099300     2.027600
C       5.238500     5.849100     2.331600
H       5.513800     6.630400     1.908900
C       3.191300     5.458500     0.974800
H       2.708700     4.677700     0.694200
H       3.676900     5.819600     0.229500
H       2.573500     6.115300     1.303300
N       0.959400     5.099300     3.653600
C       1.085900     3.994100     2.840600
C      -0.158500     5.849100     3.349600
H      -0.433800     6.630400     3.772300
C       1.888700     5.458500     4.706400
H       2.371300     4.677700     4.986900
H       1.403100     5.819600     5.451700
H       2.506500     6.115300     4.377900
N      -0.019300     4.120600     2.027600
C      -0.769100     5.238500     2.331600
H      -1.550400     5.513800     1.908900
C      -0.378500     3.191300     0.974800
H       0.402300     2.708700     0.694200
H      -0.739600     3.676900     0.229500
H      -1.035300     2.573500     1.303300
N      -0.019300     0.959400     3.653600
C       1.085900     1.085900     2.840600
C      -0.769100    -0.158500     3.349600
H      -1.550400    -0.433800     3.772300
C      -0.378500     1.888700     4.706400
H       0.402300     2.371300     4.986900
H      -0.739600     1.403100     5.451700
H      -1.035300     2.506500     4.377900
N       0.959400    -0.019300     2.027600
C      -0.158500    -0.769100     2.331600
H      -0.433800    -1.550400     1.908900
C       1.888700    -0.378500     0.974800
H       2.371300     0.402300     0.694200
H       1.403100    -0.739600     0.229500
H       2.506500    -1.035300     1.303300
H       2.540000     2.540000     1.227100
