125
Refcode: SAQBAO_comp_0 | Dataset: tmCAT | Charge: unknown | Potential Spins: [1, 3, 5]
Y       0.619400     6.982500    15.498400
Cl     -1.823700     6.367600    15.984100
Si      0.475600     5.193100    18.744600
Si      0.402100     4.421300    12.884700
N       1.363300     5.938400    17.434400
N       1.415700     5.364600    13.938300
N       0.551300     9.289100    15.309900
P       2.942300     5.864800    17.147300
P       3.003200     5.570400    14.075200
P      -0.246700     9.162400    13.830200
P       0.600900    10.821300    16.077800
C       3.229100     6.496600    15.544000
H       3.832100     7.292200    15.480100
C       3.901200     6.909400    18.260700
C       3.252100     7.582200    19.298200
H       2.310200     7.504600    19.394200
C       3.977700     8.368100    20.194100
H       3.530800     8.828300    20.894200
C       5.337800     8.474100    20.061100
H       5.833500     8.992600    20.684400
C       5.997800     7.832700    19.028600
H       6.938800     7.921400    18.937100
C       5.278300     7.053000    18.118600
H       5.728500     6.622100    17.401800
C       3.512600     4.166200    17.404100
C       4.630900     3.824300    18.153900
H       5.166800     4.506600    18.540300
C       4.971900     2.494300    18.343000
H       5.740400     2.271600    18.856100
C       4.202400     1.498900    17.794500
H       4.431600     0.588100    17.946100
C       3.100300     1.809000    17.027800
H       2.585600     1.117500    16.629000
C       2.747300     3.131200    16.841700
H       1.978300     3.342600    16.325600
C       4.048200     4.073500    14.053200
C       5.281200     4.147700    14.692600
H       5.528300     4.941600    15.149700
C       6.156700     3.063000    14.661500
H       6.998900     3.120000    15.099900
C       5.799400     1.899800    13.996700
H       6.394700     1.160100    13.982100
C       4.595700     1.817700    13.360900
H       4.362900     1.021800    12.897600
C       3.698400     2.894000    13.385800
H       2.855500     2.823800    12.953700
C       3.687500     6.550300    12.708400
C       4.966700     6.367200    12.191200
H       5.528600     5.696300    12.561100
C       5.432400     7.140600    11.152500
H       6.307100     6.993300    10.809700
C       4.643900     8.127500    10.601900
H       4.976000     8.663600     9.891400
C       3.360800     8.331700    11.094500
H       2.806900     9.002300    10.712000
C       2.891700     7.560200    12.141000
H       2.017500     7.715200    12.482100
C      -0.615900     6.503100    19.502200
H      -0.062200     7.145200    19.994600
H      -1.253100     6.082900    20.115100
H      -1.104800     6.971700    18.791700
C       1.574200     4.505100    20.088100
H       2.074600     3.738400    19.739100
H       1.023700     4.219800    20.846400
H       2.202400     5.198500    20.383100
C      -0.564700     3.765900    18.135200
H      -1.046800     4.035000    17.324900
H      -1.210000     3.512500    18.829100
H       0.014700     3.001500    17.933700
C      -1.158800     5.391500    12.536100
H      -1.697200     5.449100    13.352600
H      -1.675200     4.940200    11.836000
H      -0.923000     6.294800    12.236900
C       1.237700     4.014700    11.256300
H       2.049100     4.556900    11.160800
H       0.625900     4.209400    10.516700
H       1.476700     3.064900    11.241800
C      -0.079100     2.840600    13.755700
H       0.717900     2.287200    13.894900
H      -0.726500     2.349300    13.207200
H      -0.482100     3.054500    14.624100
C       0.498600    10.308200    12.614400
C       1.722400    10.956000    12.824900
H       2.195300    10.811700    13.635200
C       2.250800    11.802900    11.871300
H       3.074100    12.248400    12.033300
C       1.590000    11.998300    10.689200
H       1.960600    12.568800    10.026400
C       0.381800    11.367300    10.458500
H      -0.076600    11.508600     9.637900
C      -0.158200    10.543900    11.403800
H      -0.992500    10.123300    11.233500
C      -1.922800     9.916300    13.914600
C      -3.022700     9.068900    13.797200
H      -2.895000     8.132100    13.714100
C      -4.318700     9.601800    13.803400
H      -5.069900     9.027100    13.714100
C      -4.499200    10.958200    13.940600
H      -5.379000    11.316500    13.948900
C      -3.422200    11.798900    14.063100
H      -3.560100    12.734000    14.167000
C      -2.143900    11.291800    14.036100
H      -1.403300    11.882300    14.102600
C      -0.065000    10.477300    17.767500
C      -1.438800    10.602900    17.917100
H      -1.982000    10.741200    17.150400
C      -2.034600    10.531800    19.169800
H      -2.972100    10.653800    19.252900
C      -1.270800    10.282500    20.293800
H      -1.678900    10.216100    21.149800
C       0.088800    10.132000    20.152500
H       0.623300     9.954400    20.917100
C       0.686600    10.237800    18.912200
H       1.629400    10.145500    18.839500
C       2.364000    11.131300    16.515700
C       2.691000    12.466400    16.728700
H       2.033200    13.140800    16.604000
C       3.976700    12.817300    17.121300
H       4.190000    13.730300    17.279200
C       4.939200    11.856400    17.279200
H       5.815500    12.099500    17.553500
C       4.632400    10.544800    17.042400
H       5.301900     9.877300    17.144200
C       3.351100    10.183300    16.656000
H       3.152200     9.270100    16.483500
