43
Refcode: SEJREG_comp_0 | Dataset: tmCAT | Charge: unknown | Potential Spins: [1, 3, 5]
Pt     -4.298700    -5.946400     5.376400
Br     -3.159400    -4.902500     3.427200
Br     -2.288400    -7.166900     5.950400
C      -5.326000    -6.718800     6.855500
N      -6.575100    -7.181600     6.637000
C      -7.182800    -7.561700     7.814200
H      -8.062300    -7.903700     7.917300
C      -6.288300    -7.352500     8.777600
H      -6.412000    -7.526400     9.702400
N      -5.134000    -6.827800     8.183600
C      -7.163900    -7.158700     5.289000
H      -8.083600    -7.523300     5.318200
H      -6.626200    -7.722600     4.679600
C      -7.195300    -5.750300     4.776600
N      -6.041500    -5.031800     4.832000
C      -6.066600    -3.753800     4.450300
H      -5.266200    -3.245400     4.508800
C      -7.206200    -3.143100     3.971800
H      -7.197400    -2.225000     3.728600
C      -8.357700    -3.889400     3.854800
H      -9.146100    -3.508100     3.485500
C      -8.342200    -5.198100     4.282600
H      -9.134400    -5.721000     4.233400
C      -3.945800    -6.449500     8.893000
C      -3.717400    -5.094900     9.148400
C      -2.531400    -4.764900     9.797800
H      -2.353600    -3.852200     9.996300
C      -1.598700    -5.728300    10.161000
C      -1.892200    -7.056000     9.922500
H      -1.274400    -7.722600    10.201000
C      -3.072200    -7.450900     9.285400
C      -4.698500    -4.028600     8.731400
H      -4.506900    -3.200100     9.219200
H      -5.609900    -4.326200     8.936100
H      -4.615100    -3.867300     7.768100
C      -0.285900    -5.349400    10.793400
H      -0.160900    -5.862900    11.619800
H      -0.286500    -4.392600    10.999600
H       0.445800    -5.548900    10.171700
C      -3.320100    -8.897600     8.980700
H      -4.189500    -9.162700     9.345400
H      -2.614700    -9.443400     9.386900
H      -3.318100    -9.032800     8.009700
