153
Refcode: SEWKIP_comp_0 | Dataset: tmCAT | Charge: 0 | Potential Spins: [1, 3, 5]
V      -0.893900     4.735700     3.009400
N      -0.582800     4.319200     1.437600
C      -0.208200     3.948200     0.148500
C      -1.116900     3.992600    -0.911800
H      -2.008200     4.281600    -0.757500
C      -0.722500     3.617500    -2.188200
H      -1.351600     3.658100    -2.897600
C       0.567000     3.184600    -2.452500
C       1.465100     3.149400    -1.389000
H       2.355900     2.858800    -1.546800
C       1.097000     3.526400    -0.109900
H       1.734200     3.498900     0.594900
C       0.994500     2.773800    -3.839300
H       0.371200     2.103200    -4.188000
H       1.897100     2.394700    -3.804300
H       0.993000     3.558700    -4.427700
O      -1.854000     6.224000     3.080300
C      -2.560300     7.123000     2.189700
C      -3.645400     6.330000     1.483200
H      -3.233400     5.641600     0.920100
H      -4.180000     6.932500     0.925100
H      -4.224500     5.904200     2.150200
C      -3.165500     8.206600     3.071100
H      -3.812100     7.802300     3.686900
H      -3.618300     8.868700     2.508800
H      -2.455800     8.643800     3.584700
C      -1.569900     7.724000     1.213800
H      -0.885900     8.222500     1.707700
H      -2.038100     8.330600     0.603300
H      -1.142100     7.008100     0.698800
O      -1.749600     3.415100     3.821000
C      -2.416600     2.176900     3.500900
C      -3.529300     2.484000     2.525600
H      -4.165300     3.103600     2.939500
H      -3.990300     1.653300     2.284200
H      -3.151500     2.893000     1.717800
C      -2.920600     1.606600     4.803100
H      -2.166100     1.463400     5.411400
H      -3.371600     0.752900     4.633800
H      -3.554800     2.233600     5.210300
C      -1.417600     1.229500     2.884200
H      -1.010300     1.650500     2.098200
H      -1.873500     0.405700     2.612700
H      -0.720900     1.016700     3.539500
O       0.712000     4.993100     3.775400
O       1.381200     7.658200     5.425200
O       1.694700     6.517500     7.893600
H       1.601500     6.789500     7.127500
O       1.332400     3.909500     6.601600
C       1.969000     4.846400     3.251900
C       2.624100     3.608800     3.350400
C       3.835700     3.445700     2.682600
H       4.262600     2.597100     2.716600
C       4.448500     4.473000     1.966600
C       3.811500     5.709100     1.967500
H       4.225100     6.436400     1.518400
C       2.584900     5.923300     2.604200
C       5.721900     4.216000     1.145000
C       5.269100     3.621800    -0.191400
H       6.055000     3.430800    -0.747400
H       4.689300     4.262500    -0.653600
H       4.775400     2.791800    -0.028500
C       6.648300     3.231200     1.850200
H       6.895600     3.588300     2.728300
H       7.456300     3.100100     1.312200
H       6.188500     2.374500     1.964100
C       6.511000     5.502200     0.888900
H       6.710000     5.938300     1.742900
H       5.978400     6.106000     0.330100
H       7.348500     5.284500     0.429000
C       1.983600     7.319900     2.640500
H       1.975200     7.702900     1.727800
H       1.049200     7.271900     2.964600
C       2.509300     8.316100     4.916500
C       2.797000     8.207300     3.559700
C       3.926300     8.870000     3.084600
H       4.126100     8.823100     2.156900
C       4.775600     9.599500     3.918200
C       4.471200     9.635600     5.269500
H       5.049200    10.104600     5.858900
C       3.337300     9.001900     5.794700
C       6.020900    10.278400     3.321800
C       6.708200    11.189900     4.327100
H       6.085700    11.890000     4.613700
H       7.493600    11.601500     3.911500
H       6.989800    10.663800     5.104700
C       5.615900    11.113000     2.108400
H       5.228000    10.527600     1.424500
H       6.405300    11.563600     1.742900
H       4.952900    11.781800     2.378100
C       7.005100     9.193300     2.889200
H       7.234300     8.634800     3.660100
H       7.817400     9.612200     2.535600
H       6.594000     8.639100     2.193700
C       3.065800     9.038600     7.287200
H       2.087000     9.025300     7.439200
H       3.418800     9.885600     7.660500
C       3.020400     6.664400     8.237500
C       3.701100     7.866700     8.021400
C       5.020800     7.964300     8.455000
H       5.490100     8.775700     8.302300
C       5.681300     6.922600     9.102700
C       4.969000     5.741100     9.288400
H       5.394000     5.014900     9.730200
C       3.655900     5.585900     8.849700
C       7.143400     7.095100     9.548000
C       7.997100     7.407600     8.315700
H       8.933600     7.504300     8.582200
H       7.685200     8.240800     7.905100
H       7.916000     6.674800     7.668800
C       7.693600     5.840300    10.216200
H       8.621500     5.996000    10.489400
H       7.661300     5.091500     9.584400
H       7.152300     5.625100    11.005500
C       7.233500     8.251800    10.549400
H       6.712300     8.032900    11.349100
H       6.877200     9.067400    10.139100
H       8.171400     8.395200    10.799400
C       2.990200     4.224000     8.941000
H       2.007200     4.340100     8.967700
H       3.267800     3.778700     9.780500
C       2.531100     3.221100     6.640000
C       3.362300     3.345700     7.758000
C       4.592000     2.693200     7.729700
H       5.167800     2.774000     8.481600
C       5.015800     1.925700     6.643900
C       4.151500     1.826300     5.557100
H       4.409000     1.297000     4.811500
C       2.917500     2.479000     5.528400
C       6.407200     1.271300     6.661500
C       7.475200     2.370500     6.791900
H       7.414900     2.977100     6.024800
H       8.365200     1.960600     6.814100
H       7.326900     2.873400     7.620200
C       6.697700     0.484500     5.381100
H       6.025200    -0.218200     5.269000
H       7.588400     0.078700     5.443300
H       6.667900     1.092100     4.612000
C       6.504800     0.323000     7.860100
H       6.317600     0.817700     8.684400
H       7.408000    -0.055800     7.903500
H       5.851100    -0.399800     7.757700
C       2.102200     2.495600     4.244200
H       2.183700     1.624500     3.780800
H       1.147300     2.648900     4.452800
C       0.172900     8.444300     5.346200
H       0.268500     9.246200     5.902500
H      -0.584100     7.910800     5.667800
H       0.015000     8.707600     4.416000
C       0.220500     3.157000     7.081900
H       0.093900     2.366500     6.517500
H      -0.586500     3.712800     7.052100
H       0.390800     2.877500     8.005700
