88
Refcode: SICJUL_comp_0 | Dataset: tmCAT | Charge: unknown | Potential Spins: [1, 3, 5]
Au      7.079200     5.590900    12.636500
C       6.055300     5.133200    14.244200
N       6.164400     3.998400    14.940700
C       5.220500     3.938900    16.076500
H       5.697600     3.793200    16.930200
H       4.556100     3.215700    15.951200
C       4.563700     5.295300    16.043500
H       3.578500     5.216800    15.982000
H       4.796400     5.827300    16.846300
N       5.131200     5.893100    14.820100
O       8.076600     6.159100    10.977900
O      10.510000     2.030200    10.375400
O      10.934900     5.590400     7.329500
C       7.102200     2.925700    14.739300
C       8.314900     2.983900    15.420700
C       9.138000     1.854200    15.335900
H       9.978900     1.854200    15.775000
C       8.750100     0.751000    14.628300
H       9.319300    -0.010100    14.608700
C       7.554700     0.715600    13.943000
H       7.305800    -0.058300    13.450700
C       6.709700     1.835200    13.976800
C       8.757700     4.206100    16.198500
H       7.968200     4.817800    16.258900
C       5.444900     1.813700    13.163800
H       4.986200     2.695200    13.277300
C       4.828300     7.262200    14.510000
C       3.600300     7.537100    13.896300
C       3.233900     8.873200    13.766800
H       2.399200     9.093600    13.372400
C       4.056600     9.867500    14.203100
H       3.777700    10.771800    14.127600
C       5.284300     9.578700    14.748500
H       5.855100    10.290500    15.014300
C       5.707500     8.267800    14.924200
C       2.722200     6.442800    13.301400
H       2.911000     5.598000    13.800400
C       7.065100     7.968900    15.516600
H       7.237800     6.996300    15.363900
C       8.937100     5.358600    10.339600
C       9.254900     4.074400    10.787200
H       8.868300     3.732400    11.585100
C      10.147900     3.304400    10.046800
C      10.719500     3.759000     8.891600
H      11.315400     3.205600     8.402200
C      10.423900     5.023000     8.448000
C       9.531300     5.842500     9.169100
H       9.333800     6.718900     8.860900
C       9.904500     1.505900    11.464900
H      10.231200     0.594000    11.613100
H       8.936200     1.485600    11.322200
H      10.106400     2.058100    12.248000
C      11.675400     4.734300     6.472200
H      11.995000     5.243400     5.697500
H      11.102400     3.999700     6.170200
H      12.444200     4.369500     6.961700
C       9.191800     3.893300    17.621000
H       9.464200     4.720300    18.068600
H       9.946500     3.268900    17.601500
H       8.444900     3.488000    18.107700
C       9.855000     4.961000    15.470200
H      10.117500     5.743700    15.998800
H       9.526400     5.252300    14.594700
H      10.630100     4.373300    15.349900
C       4.480300     0.714300    13.618600
H       3.672300     0.738400    13.064700
H       4.239200     0.858700    14.555500
H       4.914900    -0.159600    13.523500
C       5.759900     1.631300    11.702600
H       4.926300     1.622400    11.188000
H       6.233300     0.782700    11.574000
H       6.325400     2.369700    11.394900
C       1.235900     6.712600    13.406000
H       0.740500     5.967800    13.006000
H       1.020300     7.542100    12.930500
H       0.985300     6.802500    14.348600
C       3.143500     6.226200    11.859200
H       4.105400     6.040000    11.822900
H       2.947100     7.031700    11.336200
H       2.651000     5.466300    11.484400
C       7.121500     8.188100    17.005700
H       8.020200     7.979100    17.333000
H       6.469200     7.604200    17.447600
H       6.911100     9.124000    17.207100
C       8.177600     8.720000    14.835200
H       9.033400     8.489500    15.257600
H       8.020900     9.683800    14.919200
H       8.204200     8.475600    13.887100
