101
Refcode: SIGROR_comp_1 | Dataset: tmCAT | Charge: unknown | Potential Spins: [1, 3, 5]
Fe      8.556200     0.437500    12.064600
P       6.364800    -0.319600    12.134100
P       9.812500     0.508500     9.949500
P       9.861000    -0.692200    13.635500
C       7.490500    -2.744500    12.019700
C       8.970100    -0.744800     8.925500
C       6.287200    -2.120600    12.405800
C       8.323200    -1.749300     9.668000
C      10.125900    -2.377500    11.534900
C       5.353300     0.529100    13.455200
H       5.299900     1.486000    13.171500
C       8.896800    -0.703800     7.525900
H       9.388800    -0.049200     7.043600
C       5.225500    -2.865200    12.937100
H       4.405500    -2.435000    13.150800
C       5.366500    -4.235600    13.154200
H       4.654900    -4.735000    13.536000
C       5.403300     0.012200    10.554000
H       6.069800    -0.039700     9.809500
C      10.815100    -1.916300    12.670300
C       9.684700     2.037400     8.861200
H      10.250900     1.878200     8.052500
C       6.560500    -4.865800    12.807000
H       6.670600    -5.796400    12.964200
C      10.796000    -3.281400    10.689600
H      10.345900    -3.629300     9.928700
C       7.537300    -2.668800     8.946400
H       7.082700    -3.357200     9.415600
C      11.635500     0.047600     9.851800
H      11.799300    -0.589100    10.604200
C       7.592900    -4.129000    12.228400
H       8.389600    -4.577400    11.967300
B       8.616700    -1.880300    11.247300
C       8.104700    -1.621500     6.840400
H       8.038200    -1.585000     5.893000
C       7.857700     2.410100    12.173300
C       7.409400    -2.593300     7.559800
H       6.846300    -3.207000     7.102300
C       4.831500     1.434900    10.510900
H       4.508500     1.631100     9.605700
H       5.532200     2.076900    10.752800
H       4.088600     1.507200    11.145000
C      12.110000    -3.675800    10.948600
H      12.557300    -4.256000    10.343400
C      12.763900    -3.223800    12.084300
H      13.654400    -3.502400    12.264500
C      12.109700    -2.357400    12.963000
H      12.542500    -2.068800    13.757200
C      12.008700    -0.707000     8.573600
H      11.873600    -0.123200     7.798600
H      11.441500    -1.500900     8.486200
H      12.949100    -0.978600     8.617500
C      11.201400     0.187700    14.606600
H      11.692700    -0.502900    15.137600
C       9.036100    -1.777800    14.953700
H       8.136300    -2.025700    14.593300
C       6.110600     0.545600    14.779900
H       5.642400     1.126100    15.415700
H       7.017500     0.886700    14.633100
H       6.157800    -0.364400    15.141000
C       4.321900    -1.025100    10.225700
H       3.662100    -1.049500    10.949800
H       4.734900    -1.909100    10.129100
H       3.876800    -0.779500     9.388000
C      10.184200     3.326800     9.527200
H      10.198400     4.050000     8.868000
H      11.088600     3.185000     9.875200
H       9.584200     3.568200    10.263900
C       3.906400     0.102400    13.709300
H       3.897400    -0.723000    14.237500
H       3.456600    -0.054100    12.853600
H       3.438100     0.809700    14.199400
C       8.248300     2.278300     8.377700
H       7.650400     2.344900     9.151300
H       7.966300     1.532100     7.808900
H       8.212700     3.112000     7.864200
C       9.086000     2.334400    12.829100
C      12.601800     1.214200    10.069900
H      13.507900     0.866900    10.205100
H      12.327000     1.722100    10.861700
H      12.589200     1.799500     9.284300
C       8.788900    -1.096300    16.301100
H       8.275600    -1.696000    16.880700
H       8.285100    -0.267400    16.160300
H       9.648600    -0.889000    16.725300
C      12.204900     0.839500    13.658000
H      11.755800     1.536700    13.135200
H      12.570200     0.161000    13.052300
H      12.933700     1.239200    14.177000
C      10.710300     1.280600    15.596900
H      11.151000     1.157900    16.464400
H       9.740000     1.207400    15.709400
H      10.930700     2.166800    15.241200
C       9.773400    -3.089600    15.211000
H      10.693700    -2.898200    15.488300
H       9.784100    -3.625500    14.389500
H       9.316600    -3.588300    15.920200
H       7.026300     2.540900    12.753400
H       7.816500     2.791700    11.284900
H       9.957600     2.635400    12.331900
H       9.103000     2.303600    13.769300
