65
Refcode: SIKQEL_comp_0 | Dataset: tmCAT | Charge: unknown | Potential Spins: [1, 3, 5]
Cr      0.676500     4.736200     2.106000
P       0.680000     2.823100     3.417200
P       2.375900     4.825900     3.725300
N       2.057400     3.259000     4.325500
O       1.560000     7.260000     0.710000
O      -1.761100     4.211400     0.416000
O      -1.112400     6.253500     4.033900
O       2.117800     3.145000    -0.030900
C       1.185700     6.317800     1.253200
C      -0.823400     4.420300     1.073100
C      -0.435200     5.688200     3.318500
C       1.614300     3.748300     0.808500
C       1.055100     1.193400     2.714000
C       0.006800     0.303800     2.420000
H      -0.883200     0.512700     2.673600
C       0.284400    -0.882300     1.751100
H      -0.418900    -1.484100     1.538000
C       1.587400    -1.186100     1.398300
H       1.770300    -2.002700     0.948100
C       2.611000    -0.340400     1.683100
H       3.501100    -0.568200     1.440600
C       2.347000     0.853100     2.328100
H       3.061600     1.452000     2.510000
C      -0.498200     2.468700     4.735200
C       0.016900     1.993900     5.959000
C      -0.917300     1.792400     6.973300
H      -0.616900     1.457800     7.809400
C      -2.252500     2.056800     6.811600
H      -2.855700     1.919400     7.531900
C      -2.715000     2.521300     5.606200
H      -3.640400     2.700900     5.486800
C      -1.822000     2.725800     4.564300
H      -2.136500     3.048600     3.728300
C       2.495000     2.569500     5.488600
C       1.508600     1.852200     6.232800
C       1.972100     1.083900     7.322400
H       1.353500     0.569700     7.829600
C       3.313800     1.067800     7.664200
H       3.609000     0.517100     8.379000
C       4.204900     1.821600     6.999000
H       5.108800     1.863900     7.289400
C       3.795900     2.544600     5.876300
H       4.440700     3.026700     5.372800
C       2.147600     5.954100     5.143200
C       1.476100     5.581600     6.291600
H       1.200000     4.680300     6.409200
C       1.205100     6.523800     7.271000
H       0.739500     6.259400     8.055600
C       1.586600     7.803400     7.133200
H       1.425200     8.427100     7.831400
C       2.204000     8.202200     5.993900
H       2.452300     9.112200     5.881800
C       2.469500     7.281900     4.999800
H       2.884600     7.575500     4.196800
C       4.158800     4.950500     3.366300
C       5.081900     5.444300     4.286900
H       4.785100     5.734900     5.141300
C       6.428800     5.515800     3.967200
H       7.049600     5.851800     4.601100
C       6.865200     5.099500     2.736000
H       7.787700     5.157900     2.517400
C       5.967800     4.598500     1.813600
H       6.276700     4.293200     0.966500
C       4.621400     4.540000     2.120500
H       4.004900     4.214300     1.475500
