102
Refcode: SILMAD_comp_0 | Dataset: tmCAT | Charge: unknown | Potential Spins: [1, 3, 5]
Ti      5.862700    10.371300     3.768100
N       6.854300     9.778000     1.967000
N       5.838000    11.745600     2.170500
N       4.704800     8.757700     3.494400
N       3.980600    10.604400     4.329100
N       2.264200     9.020500     3.887900
N       4.740600     7.641500     2.653800
C       7.501500     8.871900     1.018100
H       6.888100     8.132400     0.796100
H       8.312700     8.475600     1.415300
C       7.798500     9.761200    -0.195000
H       7.813100     9.277600    -1.038400
H       8.678800    10.205400    -0.057700
C       6.686900    10.818100    -0.140000
H       6.916100    11.662400    -0.506400
H       5.868100    10.513000    -0.608900
C       6.413800    10.849700     1.349300
C       5.011200    12.803400     1.741400
C       4.899600    13.935900     2.551200
H       5.413900    13.969800     3.376700
C       4.090500    15.007300     2.186800
C       3.359700    14.928000     1.000300
H       2.805400    15.656600     0.756400
C       3.429900    13.801100     0.191000
C       4.257100    12.746100     0.565600
H       4.272300    11.951100     0.032000
C       4.016400    16.244500     3.037100
H       3.261300    16.211800     3.558700
H       3.982800    16.986300     2.496000
H       4.759600    16.291700     3.575400
C       2.610900    13.698300    -1.068800
H       1.717300    13.693400    -0.853800
H       2.823700    12.920500    -1.510100
H       2.792000    14.418100    -1.611400
C       3.493900     9.362900     3.885200
C       3.098700    11.588000     4.959400
H       3.676500    12.351700     5.247100
C       2.400500    11.061100     6.217800
H       1.703000    10.426400     5.961100
H       1.999300    11.808100     6.704700
H       3.055400    10.613400     6.790500
C       2.078600    12.153400     3.971100
H       2.536500    12.440200     3.161300
H       1.624800    12.914800     4.374000
H       1.426600    11.466000     3.749700
C       1.785000     7.685800     3.514100
H       2.563100     7.093700     3.304900
C       1.000500     7.109800     4.684400
H       1.593000     6.992600     5.445800
H       0.624900     6.249600     4.430500
H       0.281900     7.718800     4.924000
C       0.874800     7.786100     2.298300
H       0.113400     8.366400     2.507500
H       0.549600     6.893600     2.060100
H       1.376100     8.163000     1.544800
C       5.286800     6.472600     3.247100
C       4.915800     6.144100     4.552000
H       4.260100     6.681100     4.995800
C       5.495500     5.051100     5.186600
H       5.199700     4.838900     6.099600
C       6.446900     4.283300     4.536200
H       6.885200     3.530900     4.984300
C       6.808800     4.602900     3.239100
H       7.473400     4.083300     2.761300
C       6.236500     5.694400     2.588400
H       6.517100     5.922200     1.706300
C       4.242300     7.729000     1.354500
C       4.034700     6.584700     0.566800
H       4.263700     5.701400     0.912800
C       3.493600     6.695000    -0.701600
H       3.360300     5.898500    -1.203800
C       3.135300     7.924900    -1.231200
H       2.766200     8.002200    -2.098600
C       3.319800     9.057300    -0.451500
H       3.049400     9.947700    -0.788400
C       3.855000     8.973100     0.826000
H       3.906500     9.750300     1.335800
C       8.204900    10.686200     4.352000
C       7.705700     9.510200     4.974600
C       6.714100     9.896900     5.901100
C       6.606900    11.321500     5.866100
C       7.531300    11.798300     4.907500
C       9.338100    10.778500     3.376200
H       9.531000     9.890100     3.015200
H      10.132200    11.125200     3.830500
H       9.091500    11.381300     2.646000
C       8.170800     8.110900     4.697600
H       7.540400     7.493300     5.044500
H       9.012400     7.970300     5.111200
H       8.253500     7.984800     3.761300
C       5.952800     8.997700     6.829800
H       5.059700     9.350100     6.959800
H       6.409200     8.953700     7.682800
H       5.898100     8.108900     6.445700
C       5.835800    12.146900     6.845500
H       5.649700    13.020000     6.458500
H       6.358400    12.257200     7.658400
H       4.998100    11.700800     7.057200
C       7.847500    13.232200     4.600600
H       7.891600    13.356700     3.630500
H       8.709500    13.468900     4.999600
H       7.146800    13.808100     4.971400
