86
Refcode: SIRYIE_comp_0 | Dataset: tmCAT | Charge: unknown | Potential Spins: [1, 3, 5]
Ru      9.571400     0.376100     7.654000
Cl      9.677300     1.235500     9.833200
Cl      9.408100    -1.387600     6.145300
F      10.906700     3.528800     8.198400
F      11.916300     5.341400     8.756100
F      13.048600     3.669400     8.055200
F      13.970400     4.502900     5.630500
F      12.958400     6.255000     4.900100
F      13.688500     6.194600     6.893400
O      10.954800     6.039200     6.510300
O       7.434300    -0.104800     8.177300
N      12.493400     0.151700     7.682700
N      12.077800     1.701500     6.268200
C      11.456600     0.797800     7.150100
C      12.361800    -0.907500     8.663500
C      12.466800    -0.556100    10.029600
C      12.882500     0.842100    10.437900
H      12.666600     0.983900    11.383000
H      12.405400     1.499300     9.890700
H      13.849200     0.948200    10.307400
C      12.295500    -1.552300    10.964100
H      12.348400    -1.331600    11.886000
C      12.053100    -2.861800    10.600000
C      11.854900    -3.969000    11.631400
H      11.771900    -3.572000    12.523800
H      12.628900    -4.570700    11.614500
H      11.043800    -4.474600    11.416700
C      12.067600    -3.207000     9.229700
H      11.957900    -4.114500     8.970800
C      12.242900    -2.235400     8.255200
C      12.427400    -2.658300     6.826000
H      12.067400    -1.965400     6.232400
H      11.953000    -3.499300     6.668100
H      13.381500    -2.785300     6.642900
C      13.717700     0.525300     7.145900
H      14.571700     0.160300     7.356400
C      13.448500     1.517800     6.261900
H      14.082000     1.996200     5.739900
C      11.443800     2.491900     5.251600
C      11.093200     1.806300     4.068700
C      11.452200     0.371100     3.896100
H      11.344000     0.117100     2.955200
H      10.863800    -0.181300     4.453800
H      12.384600     0.233000     4.167600
C      10.489700     2.509200     3.056200
H      10.229100     2.035700     2.275300
C      10.241300     3.850700     3.106700
C       9.591200     4.601600     1.968000
H       8.711000     4.210700     1.780700
H      10.153900     4.536200     1.170300
H       9.486100     5.543600     2.216400
C      10.647400     4.546100     4.262300
H      10.507700     5.485600     4.310700
C      11.255700     3.881500     5.352600
C      11.740700     4.881400     6.409200
C      11.914500     4.331500     7.853200
C      13.109100     5.470800     5.954600
C       9.573400     5.908500     6.946000
H       9.528200     5.424000     7.809000
H       9.043800     5.407900     6.274500
C       9.040200     7.310500     7.099600
H       8.100300     7.274700     7.371200
H       9.117000     7.783900     6.245100
H       9.557500     7.785200     7.781600
C       6.861800    -1.320500     8.878200
H       6.189900    -1.027100     9.556000
C       8.005100    -1.972800     9.566500
H       8.506700    -1.300800    10.073800
H       8.591600    -2.385900     8.901400
H       7.668900    -2.659600    10.176900
C       6.182900    -2.199700     7.836300
H       5.456800    -1.697800     7.409000
H       5.814000    -2.997400     8.272000
H       6.834500    -2.469700     7.160700
C       6.618300     0.921100     7.790000
C       5.248800     1.004900     8.053100
H       4.810600     0.326700     8.552000
C       4.544100     2.104700     7.566900
H       3.612300     2.170100     7.735300
C       5.189900     3.125700     6.828100
H       4.696500     3.867900     6.499800
C       6.566200     3.023300     6.592400
H       7.022000     3.712600     6.123000
C       7.280600     1.892700     7.053300
C       8.707000     1.768100     6.853400
H       9.179600     2.394500     6.318700
