123
Refcode: SIWJUE_comp_0 | Dataset: tmCAT | Charge: 1 | Potential Spins: [1, 3, 5]
Ru     19.034700     4.021200     7.121600
S      18.106600     0.188700     3.921200
S      18.352000    -1.792500     0.036100
P      21.137400     2.994300     7.580300
P      20.134300     5.928200     7.803000
P      16.931700     4.840900     6.365800
P      17.957800     3.948400     9.161500
O      18.555000     2.126600     6.126000
O      19.483900     3.723600     4.964800
C      21.900700     2.155700     6.126300
C      21.818900     0.773500     5.964900
C      22.349100     0.159200     4.835200
C      22.953300     0.907600     3.840300
C      23.042700     2.267700     3.989600
C      22.507600     2.896700     5.116400
C      21.237900     1.709500     8.863600
C      22.244300     1.675500     9.826000
C      22.307800     0.636000    10.740700
C      21.383200    -0.390500    10.693700
C      20.359800    -0.365400     9.769200
C      20.275300     0.691900     8.852800
C      22.351000     4.299400     8.009600
C      21.628000     5.408600     8.770700
C      19.424300     7.230800     8.876600
C      18.280800     7.896300     8.457900
C      17.677500     8.845900     9.274900
C      18.234800     9.155400    10.500400
C      19.391800     8.544500    10.896000
C      19.992700     7.576200    10.102900
C      20.937100     6.929000     6.485700
C      21.263800     6.324800     5.273200
C      22.006500     7.005600     4.312500
C      22.383800     8.304200     4.529200
C      22.036700     8.926800     5.706600
C      21.319100     8.250500     6.686100
C      16.842700     6.523600     5.649300
C      17.900900     6.927400     4.840000
C      17.930700     8.194400     4.266800
C      16.868200     9.058300     4.521700
C      15.824200     8.690800     5.333100
C      15.789300     7.417300     5.888400
C      16.180300     3.823000     5.040800
C      15.511600     2.633200     5.340800
C      15.035700     1.812300     4.320200
C      15.257000     2.153000     2.998800
C      15.904300     3.316300     2.697600
C      16.358500     4.154900     3.703600
C      15.724700     4.746900     7.746400
C      16.453500     5.019500     9.054100
C      17.169000     2.339900     9.620100
C      16.715100     2.141500    10.921700
C      16.062600     0.953600    11.256200
C      15.881100    -0.027700    10.319100
C      16.312700     0.165500     9.014100
C      16.950000     1.357200     8.665900
C      18.652800     4.437400    10.782300
C      18.113800     5.493100    11.528000
C      18.603100     5.793900    12.791800
C      19.658800     5.063200    13.320300
C      20.195800     4.024800    12.595600
C      19.700900     3.714800    11.334400
C      19.015100     2.551600     5.013200
C      18.995000     1.665100     3.846800
C      19.633500     1.804900     2.651400
C      19.404000     0.705900     1.785800
C      18.577000    -0.240300     2.316000
C      18.091200    -1.471700     1.708300
C      17.385400    -2.507600     2.289800
C      17.090100    -3.554100     1.360400
C      17.558700    -3.303200     0.127400
H      21.397600     0.245700     6.633300
H      22.293600    -0.784500     4.745700
H      23.304700     0.484700     3.065100
H      23.473200     2.788700     3.320300
H      22.558700     3.841500     5.193500
H      22.891600     2.369400     9.854900
H      22.990300     0.629000    11.400600
H      21.449000    -1.115900    11.304300
H      19.714500    -1.061800     9.753800
H      19.566500     0.716900     8.220000
H      23.033400     3.931700     8.557100
H      22.737500     4.653100     7.216000
H      22.211400     6.150100     8.879700
H      21.360600     5.090500     9.623700
H      17.908100     7.703400     7.606100
H      16.880500     9.279200     8.990500
H      17.815600     9.793200    11.066000
H      19.786400     8.781000    11.725700
H      20.791300     7.153300    10.391800
H      20.976300     5.435400     5.099600
H      22.250500     6.569400     3.503300
H      22.883400     8.771900     3.871600
H      22.289500     9.829300     5.853200
H      21.089300     8.690800     7.495300
H      18.615000     6.323600     4.671000
H      18.660200     8.465300     3.722400
H      16.864100     9.919400     4.122100
H      15.123400     9.306200     5.513700
H      15.053500     7.153300     6.428700
H      15.380300     2.380700     6.248100
H      14.558300     1.019000     4.533800
H      14.961100     1.580300     2.301800
H      16.046100     3.555200     1.789000
H      15.041200     5.394800     7.620500
H      15.337100     3.879900     7.772200
H      15.875600     4.829000     9.785100
H      16.714000     5.933600     9.086800
H      16.849700     2.813500    11.581200
H      15.742000     0.825100    12.139800
H      15.458400    -0.843200    10.562800
H      16.175600    -0.511800     8.362100
H      17.234000     1.496900     7.769800
H      17.400400     6.005800    11.167100
H      18.216300     6.504000    13.293100
H      20.008400     5.277600    14.176800
H      20.910500     3.514600    12.958500
H      20.084400     2.998400    10.844500
H      20.170700     2.554300     2.422200
H      19.788500     0.633500     0.919800
H      17.127100    -2.522700     3.204700
H      16.613300    -4.342000     1.591500
H      17.460000    -3.897900    -0.606800
H      16.798300     4.966500     3.476800
