90
Refcode: SIXROJ_comp_0 | Dataset: tmCAT | Charge: unknown | Potential Spins: [1, 3, 5]
Fe      4.533000     6.647800     5.418000
P       6.351200     6.067200     6.457700
P       3.618900     4.682000     5.768300
P       5.195500     6.139600     3.327200
Si      6.258900     3.598900     4.689000
C       7.486900     7.797700     3.408500
H       7.176600     8.050600     4.247900
C       4.091300     6.532000     1.902000
C       7.474100     7.482800     6.833100
C       6.748400     6.898800     2.651200
C       8.397200     7.116900     0.912000
H       8.699500     6.886900     0.062900
C       7.124100     2.007600     4.290200
H       7.381000     1.569400     5.105100
H       7.907400     2.191400     3.765900
H       6.533300     1.437300     3.793100
C       4.801700     3.287000     5.826500
H       4.352300     2.470400     5.558800
H       5.120600     3.170900     6.735200
C       7.219100     6.583100     1.378700
H       6.731500     6.004100     0.838600
C       2.370600     4.166700     4.506400
C       5.593800     4.361000     3.107800
H       6.253400     4.264900     2.403300
H       4.793400     3.885100     2.834600
C       6.205700     5.343800     8.159300
C       3.231800     5.599300     1.324600
H       3.216600     4.725200     1.642200
C       2.582400     4.431300     7.265800
C       1.423500     5.097400     4.097400
H       1.450900     5.958400     4.447500
C       4.071100     7.840500     1.412300
H       4.621600     8.482400     1.799500
C       1.701700     3.046100     9.032500
H       1.688800     2.232000     9.481800
C       9.135500     7.987500     1.683400
H       9.932800     8.340000     1.359000
C       0.904600     4.080900     9.463700
H       0.346900     3.967100    10.199500
C       2.399600     5.968000     0.279200
H       1.826300     5.339000    -0.096300
C       1.321200     2.561500     3.032300
H       1.290800     1.705700     2.670300
C       5.986700     4.393900    10.785400
H       5.916000     4.079700    11.657900
C       7.376300     4.851100     5.550500
H       7.966300     4.392600     6.169400
H       7.923600     5.308700     4.893100
C       2.523600     3.214000     7.930600
H       3.043800     2.502900     7.632700
C       5.174700     5.751700     8.987700
H       4.540100     6.349000     8.663000
C       5.067400     5.293600    10.285200
H       4.372300     5.592900    10.825300
C       6.933400     8.638100     7.384200
H       6.026200     8.665300     7.587900
C       0.444700     4.771700     3.183800
H      -0.186300     5.407100     2.933000
C       3.244800     8.198300     0.361300
H       3.251800     9.070900     0.040700
C       1.783900     5.470700     7.720400
H       1.820000     6.297600     7.297100
C       2.304300     2.885500     3.973000
H       2.917600     2.240300     4.242200
C       8.687600     8.329700     2.932000
H       9.181600     8.914100     3.460800
C       8.834500     7.476400     6.549400
H       9.226400     6.709400     6.197500
C       7.127500     4.446800     8.683000
H       7.839600     4.162100     8.156400
C       2.412600     7.259300    -0.210900
H       1.862700     7.495000    -0.923000
C       0.397200     3.506000     2.640700
H      -0.254000     3.290800     2.013100
C       0.938100     5.289100     8.795300
H       0.387000     5.985300     9.071800
C       7.003700     3.971400     9.972000
H       7.621100     3.354900    10.293800
C       7.719300     9.745900     7.634800
H       7.339900    10.505800     8.014100
C       9.617700     8.600700     6.784600
H      10.523800     8.587800     6.574100
C       9.057700     9.730400     7.326500
H       9.582300    10.482300     7.484000
B       3.738300     8.559600     5.020800
H       3.756600     9.034100     4.032800
H       3.317700     9.189300     5.798600
H       3.195200     7.400700     4.954100
H       4.169700     6.944400     6.768400
H       4.877900     8.158100     5.232900
