69
Refcode: SOFBOG_comp_0 | Dataset: tmCAT;tmPHOTO | Charge: -2 | Potential Spins: [1, 3, 5]
Pd     12.279200     4.481700    16.585900
Br      9.757700     9.239300    14.263800
Cl     13.669200     3.128500    18.010700
N      12.155600     3.008400    15.118500
N      13.263500     6.610000    18.497000
N      11.157200     6.310500    18.722700
C      12.561200     1.738300    15.265400
H      12.920400     1.464000    16.078200
C      12.450500     0.821500    14.218700
H      12.706500    -0.065400    14.335600
C      11.958100     1.255200    13.008900
H      11.913900     0.671200    12.288400
C      11.536200     2.548300    12.873200
H      11.195700     2.844300    12.060000
C      11.621100     3.426000    13.958200
C      11.167200     4.821200    13.976700
C      11.295800     5.505100    15.197700
C      10.855400     6.822200    15.254200
H      10.917500     7.300700    16.048300
C      10.317200     7.425800    14.118300
C      10.189700     6.744200    12.917800
H       9.828100     7.158400    12.168800
C      10.607300     5.455700    12.869900
H      10.519000     4.980700    12.073600
C      14.647600     6.554900    18.077300
C      15.011400     7.138900    16.861500
C      16.345000     7.081500    16.510000
H      16.607600     7.449900    15.697600
C      17.309400     6.499800    17.315800
C      16.900800     5.989300    18.527800
H      17.542600     5.626700    19.096000
C      15.584000     5.993800    18.932800
C      14.022600     7.805500    15.954800
H      13.360600     8.257600    16.480600
H      13.597400     7.145800    15.404000
H      14.477900     8.442300    15.398600
C      18.760700     6.467700    16.872100
H      19.002800     7.322500    16.507800
H      18.875700     5.790800    16.200600
H      19.322500     6.270400    17.625200
C      15.196900     5.396100    20.269100
H      14.355400     4.940600    20.183400
H      15.118200     6.096000    20.922900
H      15.872000     4.773000    20.547700
C      12.224400     5.928400    17.965300
C      12.866500     7.379900    19.578800
H      13.410500     7.919100    20.107300
C      11.557800     7.197400    19.715300
H      11.011300     7.591000    20.357400
C       9.763800     5.970900    18.505200
C       9.347100     4.651400    18.677300
C       7.994100     4.376100    18.446500
H       7.699300     3.497200    18.516900
C       7.079400     5.358200    18.115600
C       7.534900     6.666200    18.004700
H       6.928100     7.340900    17.801900
C       8.867200     6.990900    18.189000
C      10.260300     3.558000    19.150600
H      10.914100     3.925100    19.748500
H      10.702400     3.162100    18.397300
H       9.746800     2.887900    19.609800
C       5.617200     5.043800    17.897000
H       5.328900     4.395600    18.546800
H       5.494800     4.689300    17.013500
H       5.100400     5.845800    17.994900
C       9.266600     8.452700    18.074800
H      10.203300     8.514600    17.869800
H       9.089500     8.899000    18.905700
H       8.759000     8.869100    17.375000
