90
Refcode: SOJJEJ_comp_0 | Dataset: tmCAT | Charge: unknown | Potential Spins: [1, 3, 5]
Cu      1.850100     9.871100     3.496700
S       1.411900    11.159600     5.502000
S      -0.531400     9.953700     3.656500
P       2.662200     7.809300     3.753700
P       2.603000    11.384700     2.018700
C      -0.181900    10.937100     4.995900
C      -1.084100    12.431500     6.697500
H      -0.143300    12.560400     6.893200
H      -1.520300    12.094100     7.495800
C      -1.704300    13.725700     6.282100
C      -0.980700    14.634500     5.485300
H      -0.117600    14.448600     5.192700
C      -1.614200    15.808600     5.163300
C      -2.892600    16.095600     5.586300
C      -3.620200    15.230500     6.356400
H      -4.483800    15.430100     6.636400
C      -2.993000    14.031500     6.698900
H      -3.453500    13.417000     7.223700
C       2.055800     6.672500     2.458600
C       2.900400     5.911800     1.657300
H       3.818800     5.933600     1.801300
C       2.378300     5.120800     0.643300
H       2.948600     4.620800     0.104500
C       1.011200     5.073400     0.432900
H       0.664100     4.539600    -0.245300
C       0.163400     5.815200     1.227500
H      -0.756100     5.772300     1.094200
C       0.681300     6.624500     2.223500
H       0.107300     7.141500     2.741400
C       4.475200     7.592200     3.722700
C       5.124600     6.578900     4.434800
H       4.621000     5.964700     4.918100
C       6.505100     6.474200     4.433100
H       6.923400     5.797700     4.915200
C       7.262400     7.384700     3.707300
H       8.190300     7.320100     3.703600
C       6.634300     8.389800     2.988700
H       7.141900     8.995500     2.498200
C       5.253600     8.494600     2.998900
H       4.840700     9.174700     2.517400
C       2.247200     6.957100     5.315400
C       2.424700     7.672100     6.493200
H       2.635600     8.577300     6.458300
C       2.289300     7.038100     7.725900
H       2.426200     7.516400     8.512000
C       1.949600     5.695800     7.780700
H       1.866400     5.270400     8.603300
C       1.735700     4.995900     6.621300
H       1.480600     4.102200     6.662200
C       1.896200     5.612800     5.381700
H       1.770200     5.125800     4.599500
C       1.727800    12.983400     1.965900
C       2.382600    14.206700     2.094200
H       3.306200    14.228000     2.200500
C       1.663800    15.393200     2.064300
H       2.108300    16.204400     2.162600
C       0.292400    15.382600     1.889000
H      -0.185000    16.180700     1.867800
C      -0.360900    14.178500     1.748600
H      -1.282200    14.164100     1.619500
C       0.346400    12.986700     1.796800
H      -0.107700    12.179200     1.714300
C       2.641300    10.885800     0.267600
C       2.589800    11.801300    -0.781900
H       2.479800    12.706400    -0.599300
C       2.702000    11.374000    -2.095300
H       2.657100    11.989700    -2.791100
C       2.881400    10.025400    -2.369500
H       2.976200     9.739600    -3.249200
C       2.917900     9.108800    -1.339500
H       3.030000     8.204700    -1.527200
C       2.789900     9.531800    -0.024900
H       2.801800     8.908300     0.665000
C       4.332600    11.829500     2.365500
C       5.336600    11.862600     1.395200
H       5.118600    11.718600     0.502700
C       6.659000    12.108100     1.747600
H       7.320000    12.119500     1.093500
C       6.993000    12.337000     3.074800
H       7.876600    12.505400     3.312000
C       6.004500    12.313400     4.048000
H       6.224600    12.476100     4.936900
C       4.686600    12.049600     3.699700
H       4.032300    12.018700     4.360400
O      -3.266300    17.340800     5.140900
O      -1.113700    16.862600     4.429200
O      -1.244100    11.476400     5.593700
C      -2.166800    17.816700     4.368900
H      -2.441700    17.946500     3.448400
H      -1.861200    18.667500     4.719600
