38
Refcode: SONLOY_comp_0 | Dataset: tmCAT | Charge: 0 | Potential Spins: [1, 3, 5]
C       8.135700     5.002200     4.350300
H       8.573200     4.331900     3.878000
C       8.197400     5.019900     5.719800
H       8.686400     4.368400     6.169400
C       7.550600     5.981200     6.426200
H       7.605400     5.992300     7.353700
C       6.824600     6.923700     5.778300
H       6.369500     7.571900     6.265700
C       6.757100     6.928100     4.389900
H       6.257400     7.577500     3.949800
C       7.430200     5.971300     3.664600
C       7.419200     6.002200     2.164800
H       6.951900     6.800900     1.873900
H       8.334100     6.065300     1.847400
C       7.373800     3.747800     1.014400
H       8.285400     3.571900     0.967100
C       6.369900     2.976800     0.564800
C       6.314200     1.649300    -0.105800
H       6.453600     0.949100     0.551600
H       7.024600     1.589600    -0.763100
C       4.981500     2.113900    -2.540700
C       5.431100     3.394900    -2.710700
H       5.557400     3.953600    -1.977700
C       5.694900     3.844000    -3.989500
H       6.041300     4.698000    -4.116000
C       5.452700     3.046500    -5.071900
H       5.626000     3.360600    -5.929500
C       4.952800     1.784300    -4.894300
H       4.762900     1.247800    -5.629100
C       4.734500     1.316400    -3.626800
H       4.416100     0.451300    -3.502100
Cl      1.555700     1.826000    -0.514000
Cl      2.247200     4.415500     1.474000
N       6.779200     4.820800     1.543300
N       5.461800     4.776600     1.443500
N       5.204700     3.636100     0.849500
Pd      3.447200     2.880000     0.251800
S       4.702800     1.397900    -0.927900
