38
Refcode: SONLIS_comp_0 | Dataset: tmCAT | Charge: 0 | Potential Spins: [1, 3, 5]
C       6.774600     0.251700     3.768200
H       7.502900    -0.324200     3.830400
C       6.618400     1.025500     2.630900
H       7.222200     0.951200     1.928700
C       4.663300     1.948800     3.588000
H       3.930600     2.519200     3.534100
C       1.808600     9.048400     3.128100
C       5.567100     1.904200     2.548100
C       1.476700    10.384200     3.022500
H       1.513800    10.820800     2.202100
C       1.753900     8.389800     4.313100
H       1.958700     7.483200     4.354500
C       5.397600     2.685400     1.274000
H       6.272400     2.856400     0.890800
H       4.896300     2.149500     0.638100
N       3.362200     4.017500     1.381800
N       4.699400     3.974800     1.470800
C       5.254700     5.147000     1.771200
H       6.156800     5.340200     1.889300
Pd      1.223100     6.097800     1.507300
Se      2.376500     8.167400     1.493000
Cl      0.077300     4.087400     1.451800
Cl     -0.726800     7.269400     1.355900
C       4.125700     7.464600     2.113000
H       4.846000     7.906800     1.636600
H       4.234300     7.643000     3.061800
N       3.041700     5.270600     1.671800
C       4.183100     6.008100     1.868600
C       1.392900     9.071600     5.464900
H       1.377000     8.638800     6.287300
C       5.882200     0.316800     4.797800
H       5.994300    -0.211800     5.556000
C       1.089200    11.054800     4.163900
H       0.848300    11.952200     4.120400
C       4.828300     1.165800     4.700500
H       4.212200     1.215900     5.394400
C       1.061000    10.388800     5.367500
H       0.807700    10.850500     6.134000
