23
Refcode: SOQKEQ_comp_1 | Dataset: tmCAT | Charge: 0 | Potential Spins: [1, 3, 5]
Pd      2.822600     3.892100     6.320700
Cl      2.349200     1.689100     5.839800
N       4.312300     3.805000     4.906100
H       4.255300     2.962600     4.515500
C       5.642900     3.882300     5.535400
H       5.737900     3.159400     6.190500
H       5.740600     4.747300     5.986900
H       6.335000     3.793100     4.848000
C       4.189900     4.786100     3.804300
H       4.250500     5.695100     4.167900
H       3.324800     4.670800     3.358800
H       4.912200     4.643500     3.157800
Cl      3.295900     6.095000     6.801500
N       1.332800     3.979100     7.735200
H       1.389900     4.821500     8.125900
C       0.002300     3.901800     7.106000
H      -0.092800     4.624800     6.450900
H      -0.095500     3.036800     6.654400
H      -0.689900     3.991000     7.793400
C       1.455200     2.998000     8.837100
H       1.394600     2.089100     8.473500
H       2.320400     3.113300     9.282500
H       0.732900     3.140700     9.483500
