37
Refcode: SOSGIR_comp_0 | Dataset: tmCAT | Charge: 0 | Potential Spins: [1, 3, 5]
Zn      2.375500     7.165900     1.671700
Cl      2.274000     9.359900     1.409700
Cl      4.180700     6.166800     0.815700
N       2.025400     6.402900     3.530000
N       3.453500     4.923400     4.787900
N       3.903300     7.102300     4.725400
N       0.582500     6.274100     1.258100
C       3.048500     6.132600     4.330700
C       3.136800     3.679300     4.091400
H       2.300200     3.310800     4.444900
H       3.862100     3.034000     4.229400
H       3.037200     3.858200     3.132600
C       4.800700     5.067200     5.368500
H       5.501900     4.814500     4.716700
H       4.901200     4.516200     6.184200
C       4.858700     6.538600     5.690800
H       4.575100     6.715400     6.623400
H       5.769300     6.902900     5.551300
C       3.520200     8.498200     4.836700
H       2.913700     8.729800     4.103100
H       4.320400     9.061000     4.789500
H       3.066900     8.645000     5.692700
C       0.836000     5.660700     3.562900
C       0.302100     5.066300     4.691700
H       0.791200     5.079700     5.506000
C      -0.960700     4.440800     4.644200
H      -1.306800     4.035000     5.430500
C      -1.699800     4.404100     3.495900
H      -2.547400     3.976000     3.486700
C      -1.197100     5.005200     2.322700
C      -1.895900     5.022900     1.093000
H      -2.739500     4.593900     1.021300
C      -1.360700     5.654800     0.008000
H      -1.827100     5.668100    -0.819500
C      -0.111700     6.284400     0.131200
H       0.248900     6.735100    -0.623200
C       0.067700     5.642800     2.359600
