95
Refcode: SULBOR_comp_0 | Dataset: tmCAT | Charge: unknown | Potential Spins: [1, 3, 5]
Ni      6.041000    -7.723500    -4.579900
O       6.396200    -6.485400    -5.918700
O      11.625300     2.829900    -5.943300
O      11.405400     2.556500    -3.722200
H      11.790800     3.280900    -3.708000
N       6.386500    -6.520200    -3.216400
C       7.070400    -5.310500    -5.808600
C       7.365200    -4.786300    -4.555500
C       8.052700    -3.582800    -4.449900
H       8.249600    -3.231500    -3.612200
C       8.445300    -2.903700    -5.597400
C       8.150500    -3.428000    -6.850500
H       8.412700    -2.973500    -7.618800
C       7.463100    -4.631500    -6.956100
C       7.136800    -5.197900    -8.390800
C       5.630200    -5.252000    -8.601200
H       5.440500    -5.598000    -9.476500
H       5.262900    -4.368400    -8.518500
H       5.235100    -5.825100    -7.938100
C       7.730100    -6.608200    -8.514800
H       7.531900    -6.963500    -9.384500
H       7.347100    -7.176700    -7.842300
H       8.682100    -6.566500    -8.394600
C       7.745800    -4.339100    -9.500900
H       7.518600    -4.714400   -10.355600
H       8.700200    -4.319000    -9.403300
H       7.399000    -3.446200    -9.442700
C       9.219800    -1.558300    -5.441200
C       9.269300    -0.946000    -4.194300
H       8.862100    -1.350100    -3.461900
C       9.926600     0.269200    -4.042500
H       9.959200     0.679700    -3.208300
C      10.534300     0.872100    -5.137400
C      10.484800     0.259800    -6.384300
H      10.890700     0.662700    -7.117300
C       9.827500    -0.955400    -6.536100
H       9.793700    -1.365500    -7.370800
C      11.233800     2.181100    -4.957100
C       6.955600    -5.381700    -3.324800
H       7.115100    -4.904400    -2.543400
C       5.893600    -6.986700    -1.904500
H       4.919800    -6.873900    -1.891500
C       6.463900    -6.299300    -0.666800
H       6.225900    -5.358600    -0.674300
H       7.430400    -6.367300    -0.668700
C       5.897200    -6.968100     0.590600
H       4.937900    -6.822900     0.629300
H       6.293500    -6.563400     1.378700
O       5.685800    -8.961600    -5.918700
O       0.456700   -18.276900    -5.943300
O       0.676600   -18.003500    -3.722200
H       0.291200   -18.727900    -3.708000
N       5.695500    -8.926800    -3.216400
C       5.011600   -10.136500    -5.808600
C       4.716800   -10.660700    -4.555500
C       4.029300   -11.864200    -4.449900
H       3.832400   -12.215500    -3.612200
C       3.636700   -12.543300    -5.597400
C       3.931500   -12.019000    -6.850500
H       3.669300   -12.473500    -7.618800
C       4.618900   -10.815500    -6.956100
C       4.945200   -10.249100    -8.390800
C       6.451800   -10.195000    -8.601200
H       6.641500    -9.849000    -9.476500
H       6.819100   -11.078600    -8.518500
H       6.846900    -9.621900    -7.938100
C       4.351900    -8.838800    -8.514800
H       4.550100    -8.483500    -9.384500
H       4.734900    -8.270300    -7.842300
H       3.399900    -8.880500    -8.394600
C       4.336200   -11.107900    -9.500900
H       4.563400   -10.732600   -10.355600
H       3.381800   -11.128000    -9.403300
H       4.683000   -12.000800    -9.442700
C       2.862200   -13.888700    -5.441200
C       2.812700   -14.501000    -4.194300
H       3.219900   -14.096900    -3.461900
C       2.155400   -15.716200    -4.042500
H       2.122800   -16.126700    -3.208300
C       1.547700   -16.319100    -5.137400
C       1.597200   -15.706800    -6.384300
H       1.191300   -16.109700    -7.117300
C       2.254500   -14.491600    -6.536100
H       2.288300   -14.081500    -7.370800
C       0.848200   -17.628100    -4.957100
C       5.126400   -10.065300    -3.324800
H       4.966900   -10.542600    -2.543400
C       6.188400    -8.460300    -1.904500
H       7.162200    -8.573100    -1.891500
C       5.618100    -9.147700    -0.666800
H       5.856100   -10.088400    -0.674300
H       4.651600    -9.079700    -0.668700
C       6.184800    -8.478900     0.590600
H       7.144100    -8.624100     0.629300
H       5.788500    -8.883600     1.378700
