66
Refcode: SUNROK_comp_0 | Dataset: tmCAT | Charge: unknown | Potential Spins: [1, 3, 5]
Zr     11.009300     9.408700     2.665300
P      11.543900    11.853200     3.166600
C      12.994000     8.616900     1.763600
H      12.881900     7.690500     1.500800
H      13.699200     8.682300     2.426100
H      13.230200     9.148000     0.987500
C      10.566900     7.390900     4.069000
H      10.258500     6.615600     3.635600
C       9.762100     8.435200     4.588800
H       8.822800     8.478100     4.557400
C      10.602700     9.384600     5.152800
H      10.330600    10.172700     5.585800
C      11.932500     8.963600     4.963200
H      12.707200     9.430100     5.221700
C      11.889600     7.716300     4.314600
H      12.635400     7.192000     4.086800
C       9.065800     8.464800     1.418600
H       8.595300     7.752800     1.813400
C       8.807100     9.821100     1.600100
H       8.134700    10.183100     2.149100
C       9.713600    10.553100     0.831600
H       9.759100    11.489900     0.767300
C      10.536200     9.642100     0.177300
H      11.235000     9.857600    -0.413800
C      10.147500     8.350700     0.546700
H      10.544500     7.548600     0.259300
C      12.514800    12.304000     4.672500
C      11.909400    12.924300     5.790000
C      12.665300    13.200100     6.925800
H      12.248400    13.620700     7.654900
C      14.006300    12.879700     7.021400
C      14.593700    12.269900     5.927500
H      15.507600    12.054200     5.971200
C      13.888800    11.961600     4.763600
C      10.443200    13.284200     5.806200
H      10.226100    13.715900     6.647900
H       9.911700    12.478300     5.708300
H      10.251300    13.889000     5.072500
C      14.815900    13.182200     8.262700
H      14.218300    13.419900     8.988700
H      15.417800    13.921900     8.082900
H      15.331000    12.398700     8.511000
C      14.656200    11.266800     3.669900
H      15.517200    11.699400     3.553900
H      14.154200    11.316800     2.841700
H      14.790800    10.337100     3.910900
C      10.988700    13.454300     2.444400
C      11.953800    14.330900     1.881000
C      11.555800    15.556200     1.373100
H      12.207300    16.120200     0.996400
C      10.238400    15.984800     1.396000
C       9.298800    15.114100     1.906300
H       8.394000    15.370700     1.896800
C       9.634300    13.865100     2.437800
C      13.414900    13.985400     1.829700
H      13.861800    14.562300     1.190000
H      13.518700    13.059900     1.557600
H      13.807800    14.110500     2.708500
C       9.862400    17.354100     0.878400
H      10.340400    18.032800     1.381800
H       8.907800    17.487600     0.980400
H      10.100700    17.421800    -0.060400
C       8.501600    13.040300     2.993800
H       8.016100    13.560100     3.653400
H       8.858700    12.241100     3.410100
H       7.901000    12.789800     2.275200
