92
Refcode: SUQTII_comp_0 | Dataset: tmCAT | Charge: unknown | Potential Spins: [1, 3, 5]
Ir      3.594700    14.806700    12.509300
Cl      4.726100    12.676500    12.570700
Cl      5.152900    15.615500    10.915500
P       2.398100    16.800900    12.220800
O      -1.512900    16.225200     9.667200
O       2.518200    13.988400    10.681000
O       1.684600    13.650800    14.446100
C       4.771100    15.423900    14.089300
C       6.156800    15.229900    13.952700
C       7.030400    15.647100    14.949800
C       6.542000    16.254600    16.109900
C       5.177500    16.382700    16.260800
C       4.320500    15.954500    15.265800
C       3.183800    18.309600    12.992400
C       4.694300    18.468800    12.770100
C       5.227400    19.564900    13.679500
C       4.547600    20.884200    13.424600
C       3.044600    20.748800    13.620400
C       2.461300    19.628900    12.764000
C       0.684600    16.706600    12.947500
C      -0.380400    17.634400    12.329700
C      -1.770400    17.275700    12.863900
C      -1.808800    17.383700    14.372700
C      -0.720500    16.514500    15.008900
C       0.654200    16.851200    14.460400
C       2.127400    17.068900    10.429400
C       2.829800    18.093700     9.789100
C       2.650100    18.386400     8.459700
C       1.731300    17.654500     7.733800
C       1.032200    16.637100     8.317000
C       1.230400    16.302200     9.666800
C       0.473000    15.116500    10.190800
C      -0.937200    15.116500    10.176500
C      -1.633000    14.029500    10.702600
C      -0.940700    12.955400    11.230700
C       0.429800    12.931600    11.232700
C       1.130400    14.002100    10.682200
C      -2.925300    16.219900     9.338500
C      -3.221500    17.680100     9.044900
C      -3.152100    15.323200     8.172200
C       3.198500    13.215200     9.617800
C       2.790400    11.762300     9.632100
C       2.978000    13.859400     8.270100
C       2.392800    14.111900    13.720300
H       6.495600    14.809100    13.169700
H       7.965900    15.524500    14.843700
H       7.136500    16.567600    16.782800
H       4.832500    16.768800    17.058100
H       3.383300    16.038700    15.398300
H       3.100600    18.165000    13.928200
H       4.853900    18.710300    11.864800
H       5.131100    17.647200    12.959700
H       5.059800    19.316000    14.580700
H       6.164600    19.656400    13.547000
H       4.718200    21.142200    12.525400
H       4.895400    21.544800    14.013900
H       2.877600    20.554800    14.533800
H       2.625400    21.570400    13.390000
H       2.551200    19.863100    11.848500
H       1.541300    19.520900    12.974000
H       0.380100    15.824600    12.772100
H      -0.178400    18.532800    12.566200
H      -0.363100    17.546500    11.383600
H      -1.974900    16.380900    12.615100
H      -2.414600    17.863100    12.490800
H      -1.649400    18.287600    14.617400
H      -2.659400    17.114700    14.692900
H      -0.911200    15.606900    14.805000
H      -0.726200    16.637100    15.950900
H       1.300100    16.271100    14.847800
H       0.862400    17.751500    14.682700
H       3.448900    18.604200    10.296800
H       3.147400    19.085400     8.049900
H       1.585100    17.863100     6.818300
H       0.399200    16.148500     7.805200
H      -2.582200    14.036900    10.700500
H      -1.423600    12.223500    11.593600
H       0.900900    12.190500    11.595700
H      -3.435500    15.930800    10.084800
H      -3.478600    18.119300     9.846200
H      -2.436600    18.090000     8.696200
H      -3.922700    17.747800     8.406700
H      -3.066100    15.815500     7.364800
H      -2.505600    14.626100     8.188500
H      -4.022800    14.950000     8.223200
H       4.130500    13.253700     9.799300
H       3.377300    11.277400    10.201000
H       1.900800    11.681800     9.952200
H       2.841900    11.411000     8.751300
H       2.875200    14.796200     8.390400
H       3.722800    13.692800     7.707300
H       2.191100    13.504400     7.870400
