86
Refcode: SURBEO_comp_0 | Dataset: tmCAT | Charge: unknown | Potential Spins: [1, 3, 5]
Y      18.694000    -2.016000     1.674100
Cl     17.000100    -0.193000     2.481700
Cl     19.852300    -4.041600     0.509300
P      20.174900     0.350200    -0.340700
O      19.217300    -0.802900    -0.146300
O      16.791600    -2.544500     0.200900
O      17.216300    -3.587600     2.709500
N      19.815300    -2.230500     3.852000
N      20.478900    -0.642900     2.430500
C      19.726900    -2.992700     5.051400
C      19.315100    -2.301100     6.220900
C      19.188400    -3.011100     7.408600
H      18.945300    -2.549500     8.202100
C      19.406400    -4.366100     7.463300
H      19.357100    -4.826200     8.292300
C      19.696000    -5.049900     6.305700
H      19.797700    -5.993300     6.340100
C      19.844200    -4.391300     5.077200
C      18.952100    -0.825700     6.157500
H      18.559700    -0.548200     7.011200
H      18.305300    -0.679300     5.437000
H      19.758400    -0.299000     5.982500
C      20.050000    -5.196500     3.815400
H      20.332800    -6.106100     4.050600
H      20.742000    -4.771100     3.266700
H      19.210200    -5.235300     3.311800
C      20.779200    -1.397000     3.545900
C      22.236200    -1.432100     4.136500
C      23.179200    -0.512500     3.346100
H      24.107200    -0.713400     3.586700
H      22.981900     0.422300     3.563100
H      23.050100    -0.661000     2.386100
C      22.736200    -2.870500     3.923900
H      23.684900    -2.924500     4.165500
H      22.622600    -3.121300     2.983200
H      22.218700    -3.483200     4.488700
C      22.344300    -1.075100     5.620600
H      23.273100    -1.182900     5.915900
H      21.764900    -1.668200     6.142500
H      22.066500    -0.144300     5.753700
C      20.574900     0.717100     2.367900
C      20.764500     1.568800     3.483600
H      20.825900     1.188200     4.351300
C      20.860500     2.925100     3.340800
H      21.027900     3.457000     4.109700
C      20.720200     3.548800     2.109100
H      20.797100     4.493000     2.029600
C      20.463700     2.758800     0.998700
H      20.330200     3.168500     0.151400
C      20.399900     1.358900     1.111400
C      19.520500     1.438400    -1.611900
C      18.182300     1.840800    -1.458300
H      17.660100     1.502900    -0.741000
C      17.630400     2.733600    -2.360300
H      16.728900     3.013700    -2.249700
C      18.359600     3.216200    -3.402000
H      17.969600     3.837300    -4.006600
C      19.678400     2.800500    -3.581300
H      20.180700     3.121300    -4.321200
C      20.249900     1.925500    -2.684600
H      21.151100     1.652400    -2.802800
C      21.803200    -0.202800    -0.854800
C      22.872300     0.694300    -0.821500
H      22.740600     1.581600    -0.510100
C      24.119000     0.287700    -1.242500
H      24.846800     0.897000    -1.218800
C      24.316200    -1.010100    -1.703100
H      25.174700    -1.277400    -2.009200
C      23.265500    -1.915200    -1.717100
H      23.404200    -2.806500    -2.017800
C      21.999900    -1.509200    -1.286500
H      21.277000    -2.124600    -1.288600
C      16.283500    -1.591100    -0.729200
H      15.595800    -2.011800    -1.286500
H      17.014800    -1.269500    -1.298300
H      15.892200    -0.836700    -0.242700
C      15.709900    -3.252900     0.878400
H      15.118500    -3.695700     0.220100
H      15.170900    -2.625500     1.422900
C      16.380100    -4.268300     1.751500
H      15.698100    -4.807800     2.224000
H      16.930900    -4.878600     1.198400
C      16.572100    -3.401400     3.979700
H      16.521700    -4.259600     4.449000
H      15.666600    -3.053100     3.838000
H      17.088300    -2.764500     4.516700
