74
Refcode: SURLIB_comp_0 | Dataset: tmCAT | Charge: unknown | Potential Spins: [1, 3, 5]
Ir      5.000800     2.767100     2.465000
N       4.385900     2.671100     0.371700
N       3.104000     3.516300     2.502000
O       5.960700     4.554900     2.159500
O       4.312400     5.956200     1.611500
O       4.230800     0.939500     2.969200
F       7.571400     6.517600     1.252100
F       6.014700     7.947300     1.575600
F       6.941100     6.948700     3.219600
F       3.982500    -1.402700     4.178700
F       3.817200    -2.280200     2.269600
F       2.214900    -1.365100     3.130900
C       1.286800     4.321900     3.728400
H       0.905500     4.529900     4.574000
C       2.576400     3.847300     3.670000
C       6.975500     2.057000     3.095000
H       7.624300     2.747700     3.382500
H       6.994700     1.239600     3.654200
C       1.129700     4.160200     1.371200
H       0.650700     4.284300     0.560400
C       6.835800     1.875000     1.760900
H       6.774800     0.936400     1.450900
H       7.402100     2.441500     1.180300
C       5.024200     2.160200    -0.685000
H       5.894900     1.806100    -0.549100
C       0.527200     4.505800     2.573900
C       2.416000     3.635300     1.325100
C      -0.893300     5.099900     2.584000
C       3.129000     3.194000     0.123500
C       5.441400     5.655400     1.919200
C       3.528100     3.690000     4.794100
C       3.437800    -1.236600     3.024200
C      -1.836200     4.094900     1.893400
H      -1.714900     3.207500     2.290900
H      -1.627100     4.055100     0.936600
H      -2.764900     4.382600     2.013500
C      -0.834200     6.412400     1.806900
H      -1.743500     6.733900     1.638500
H      -0.375400     6.266300     0.953400
H      -0.342900     7.079800     2.330200
C       5.760800     3.278900     5.499300
H       6.656500     3.013700     5.324100
C       2.581800     3.232700    -1.125200
H       1.731100     3.637000    -1.247700
C      -1.400000     5.368300     3.979900
H      -0.864500     6.076500     4.392000
H      -1.330200     4.549600     4.515600
H      -2.338800     5.649500     3.937200
C       2.645400     2.740700    -3.612700
C       1.187200     2.214100    -3.579000
H       1.111200     1.503200    -2.908600
H       0.948900     1.857900    -4.460600
H       0.580300     2.948200    -3.347700
C       2.601000     4.207600    -4.097800
H       2.029300     4.732600    -3.498100
H       2.237000     4.240800    -5.006300
H       3.507000     4.581100    -4.094500
C       3.444700     1.890000    -4.645800
H       3.174000     2.143600    -5.553200
H       3.262400     0.942600    -4.499900
H       4.404800     2.062400    -4.533500
C       4.827300     3.269800     4.456100
C       4.506300     2.114800    -1.943900
H       4.998400     1.691100    -2.636800
C       4.118900     4.033000     7.069300
H       3.877700     4.262100     7.958700
C       5.403400     3.670500     6.795300
H       6.057200     3.683800     7.484800
C       6.511300     6.783200     1.984300
C       3.174700     4.072200     6.087800
H       2.288600     4.354400     6.282100
C       3.250800     2.687500    -2.231400
O       4.469500    -0.170500     1.150000
C       3.875400     0.116100     2.395400
