94
Refcode: TACFUY_comp_0 | Dataset: tmCAT | Charge: unknown | Potential Spins: [1, 3, 5]
W       3.962300     1.808200     2.459400
F       8.629200     4.115900     1.673200
F       6.745400     4.687200     2.595300
F       6.785700     3.897200     0.597900
F       7.612100     1.367200     0.265900
F       9.248700     1.510600     1.665500
F       7.669200     0.095600     1.966300
F       0.978100    -0.433800     1.436400
F       1.695100    -0.920200    -0.518300
F       1.494500    -2.461900     0.962800
F       4.153900    -2.991300     0.512500
F       5.546900    -1.412600     0.933700
F       4.342500    -1.331300    -0.838600
O       5.789400     2.060400     2.179900
O       3.503400     0.468500     1.030700
N       3.374300     2.686600     3.847300
C       2.650600     3.144300     4.977000
C       1.315500     2.745100     5.169200
C       0.644400     3.288900     6.267800
C       1.252600     4.142200     7.127700
C       2.577700     4.496000     6.958900
C       3.309500     3.995200     5.883500
C       0.589300     1.758000     4.287900
C       0.251400     0.475600     5.060500
C      -0.689000     2.346000     3.688100
C       4.777300     4.375300     5.743700
C       5.536900     4.136200     7.028700
C       4.929500     5.823700     5.332200
C       7.149100     2.354300     2.395300
C       7.333300     3.780100     1.809100
C       7.936300     1.327800     1.547100
C       7.565600     2.259900     3.855000
C       6.977700     1.285900     4.641200
C       7.356300     1.128200     5.963100
C       8.343700     1.909800     6.537600
C       8.942800     2.858700     5.734000
C       8.562300     3.046300     4.416000
C       8.747400     1.766400     7.987600
C       3.270700    -0.886800     1.263700
C       1.840300    -1.187900     0.772600
C       4.321300    -1.660000     0.450300
C       3.412300    -1.161600     2.733100
C       3.613300    -0.010800     3.495900
C       3.746600    -0.151800     4.912900
C       3.689500    -1.400700     5.510800
C       3.461400    -2.513300     4.726600
C       3.318900    -2.412900     3.346500
C       3.822300    -1.526100     7.011300
C       2.704300     2.892100     1.081200
C       2.517400     4.425500     1.009400
C       1.792000     4.995500     2.115800
C       3.741400     5.111400     0.943400
C       1.764200     4.779200    -0.219300
H      -0.307600     3.036700     6.417300
H       0.740200     4.522300     7.844000
H       3.006000     5.103100     7.593600
H       1.158400     1.498700     3.556100
H       1.048100     0.053800     5.394300
H      -0.315200     0.666900     5.805800
H      -0.200500    -0.167300     4.501400
H      -1.285400     2.643600     4.400500
H      -0.478000     3.152700     3.177600
H      -1.154600     1.756800     3.132900
H       5.153000     3.831500     5.035200
H       5.174000     4.634600     7.746900
H       5.488200     3.189700     7.277200
H       6.468100     4.345400     6.939500
H       4.495400     6.006600     4.484000
H       4.552900     6.415300     5.978600
H       5.859000     6.069900     5.217700
H       6.290700     0.713500     4.253000
H       6.912000     0.447000     6.491100
H       9.656500     3.407200     6.102800
H       8.998300     3.708400     3.860900
H       8.011900     1.927700     8.568000
H       9.084200     0.885600     8.156500
H       9.447500     2.392600     8.207000
H       3.879300     0.638200     5.466200
H       3.372300    -3.384500     5.151700
H       3.123500    -3.194500     2.801000
H       4.657200    -1.165200     7.302400
H       3.118700    -1.027800     7.444100
H       3.761800    -2.430800     7.285000
H       1.804800     2.549100     1.224800
H       2.973600     2.630400     0.205800
H       0.868800     4.616700     2.210900
H       2.187600     4.778000     3.010700
H       1.675800     5.938500     2.117700
H       4.307700     4.916600     1.776100
H       4.307700     4.861700     0.227100
H       3.666300     6.068700     0.958900
H       2.200000     4.449400    -1.021000
H       0.874300     4.345400    -0.219300
H       1.613100     5.706600    -0.324200
