99
Refcode: TAJBUE_comp_0 | Dataset: tmCAT | Charge: unknown | Potential Spins: [1, 3, 5]
Ti      4.021800     2.012600    19.642800
N       4.324700     0.313600    20.545000
N       5.779100     1.833700    15.930100
N       5.609300     2.855400    20.406600
N       2.563300     3.346600    20.274100
N       1.832200     1.467200    19.343500
N       4.358600     3.523300    15.787800
N       4.406400     2.299900    17.868600
C       3.364400     6.045800    22.870500
H       4.099700     6.677600    22.906700
H       2.535500     6.549700    22.881100
C       0.246100    -1.855000    17.040500
H      -0.372900    -2.287700    16.432700
H       0.908500    -2.509900    17.310700
C       2.358300     4.052300    24.033100
H       1.478300     4.456200    24.082400
H       2.460000     3.459000    24.794600
C       0.406100    -0.554900    19.185500
H       1.125300    -1.122200    19.504900
H      -0.099400    -0.248100    19.955600
C       5.034000     3.417600    14.576600
H       4.908400     3.961000    13.832400
C      -0.509000    -1.366500    18.268100
H      -0.861800    -2.128100    18.754400
H      -1.257000    -0.816400    17.989000
C       3.781200     5.389900    17.299900
H       3.907000     4.826400    18.067600
H       3.115800     6.053500    17.495700
H       4.610200     5.821700    17.081100
C       5.893000     2.401200    14.667800
H       6.472700     2.119400    13.996100
C       0.097200     4.646600    19.397700
H      -0.345500     4.718700    18.548100
H       0.965100     5.051400    19.341200
H      -0.421900     5.096600    20.068300
C       4.811000     2.526700    16.656500
C       3.322800    -0.351000    21.356500
H       3.639600    -0.426000    22.260300
H       3.153400    -1.227000    21.001700
H       2.510700     0.160600    21.344000
N       0.238500     3.246100    19.753200
C       6.622700     0.724100    16.461800
C       3.108700     5.440900    14.887600
H       3.934900     5.873600    14.661600
H       2.445000     6.104400    15.089000
H       2.813300     4.909100    14.145000
C       6.372700     3.926300    19.781700
H       6.071000     4.050400    18.879800
H       7.304000     3.695500    19.779200
H       6.246800     4.739900    20.276700
C       7.474000     1.258800    17.624300
H       8.059500     1.948300    17.302200
H       7.995800     0.542400    17.993200
H       6.899300     1.618400    18.303600
C       7.553500     0.241400    15.346000
H       7.029300    -0.077900    14.608500
H       8.106900    -0.469300    15.675800
H       8.107400     0.969300    15.054900
C      -1.001700     2.509900    19.869100
H      -1.596800     2.977200    20.459500
H      -0.823100     1.634800    20.221400
H      -1.409300     2.430000    19.003100
C       0.998900     0.653100    18.451000
H       0.266300     1.206800    18.105900
C       0.936700    -0.703000    16.321300
H       0.265700    -0.124100    15.928800
H       1.482700    -1.056800    15.601400
C       1.501400     2.655500    19.782600
C       5.565900    -0.441400    20.570300
H       5.428100    -1.298200    20.161800
H       5.848100    -0.561600    21.480000
H       6.242100     0.038500    20.085300
C       3.319600     4.539900    16.110800
C       5.737300    -0.432700    16.905300
H       5.121600    -0.126900    17.576500
H       6.283700    -1.133800    17.268200
H       5.247300    -0.768300    16.149900
C       1.820400     0.120200    17.267200
H       2.209800     0.864500    16.781300
H       2.544000    -0.433700    17.597800
C       3.418500     5.138000    24.092400
H       4.295900     4.726400    24.146200
H       3.287500     5.669800    24.892400
C       6.156200     2.604100    21.738100
H       6.049800     3.388800    22.281600
H       7.088100     2.388700    21.665000
H       5.688500     1.869400    22.143400
C       2.404600     4.147500    21.498700
H       1.520600     4.569700    21.477900
C       2.477700     3.242600    22.732500
H       3.320900     2.762800    22.730200
H       1.762000     2.589700    22.694000
C       3.451600     5.239900    21.568100
H       3.335800     5.840000    20.814600
H       4.333200     4.840800    21.499200
C       2.008300     3.827300    16.426300
H       1.754200     3.280100    15.680000
H       1.322900     4.477300    16.594200
H       2.122700     3.274400    17.202300
