141
Refcode: TAJKIB_comp_0 | Dataset: tmCAT | Charge: unknown | Potential Spins: [1, 3, 5]
Pd     11.714300     6.988400     7.373300
Br     12.692100     5.931200     5.408500
Br     10.904700     8.345100     9.248900
N      14.231600     6.987300     9.076400
N      13.379100     5.021000     8.986800
N      10.140400     8.786900     5.533400
N       8.896700     7.178100     6.183100
O      16.815500     6.999900     4.608100
O      13.758100     8.543700     1.302500
O      10.756800    12.212600     1.256900
O      15.040200    11.386600     5.074300
C      13.226200     6.284500     8.517600
C      10.148800     7.667700     6.290000
C      14.467500     4.956400     9.864700
H      14.773400     4.189300    10.334800
C       8.896600     8.989500     4.963800
H       8.648400     9.708500     4.394600
C      14.994100     6.192800     9.909800
H      15.747900     6.467600    10.417500
C       8.113000     7.992400     5.358400
H       7.201700     7.859200     5.127000
C      14.513700     8.389700     8.784300
H      15.184000     8.723400     9.430600
H      13.684800     8.917100     8.907200
C      15.033800     8.613100     7.374600
C      15.710800     7.625300     6.690200
H      15.872600     6.780000     7.092600
C      16.153000     7.893900     5.398500
C      15.949600     9.149600     4.824800
H      16.261200     9.329700     3.945600
C      15.299400    10.118400     5.534800
C      14.823700     9.852100     6.819900
H      14.357900    10.522500     7.307800
C      16.889900     5.646800     5.061200
H      15.976400     5.295100     5.209800
H      17.379100     5.609500     5.921500
C      17.594000     4.803800     4.040800
C      15.447800    11.666200     3.719500
H      14.965200    11.076400     3.087000
H      16.419400    11.513500     3.614600
C      17.551100     3.434000     4.156000
H      17.059600     3.045000     4.870500
C      15.113900    13.103900     3.448400
C      18.206400     2.605400     3.256600
H      18.164500     1.663300     3.360100
C      13.833100    13.480100     3.126300
H      13.154100    12.819200     3.060100
C      18.917000     3.155200     2.220100
H      19.370900     2.597200     1.599400
C      13.514300    14.809600     2.896600
H      12.626400    15.055900     2.667000
C      18.966900     4.527900     2.085600
H      19.448900     4.912500     1.363500
C      14.475200    15.755900     3.002200
H      14.260300    16.669200     2.853200
C      18.328400     5.342300     2.983500
H      18.386200     6.285400     2.884200
C      15.760100    15.398700     3.324900
H      16.433700    16.064000     3.403500
C      16.067000    14.082700     3.531800
H      16.962900    13.840900     3.738700
C      12.642000     3.872500     8.542600
C      13.241500     3.015000     7.622700
C      12.526700     1.939600     7.163000
H      12.938700     1.340800     6.550500
C      11.219000     1.696300     7.565400
C      10.667100     2.560200     8.491100
H       9.780100     2.397300     8.789200
C      11.351100     3.663200     9.012300
C      10.721900     4.548000    10.049300
H       9.816500     4.230600    10.245800
H      10.679900     5.467600     9.714100
H      11.259400     4.524600    10.868600
C      14.644900     3.246600     7.115400
H      14.883900     2.538300     6.482300
H      15.270500     3.234800     7.868500
H      14.690900     4.115800     6.666400
C      11.259500     9.722600     5.393500
H      12.044500     9.369800     5.884300
H      11.012000    10.590900     5.799500
C      11.633800     9.939200     3.940300
C      12.555800     9.093400     3.342700
H      12.961900     8.389900     3.836000
C      12.871600     9.302500     2.003200
C      12.296300    10.334800     1.288000
H      12.529900    10.470500     0.376600
C      11.391900    11.159500     1.892100
C      10.434300     0.539600     7.009900
H      10.989300     0.042400     6.374700
H       9.635600     0.876600     6.552600
H      10.164300    -0.054000     7.742300
C      14.147100     7.278000     1.793800
H      13.363400     6.807700     2.174500
H      14.823800     7.386800     2.509700
C      14.717900     6.484900     0.668100
C      15.456100     5.340200     0.916600
H      15.625800     5.085800     1.816600
C      15.944900     4.572900    -0.093100
H      16.454700     3.797400     0.109700
C      11.047500    10.983600     3.228300
H      10.424100    11.564400     3.647700
C      15.705400     4.914200    -1.406900
H      16.030600     4.370300    -2.114500
C      14.992700     6.050600    -1.673800
H      14.837400     6.307000    -2.575900
C      14.498500     6.823000    -0.653800
H      13.997200     7.602500    -0.860700
C      11.088200    12.390100    -0.134300
H      10.869400    11.569700    -0.643500
H      12.055700    12.571200    -0.233800
C      10.290300    13.550100    -0.656500
C      10.824800    14.798400    -0.717500
H      11.703000    14.946400    -0.389000
C      10.104500    15.867500    -1.256100
H      10.487100    16.736500    -1.297300
C       8.838400    15.644100    -1.723500
H       8.337800    16.362900    -2.091800
C       8.290800    14.397500    -1.665600
H       7.406400    14.255400    -1.980100
C       9.015200    13.337100    -1.148300
H       8.637100    12.464600    -1.131800
C       8.322000     6.028800     6.862700
C       8.496700     4.756300     6.353800
C       7.832100     3.716200     6.975100
H       7.936400     2.835300     6.631200
C       7.022700     3.910400     8.077700
C       6.883600     5.194700     8.567600
H       6.343300     5.340100     9.335400
C       7.514200     6.282400     7.966000
C       9.351400     4.479700     5.135300
H       9.347300     3.519000     4.945000
H      10.270500     4.774700     5.307000
H       8.990300     4.967300     4.365600
C       6.289700     2.761000     8.720900
H       6.503500     1.930300     8.247100
H       5.324300     2.924300     8.677500
H       6.564200     2.683300     9.658200
C       7.292300     7.672500     8.497500
H       7.806600     8.312000     7.963700
H       7.585300     7.715900     9.430600
H       6.339300     7.893600     8.443700
