122
Refcode: TAJZUC_comp_0 | Dataset: tmCAT | Charge: unknown | Potential Spins: [1, 3, 5]
Y       2.197100     4.314200    13.623400
Si      4.155400     2.080200    15.439500
Si      2.791900     0.982900    13.042700
Si     -0.888900     4.312000    11.619000
Si     -0.909400     3.752700    14.526100
P       4.581700     5.293100    11.303100
O       3.238200     4.687500    11.661000
N       2.099600     6.357600    14.990800
N       4.038600     5.791000    14.137900
N       3.115100     2.311400    14.087000
N      -0.039700     4.174300    13.101400
C       3.357700     6.752600    14.803300
C       3.966300     8.128300    15.171900
C       2.945200     9.251400    15.347000
H       3.412100    10.093600    15.524500
H       2.353900     9.042000    16.101000
H       2.413500     9.338500    14.528200
C       4.765400     8.025700    16.482800
H       4.944900     8.925400    16.826800
H       5.613400     7.565800    16.314500
H       4.246400     7.520200    17.143500
C       4.899200     8.597100    14.049600
H       5.296400     9.458800    14.293400
H       4.387200     8.697300    13.218800
H       5.609200     7.935800    13.916200
C       1.036000     7.134200    15.538400
C       0.179700     7.819000    14.659500
C      -0.890800     8.538200    15.184000
H      -1.471100     9.007700    14.595800
C      -1.119800     8.578500    16.547500
H      -1.845100     9.083800    16.898000
C      -0.289700     7.880200    17.393300
H      -0.453400     7.906600    18.328400
C       0.783100     7.134600    16.912200
C       0.423200     7.805100    13.180400
H      -0.223700     8.394500    12.738400
H       0.318700     6.891700    12.841600
H       1.332700     8.120800    12.994600
C       1.647800     6.389800    17.890700
H       1.083600     5.975600    18.577500
H       2.274100     7.013300    18.314200
H       2.150800     5.694300    17.417500
C       5.393600     5.586600    13.927200
C       6.359100     5.515800    14.943500
H       6.098000     5.661400    15.844800
C       7.681900     5.238300    14.656000
H       8.320600     5.209000    15.360800
C       8.086400     5.001500    13.348700
H       9.003700     4.853000    13.151200
C       7.152200     4.983000    12.341700
H       7.420300     4.779500    11.453900
C       5.802000     5.262700    12.617800
C       4.393700     7.004900    10.792400
C       3.129100     7.513800    10.545100
H       2.369600     6.947500    10.617700
C       2.967500     8.840100    10.196100
H       2.098600     9.185100    10.030600
C       4.065400     9.662300    10.088600
H       3.951400    10.577700     9.859800
C       5.340300     9.158800    10.311700
H       6.096900     9.724900    10.219200
C       5.508800     7.833400    10.669300
H       6.380200     7.489800    10.831200
C       5.341100     4.373500     9.952700
C       5.669500     4.965700     8.737600
H       5.461800     5.878000     8.571800
C       6.312300     4.192800     7.758700
H       6.538400     4.583100     6.920700
C       6.617600     2.870000     8.004200
H       7.065300     2.360600     7.340600
C       6.282100     2.284600     9.191200
H       6.487000     1.371000     9.343900
C       5.640800     3.026800    10.174700
H       5.405100     2.617800    10.998500
C       5.960100     2.000100    14.954900
H       6.143400     1.140400    14.521100
H       6.517800     2.088200    15.755800
H       6.164700     2.729300    14.332500
C       3.931500     3.472300    16.684900
H       3.941400     4.333400    16.218400
H       4.661500     3.447800    17.339200
H       3.075100     3.361600    17.147100
C       3.801400     0.523400    16.421200
H       3.905100    -0.259800    15.841200
H       2.884500     0.556300    16.766300
H       4.428100     0.460000    17.172000
C       4.279600    -0.118900    12.711400
H       4.021400    -0.841300    12.101500
H       4.597800    -0.501800    13.556800
H       4.994200     0.411800    12.304300
C       1.440700    -0.147700    13.694500
H       1.320200    -0.900900    13.080000
H       0.602400     0.353500    13.766800
H       1.695700    -0.485300    14.578000
C       2.215600     1.578700    11.362100
H       1.947500     0.809700    10.817000
H       2.946200     2.056500    10.916600
H       1.450200     2.181900    11.475300
C       0.135900     5.185400    10.319200
H       0.259700     6.122600    10.575000
H      -0.324300     5.141900     9.454200
H       1.011000     4.749100    10.244100
C      -1.402300     2.666000    10.867900
H      -0.604100     2.141400    10.653300
H      -1.918100     2.825600    10.052000
H      -1.953300     2.170500    11.510900
C      -2.478000     5.320500    11.730000
H      -2.295900     6.168200    12.186900
H      -3.149900     4.816200    12.236700
H      -2.815300     5.499200    10.827700
C      -1.898800     2.172900    14.385900
H      -2.253100     1.929800    15.268300
H      -1.320500     1.453400    14.055000
H      -2.643700     2.307400    13.763200
C      -2.113100     5.029300    15.184000
H      -2.506200     4.706000    16.022700
H      -2.824300     5.178600    14.524700
H      -1.639000     5.871700    15.350200
C       0.339100     3.452400    15.901700
H      -0.135700     3.266600    16.737900
H       0.901200     4.248600    16.012000
H       0.902200     2.686200    15.670400
