82
Refcode: TANQOP_comp_0 | Dataset: tmCAT | Charge: 1 | Potential Spins: [1, 3, 5]
Cu      0.132700     2.818900    10.418400
O       0.986300     1.453900    12.626400
O       1.765200     1.691100     8.574900
O      -2.359200     3.937100    10.345500
N      -0.229000     6.385800    16.228800
N       0.657400     2.632700    12.308100
N       4.525500     7.245100     7.980800
N       1.435100     2.806300     9.037400
N      -4.872300    -1.684400    11.211100
N      -1.796800     2.815300    10.434600
C      -2.061800     7.995100    15.747800
H      -2.229300     8.918800    15.467800
H      -2.517500     7.822900    16.598600
H      -2.402100     7.380700    15.063900
C      -0.573600     7.782200    15.921000
H      -0.110100     8.053200    15.089300
H      -0.247600     8.364000    16.652400
C      -1.511400     5.180800    18.009700
H      -1.495000     4.969900    18.966400
H      -1.515300     4.349200    17.493000
H      -2.318400     5.696700    17.802700
C      -0.281200     5.996400    17.648400
H      -0.264700     6.813900    18.205000
H       0.527600     5.469000    17.865500
C       0.019500     5.489400    15.278800
C      -0.074300     5.804300    13.893600
H      -0.295600     6.688400    13.626500
C       0.148200     4.858000    12.955800
H       0.077200     5.090800    12.038000
C       0.481900     3.539200    13.304100
C       0.616300     3.222700    14.672600
H       0.862600     2.341300    14.927800
C       0.401300     4.149800    15.620600
H       0.503900     3.913100    16.534200
C       3.323400     9.314300     7.449100
H       3.097300    10.200400     7.801900
H       2.500100     8.814600     7.269400
H       3.833300     9.413400     6.618800
C       4.153900     8.566100     8.463100
H       4.973300     9.084600     8.662000
H       3.639500     8.475200     9.303700
C       6.930000     6.707200     8.279700
H       7.778000     6.632000     7.794500
H       6.696400     5.837800     8.668000
H       7.021100     7.370500     8.995600
C       5.836000     7.144200     7.321900
H       6.073800     8.023400     6.935900
H       5.776100     6.493400     6.578400
C       3.737000     6.168900     8.153900
C       4.112200     4.887300     7.660300
H       4.912700     4.799200     7.157300
C       3.353900     3.796300     7.893000
H       3.613600     2.954100     7.538700
C       2.178400     3.904100     8.660700
C       1.768100     5.155400     9.100700
H       0.960100     5.232100     9.593900
C       2.496000     6.272900     8.840900
H       2.176000     7.123200     9.118200
C      -4.017800    -3.463800    12.705400
H      -3.648100    -4.370400    12.703600
H      -4.845000    -3.450000    13.230100
H      -3.368300    -2.846800    13.102900
C      -4.314700    -3.037100    11.286200
H      -3.479100    -3.072400    10.756100
H      -4.956500    -3.674900    10.884700
C      -7.053600    -1.575000    10.039900
H      -8.020400    -1.548800    10.196700
H      -6.828500    -2.378000     9.523600
H      -6.781600    -0.777600     9.538500
C      -6.329900    -1.608300    11.363400
H      -6.558700    -0.792900    11.877900
H      -6.641600    -2.391500    11.882400
C      -4.119900    -0.594800    11.044200
C      -4.730600     0.690800    10.904300
H      -5.676000     0.763900    10.953500
C      -3.995600     1.795400    10.705200
H      -4.426300     2.636300    10.602000
C      -2.585400     1.719100    10.647900
C      -1.972000     0.469400    10.797200
H      -1.025000     0.410300    10.759100
C      -2.700000    -0.661100    10.995400
H      -2.260100    -1.497100    11.101600
