53
Refcode: TAPVOY_comp_0 | Dataset: tmCAT | Charge: 0 | Potential Spins: [1, 3, 5]
Zn      2.615300     6.751900     1.946100
C       5.351800     7.994700     3.744400
H       5.120900     8.294300     2.895900
C       5.492500     8.902400     4.771500
H       5.371300     9.810700     4.607800
C       5.816200     8.466000     6.052300
H       5.893700     9.073000     6.753200
C       6.017800     7.127200     6.264400
H       6.247600     6.826700     7.114000
C       5.885100     6.221900     5.241900
H       6.020400     5.316200     5.407900
C       5.549300     6.646400     3.959900
C       5.330800     5.639900     2.869400
H       5.657500     5.995300     2.029000
H       5.829100     4.832200     3.068800
C       3.644500     4.146600     1.873300
H       4.022200     3.350900     2.278000
H       4.071100     4.283800     1.013300
C       2.150100     3.975000     1.690000
H       1.971800     3.194800     1.142400
H       1.724300     3.844700     2.552300
C       0.115700     5.185200     0.976400
H      -0.245800     5.187400     1.876800
H      -0.192000     4.381300     0.529100
C      -0.377700     6.399300     0.229400
C      -0.086900     6.544900    -1.104400
H       0.385000     5.874300    -1.541300
C      -0.476400     7.656100    -1.809900
H      -0.254600     7.740000    -2.709100
C      -1.186300     8.633900    -1.188600
H      -1.445500     9.391100    -1.662400
C      -1.518600     8.509000     0.116400
H      -2.009500     9.178400     0.536100
C      -1.125500     7.369200     0.841600
H      -1.372100     7.275600     1.732700
C       0.928600     7.397700     3.946100
C      -0.048000     8.265600     4.700000
H      -0.793600     7.734200     4.987100
H      -0.359500     8.969600     4.127100
H       0.387200     8.645600     5.466700
C       3.933200     7.434400    -0.425400
C       4.453100     8.434000    -1.430600
H       5.264000     8.101100    -1.822600
H       4.630500     9.268100    -0.990300
H       3.796700     8.567500    -2.117700
N       3.881600     5.314600     2.743800
H       3.519000     5.107300     3.690200
N       1.604000     5.186800     1.035600
H       1.839300     5.158100     0.109500
O       1.001700     6.195500     4.178800
O       1.633100     7.984400     3.064200
O       3.522700     7.920600     0.686000
O       3.907800     6.237300    -0.695600
