43
Refcode: TATTAL_comp_0 | Dataset: tmCAT | Charge: 0 | Potential Spins: [1, 3, 5]
Pd     11.285100     3.133800    11.348700
C      11.882800     1.573200     7.271000
C      10.698100     1.039700     6.510200
H      10.453300     0.157300     6.861100
H      10.929100     0.961000     5.560200
H       9.941900     1.651900     6.613200
C      12.323200     2.910400     6.734300
H      11.582700     3.550000     6.802300
H      12.589700     2.811300     5.795700
H      13.087300     3.235300     7.256300
C      13.049800     0.598500     7.204200
H      13.814000     0.971300     7.691000
H      13.300600     0.451400     6.267900
H      12.787200    -0.253100     7.610600
C      11.482000     1.761300     8.744000
O      11.818300     2.721300     9.365600
O      10.769600     0.746200     9.210400
C      10.153100     0.588200    10.491000
C      10.245900     1.480900    11.538300
C       9.497600     1.087600    12.701000
C       8.800600    -0.085500    12.741800
H       8.342500    -0.324900    13.538800
C       8.747300    -0.930200    11.666200
H       8.237800    -1.730500    11.705800
C       9.456100    -0.598500    10.511300
H       9.452200    -1.173100     9.757300
N       9.446200     1.901500    13.833200
C      10.076100     3.108800    14.081200
C       9.851000     3.751800    15.325500
H       9.292200     3.331100    15.969700
C      10.423600     4.983000    15.625500
H      10.269600     5.393400    16.467800
C      11.225300     5.598600    14.675600
H      11.630100     6.436500    14.863500
C      11.440500     4.979600    13.449400
C      10.865900     3.731200    13.150500
C      12.260000     5.584900    12.388500
O      12.398400     4.968900    11.320900
C      12.998500     6.870800    12.579900
H      13.713200     6.740900    13.236600
H      12.376500     7.558200    12.902600
H      13.383500     7.154700    11.726200
H       9.043400     1.436400    14.469500
