87
Refcode: TAWVIZ_comp_0 | Dataset: tmCAT | Charge: unknown | Potential Spins: [1, 3, 5]
Pt      2.370900     3.900100     3.236300
H       2.522200     2.352300     3.601900
P       2.021100     6.121400     2.849200
N       0.402500     4.037600     3.994400
N       0.411700     6.266800     3.455700
H       0.049600     6.965100     3.509500
C      -0.206700     5.173300     3.985200
C       4.302900     3.659000     2.507500
H       4.274400     3.765600     1.523900
H       4.858500     4.394100     2.867700
C       4.994700     2.368900     2.812200
C       5.625900     2.135500     4.029800
H       5.568100     2.797100     4.708600
C       6.328800     0.983200     4.288400
H       6.747700     0.865600     5.133500
C       6.428300     0.000000     3.332500
H       6.920200    -0.793900     3.509500
C       5.808800     0.178300     2.125700
H       5.858800    -0.501700     1.463800
C       5.107300     1.352600     1.865600
H       4.693400     1.462900     1.017500
C       2.935400     7.358400     3.885100
C       2.598900     7.036800     5.353600
H       1.637000     7.152600     5.501300
H       2.851900     6.110600     5.550600
H       3.094800     7.643300     5.941600
C       4.443600     7.167300     3.691200
H       4.680700     7.367600     2.761400
H       4.928900     7.773800     4.289900
H       4.686000     6.241100     3.899000
C       2.590100     8.841500     3.654200
H       1.626500     8.975700     3.775800
H       3.079800     9.394700     4.297600
H       2.842700     9.097000     2.743000
C       1.783000     6.685800     1.088300
C       1.059700     5.509600     0.407900
H       0.181300     5.381000     0.823500
H       0.943400     5.706300    -0.544900
H       1.592700     4.693700     0.511000
C       3.151100     6.876900     0.432500
H       3.690600     6.070200     0.561800
H       3.033000     7.042300    -0.524900
H       3.606100     7.641400     0.843500
C       0.921000     7.939200     0.900500
H       0.048600     7.803200     1.325300
H       1.368800     8.707400     1.313000
H       0.795800     8.108200    -0.057000
C      -1.599600     5.410400     4.487000
C      -1.839500     5.687900     5.815300
H      -1.119800     5.691600     6.434100
C      -3.128200     5.965400     6.254000
H      -3.287900     6.141800     7.173000
C      -4.164400     5.985600     5.367400
H      -5.047300     6.167600     5.667600
C      -3.923800     5.743000     4.043700
H      -4.642200     5.761400     3.423300
C      -2.641900     5.471000     3.601900
H      -2.482600     5.327700     2.676800
C      -0.268800     2.863200     4.505400
C      -0.053100     2.493900     5.833800
C      -0.678700     1.345200     6.292500
H      -0.539700     1.069600     7.189900
C      -1.495000     0.595400     5.481300
H      -1.933100    -0.174600     5.824600
C      -1.676600     0.972200     4.162200
H      -2.239300     0.448400     3.605000
C      -1.058400     2.091400     3.634200
C       0.861800     3.291400     6.757400
H       1.037200     4.175400     6.323300
C       2.213600     2.580200     6.932900
H       2.786000     3.107700     7.528500
H       2.068000     1.692600     7.320700
H       2.649300     2.486500     6.060100
C       0.229600     3.559800     8.127300
H       0.854800     4.072500     8.679900
H      -0.598000     4.070700     8.008800
H       0.027900     2.707000     8.566000
C      -1.201500     2.449700     2.170400
H      -0.983300     3.421900     2.073400
C      -0.189200     1.661300     1.336100
H      -0.288900     1.900300     0.391000
H       0.719000     1.878200     1.633200
H      -0.349500     0.702000     1.448400
C      -2.631900     2.238400     1.642400
H      -2.670200     2.484700     0.694200
H      -2.882400     1.297500     1.745500
H      -3.253700     2.800800     2.150400
