47
Refcode: TAXQUH_comp_0 | Dataset: tmCAT | Charge: unknown | Potential Spins: [1, 3, 5]
Fe      4.283100     5.286400     4.505600
O       2.968600     3.734200     4.775800
O       5.108100     4.790300     6.299000
C       2.012000     1.712200     5.536400
H       1.107000     2.052300     5.697700
H       2.218200     1.010700     6.188800
H       2.063600     1.341000     4.630800
C       3.002900     2.834200     5.675900
C       3.868400     2.834400     6.764000
H       3.791600     2.112900     7.377400
C       4.843700     3.801500     7.036100
C       5.666500     3.668500     8.288300
H       6.610400     3.556900     8.048700
H       5.364200     2.887300     8.796700
H       5.561500     4.474800     8.835400
O       5.751600     3.944100     3.549600
H       6.512700     3.913200     3.901800
C       5.923300     3.991400     2.131300
H       6.215200     4.900100     1.868900
H       5.054300     3.812300     1.692300
C       6.937300     2.986900     1.649900
H       7.014600     3.042300     0.674900
H       6.650500     2.085100     1.905000
H       7.807400     3.180300     2.058100
O       5.597500     6.838700     4.235300
O       3.458100     5.782600     2.712200
C       6.554200     8.860600     3.474700
H       7.459200     8.520500     3.313400
H       6.348000     9.562200     2.822300
H       6.502600     9.231900     4.380300
C       5.563200     7.738700     3.335200
C       4.697700     7.738500     2.247100
H       4.774600     8.460000     1.633700
C       3.722500     6.771400     1.975100
C       2.899600     6.904400     0.722900
H       1.955700     7.016000     0.962400
H       3.201900     7.685500     0.214500
H       3.004700     6.098100     0.175700
O       2.814600     6.628800     5.461600
H       2.053400     6.659700     5.109300
C       2.642900     6.581500     6.879800
H       2.351000     5.672800     7.142200
H       3.511800     6.760600     7.318800
C       1.628900     7.585900     7.361200
H       1.551500     7.530600     8.336200
H       1.915600     8.487800     7.106200
H       0.758800     7.392600     6.953000
