95
Refcode: TAZNOZ_comp_0 | Dataset: tmCAT | Charge: 0 | Potential Spins: [1, 3, 5]
Ti     -0.869800     5.194000     3.610200
Cl     -2.793500     5.474700     2.292700
Cl      1.047500     5.464400     4.968500
O      -1.465600     3.749200     4.508500
O       0.049800     4.369500     2.299500
N      -0.277300     7.186900     2.768800
N       0.837400     9.054600     2.367100
N      -1.884900     6.469900     5.146900
N      -3.331500     7.800200     6.145200
C       0.582400     8.079700     3.247200
H       0.971300     8.030800     4.112900
C      -0.574500     7.634600     1.499800
H      -1.171700     7.206800     0.897600
C       0.101000     8.759600     1.244200
H       0.076300     9.260600     0.437600
C       1.732100    10.167000     2.525900
C       3.093500     9.969000     2.300200
C       3.927900    11.080500     2.431000
H       4.860000    10.972000     2.277600
C       3.451800    12.328600     2.774400
C       2.095500    12.484900     2.982000
H       1.758500    13.339600     3.221600
C       1.211500    11.417200     2.847900
C       3.638200     8.621200     1.931000
H       4.604500     8.688800     1.782500
H       3.202600     8.306000     1.111700
H       3.463400     7.987400     2.657800
C       4.406500    13.502900     2.926100
H       3.897500    14.313300     3.138600
H       4.895600    13.636400     2.087600
H       5.041600    13.316800     3.648100
C      -0.268500    11.619000     3.025100
H      -0.628300    10.911600     3.600100
H      -0.709700    11.585800     2.149900
H      -0.431400    12.492100     3.440400
C      -2.941900     7.229200     4.989700
H      -3.380800     7.361800     4.157600
C      -1.581900     6.559300     6.495900
H      -0.863700     6.105800     6.922400
C      -2.452100     7.381000     7.117200
H      -2.456100     7.621800     8.035600
C      -4.447100     8.706900     6.303600
C      -4.287900    10.018900     5.879200
C      -5.381000    10.876400     5.994400
H      -5.291200    11.780900     5.716500
C      -6.593900    10.443300     6.502300
C      -6.693400     9.126700     6.938000
H      -7.519400     8.821100     7.294500
C      -5.619300     8.238900     6.867900
C      -2.968200    10.512600     5.323600
H      -2.254300    10.341300     5.972000
H      -3.026400    11.475600     5.149500
H      -2.768700    10.042300     4.486600
C      -7.779300    11.377300     6.579000
H      -7.592200    12.187700     6.059900
H      -7.943100    11.620700     7.515000
H      -8.571900    10.930700     6.214800
C      -5.743600     6.843600     7.412700
H      -5.454700     6.200500     6.732300
H      -6.677200     6.669300     7.652300
H      -5.179600     6.753300     8.209700
C      -1.870900     2.700200     5.252300
C      -3.230900     2.547200     5.550700
C      -3.621900     1.451600     6.318600
H      -4.540200     1.335200     6.534300
C      -2.699100     0.536600     6.767500
H      -2.980200    -0.203000     7.291300
C      -1.359500     0.693100     6.456000
H      -0.732400     0.056200     6.773800
C      -0.912800     1.755900     5.690600
C      -4.241000     3.558100     5.052000
H      -5.143400     3.265500     5.296400
H      -4.173900     3.631600     4.077700
H      -4.058400     4.429800     5.459300
C       0.540800     1.914400     5.317200
H       1.067000     1.205400     5.745200
H       0.862700     2.788200     5.620600
H       0.637000     1.849900     4.344500
C       0.862400     3.463300     1.705200
C       0.361800     2.188400     1.418700
C       1.230800     1.287000     0.830600
H       0.926600     0.407700     0.634100
C       2.533200     1.634600     0.522300
H       3.118700     0.994500     0.135800
C       2.982100     2.926600     0.779400
H       3.873900     3.167000     0.557400
C       2.145900     3.860000     1.353500
C      -1.065500     1.820200     1.728200
H      -1.657000     2.557000     1.467900
H      -1.158200     1.652900     2.689700
H      -1.310800     1.013200     1.231500
C       2.591700     5.273000     1.589200
H       1.938300     5.890600     1.199500
H       3.466100     5.414600     1.170800
H       2.662200     5.436000     2.554000
