41
Refcode: TEBZOS_comp_0 | Dataset: tmCAT | Charge: 0 | Potential Spins: [1, 3, 5]
Pd      1.764800     2.904800     0.086200
Cl     -0.572900     3.043200    -0.077500
N       1.739800     4.547100     1.358600
H       1.466600     5.270000     0.843300
N       3.673900     2.965600     0.379600
N       4.643400     2.311600    -0.103100
N       1.965800     1.327500    -1.128400
C       3.103600     4.836000     1.772500
C       3.440200     5.940400     2.555700
H       2.761600     6.537900     2.849400
C       4.748700     6.164600     2.906100
H       4.971500     6.905000     3.457400
C       5.749000     5.309100     2.450900
H       6.653100     5.466400     2.698300
C       5.433500     4.234500     1.645400
H       6.118100     3.652500     1.336300
C       4.103400     4.008300     1.284700
C       4.418800     1.313100    -1.016800
C       5.633000     0.723900    -1.453100
H       6.450400     1.039600    -1.083800
C       5.675700    -0.275600    -2.377100
H       6.501300    -0.659100    -2.650200
C       4.447700    -0.721900    -2.914700
H       4.454100    -1.411800    -3.567400
C       3.264300    -0.197400    -2.526500
H       2.470300    -0.535700    -2.923300
C       3.143500     0.848300    -1.542400
C       0.788100     4.474100     2.512800
H      -0.140400     4.520400     2.172700
H       0.934700     5.253500     3.105300
C       0.961100     3.208300     3.308000
H       0.400200     3.248400     4.110100
H       1.900700     3.113700     3.570800
H       0.695400     2.440100     2.761800
C       0.736200     0.680700    -1.650600
H       0.012800     0.763000    -0.979000
H       0.908500    -0.282800    -1.798300
C       0.291200     1.314200    -2.945600
H      -0.510300     0.856600    -3.273700
H       1.007600     1.237000    -3.610300
H       0.087700     2.260200    -2.792700
