13
Refcode: TECNOH_comp_1 | Dataset: tmCAT | Charge: -2 | Potential Spins: [2, 4, 6]
Co     -4.254500    12.763400    16.231400
C      -4.928600    10.219200    17.783100
O      -5.024900     9.137400    18.278700
N      -4.846900    11.265500    17.327300
C      -3.580400    15.307600    17.783100
O      -3.484100    16.389400    18.278700
N      -3.662100    14.261300    17.327300
C      -6.798700    13.437500    14.679700
O      -7.880500    13.533800    14.184000
N      -5.752400    13.355800    15.135400
C      -1.710300    12.089300    14.679700
O      -0.628500    11.993000    14.184000
N      -2.756600    12.171000    15.135400
