81
Refcode: TEJYUE_comp_0 | Dataset: tmCAT | Charge: 0 | Potential Spins: [1, 3, 5]
Rh      1.764900     6.683800    -2.727100
P       1.966100     7.854700    -4.684400
C       1.050400     6.938300    -5.986100
H       0.106700     7.156100    -5.933800
H       1.374000     7.205800    -6.860800
Cl      2.148700     8.671500    -1.446600
N       3.625400     6.136600    -2.850300
O       4.192400     6.094000    -1.866800
P       1.023200     4.954900    -4.046300
C       1.236000     5.438300    -5.812300
H       2.123200     5.183800    -6.113300
H       0.587700     4.966200    -6.357700
Cl      0.911300     5.547700    -0.790100
C       3.709200     8.002700    -5.275300
H       4.111800     7.151400    -5.005400
C       3.986600     8.064200    -6.743500
H       3.622800     8.887200    -7.106700
H       3.549000     7.321600    -7.187300
C       5.499200     8.007400    -7.019100
H       5.832500     7.127700    -6.785900
H       5.655000     8.144600    -7.967300
C       6.267900     9.057500    -6.232000
H       7.218300     8.901400    -6.345000
H       6.066800     9.932500    -6.596600
C       5.955800     9.055100    -4.813200
H       6.348900     9.845000    -4.411800
H       6.378000     8.281800    -4.409000
C       4.496900     9.029100    -4.474000
H       4.121200     9.908800    -4.633700
H       4.398100     8.832800    -3.528600
C      -0.760600     4.621000    -3.766000
H      -0.835100     4.254400    -2.860200
C      -1.346000     3.566200    -4.708600
H      -1.300200     3.887800    -5.621500
H      -0.819800     2.752700    -4.649200
C      -2.801000     3.258800    -4.351100
H      -3.167200     2.627400    -4.989800
H      -2.841600     2.852000    -3.470700
C      -3.632500     4.540600    -4.363800
H      -3.647300     4.907100    -5.261100
H      -4.546000     4.337200    -4.106600
C      -3.053100     5.559800    -3.409900
H      -3.075700     5.207400    -2.506900
H      -3.592700     6.366200    -3.431100
C      -1.612100     5.899900    -3.790100
H      -1.251300     6.546000    -3.162600
H      -1.591300     6.292900    -4.676100
C       1.214500     9.532300    -4.626600
H       1.751500    10.064900    -4.003400
C      -0.213700     9.480100    -4.057100
H      -0.776000     8.951000    -4.643600
H      -0.199500     9.050400    -3.188100
C      -0.800400    10.885000    -3.922900
H      -1.711000    10.824000    -3.593600
H      -0.281700    11.389200    -3.277100
C      -0.796500    11.618600    -5.254100
H      -1.131600    12.519600    -5.128300
H      -1.386000    11.162200    -5.875900
C       0.612700    11.674400    -5.837700
H       1.176400    12.216900    -5.264000
H       0.583300    12.093900    -6.711000
C       1.218700    10.272000    -5.967700
H       0.710300     9.762200    -6.616300
H       2.129900    10.343900    -6.289900
C       1.790600     3.280100    -3.939800
H       1.408600     2.752700    -4.673300
C       3.307000     3.277700    -4.149000
H       3.518500     3.727000    -4.982700
H       3.732900     3.767200    -3.428300
C       3.856900     1.854300    -4.187100
H       3.476600     1.381100    -4.943200
H       4.819700     1.882400    -4.303000
C       3.521400     1.120900    -2.909700
H       3.966000     1.551400    -2.162100
H       3.842700     0.208100    -2.966200
C       2.021200     1.113900    -2.669400
H       1.832700     0.678700    -1.824400
H       1.585700     0.605400    -3.371800
C       1.453800     2.528000    -2.646800
H       1.820100     3.010500    -1.889400
H       0.490800     2.487800    -2.539400
