97
Refcode: TENCUM_comp_0 | Dataset: tmCAT | Charge: 0 | Potential Spins: [1, 3, 5]
Ni     12.051900     4.995400     0.285700
N      11.523700     3.469800     1.546800
Cl     10.607000     6.666100     0.461100
C      11.803600     1.036000     0.032600
H      12.080200     1.915000    -0.357100
Cl     12.896300     4.248300    -1.613900
N      13.603200     5.191100     1.557100
Cl      7.165400    -0.516200     1.985200
C       7.609700     4.795600     2.758800
C      10.544900     1.316200     0.870400
C       8.395200     0.701300     1.759700
C       9.524500     0.381100     1.011200
H       9.598000    -0.470800     0.599100
C      11.554300     0.104100    -1.153600
C      12.392400     3.354500     2.494400
C      10.404600     2.545900     1.534800
C      13.557600     4.313600     2.489300
C      11.476600     0.662900    -2.415500
H      11.560700     1.604400    -2.516700
C      14.404500     3.983800     3.620600
C       9.221700     2.901400     2.192300
C      12.958000     0.582800     0.913300
C      13.770700     2.887000     4.271300
C       9.740800     4.361700     4.164800
C      11.850700     1.445900     4.209400
H      11.033700     1.157700     3.821500
C      14.184500     1.244100     0.830900
H      14.291700     1.947100     0.200900
C      12.558000     2.485100     3.660100
C      15.880600     5.777100     0.867000
C       8.215200     1.947100     2.295300
H       7.403300     2.161600     2.738200
C      14.524600     7.395900     2.113300
C      15.102000    -0.131300     2.551100
H      15.829400    -0.377900     3.109000
C      10.716700     5.314400     4.386300
H      10.876700     5.972500     3.721900
C       6.705400     4.633900     3.787100
H       6.970400     4.174300     4.575100
C      14.294000     2.272100     5.423200
C      11.421400    -1.282600    -1.036900
H      11.484100    -1.690900    -0.182000
C      16.748900     7.972400     1.411200
H      17.454500     8.606500     1.364800
C       9.061500     4.304000     2.810300
H       9.578700     4.922100     2.219700
C      16.892000     6.737800     0.844600
H      17.713600     6.523300     0.420600
C      14.689300     6.139000     1.519300
C      12.845800    -0.448300     1.833500
H      12.024700    -0.920700     1.907300
C      15.251700     0.898300     1.646400
H      16.076000     1.364200     1.582800
C       5.015300     5.812400     2.570000
H       4.137600     6.169400     2.516700
C       9.492200     3.441000     5.169100
H       8.812400     2.789300     5.048900
C      12.366000     0.815000     5.364800
H      11.875400     0.096100     5.745900
C      13.908400    -0.803800     2.648900
H      13.810700    -1.511500     3.275500
C      16.069900     4.411300     0.269500
H      16.960300     4.353700    -0.135600
H      15.387500     4.257600    -0.415500
H      15.986900     3.732400     0.971700
C      15.591800     4.464100     4.121900
H      16.034800     5.197500     3.709900
C      15.570600     8.287800     2.044600
H      15.474200     9.144500     2.446400
C      10.227900     3.461800     6.353700
H      10.038000     2.832500     7.038600
C      11.116800    -1.477900    -3.411200
H      10.944400    -2.012700    -4.176800
C       5.902900     5.975700     1.517600
H       5.627100     6.433600     0.731300
C      13.263100     7.730600     2.841200
H      13.324900     8.640100     3.201700
H      13.131800     7.098100     3.577700
H      12.504000     7.676200     2.223200
C      11.471000     5.338400     5.555400
H      12.142900     5.998100     5.679000
C      15.517400     2.782900     5.890100
H      15.928100     2.390600     6.652400
C       5.414100     5.131800     3.687600
H       4.801100     5.000500     4.401700
C      11.202500    -2.065500    -2.152800
H      11.110500    -3.005500    -2.060100
C      16.132200     3.846100     5.258400
H      16.952700     4.171100     5.606900
C      13.537200     1.192900     5.957100
H      13.846600     0.735000     6.729600
C      11.280100    -0.128100    -3.539900
H      11.259200     0.272200    -4.401700
C      11.233500     4.398500     6.532200
H      11.756800     4.390500     7.325300
C       7.196800     5.471300     1.608600
H       7.801900     5.588200     0.885800
