97
Refcode: TENCIA_comp_0 | Dataset: tmCAT | Charge: 0 | Potential Spins: [1, 3, 5]
Br      2.999300     9.249400     0.428400
Br      5.400000    11.787100    -1.739300
Ni      4.494400    11.057000     0.293000
Cl     -0.373700    16.601200     1.985400
N       3.950200    12.582800     1.545400
C       1.973900    15.676100     0.998300
H       2.057000    16.526400     0.581500
N       6.017100    10.856800     1.589800
C       3.986700    15.930300    -1.168200
C       4.808500    12.703300     2.492300
C       0.838900    15.378800     1.746200
C       0.038700    11.263200     2.742700
C       5.965000    11.736300     2.518500
C       3.884900    15.374000    -2.424000
H       3.960200    14.432600    -2.518500
C       1.648300    13.160400     2.191000
C       0.642900    14.113000     2.280300
H      -0.178300    13.900400     2.707700
C       5.406300    15.463600     0.923000
C       4.244000    15.016000     0.031500
H       4.517000    14.133800    -0.352000
C       8.292500    10.214700     0.912500
C       3.108300    10.801300     4.459100
H       3.315300    10.138000     3.811100
C       4.260300    14.642000     4.201600
H       3.452800    14.944100     3.802300
C       2.835500    13.504000     1.523700
C       4.970300    13.580800     3.667500
C       6.677200    13.778900     5.443400
C       2.984300    14.739500     0.856400
C       6.803300    12.065600     3.665700
C       7.101600     9.893500     1.572800
C       6.169000    13.165200     4.299700
C       7.529600    16.170000     2.579800
H       8.248400    16.398600     3.157800
C       3.883300    17.320800    -1.066600
H       3.974400    17.737900    -0.217200
C       5.940100    14.853000     5.963500
H       6.251000    15.305300     6.739400
C      -0.874500    11.312800     3.770800
H      -0.630700    11.734700     4.586900
C       6.600600    14.789100     0.851200
H       6.703000    14.079400     0.227700
C       7.941000     7.740600     2.168200
H       7.841000     6.907900     2.611400
C       9.285700     9.233400     0.886200
H      10.102900     9.417200     0.441400
C       5.280400    16.515200     1.811000
H       4.462000    16.996300     1.858200
C       2.115800    11.741100     4.196400
C      -1.634600    10.115600     1.408100
H      -1.898900     9.719300     0.586700
C       8.521400    11.584500     0.308200
H       7.718300    12.132700     0.429100
H       8.713300    11.490200    -0.648000
H       9.280800    12.014400     0.753100
C       3.515700    11.768300     6.632600
H       4.000300    11.789100     7.450500
C       1.479000    11.781100     2.816300
H       2.020000    11.157700     2.250600
C       1.818700    12.680900     5.182400
H       1.137200    13.323400     5.028300
C       6.905600     8.659600     2.217300
C       7.972700    11.565300     4.191100
H       8.398900    10.814100     3.795300
C       9.113100     8.005900     1.488700
H       9.795400     7.347400     1.437900
C       7.660400    15.132700     1.676100
H       8.479900    14.654800     1.620100
C       4.775700    15.260600     5.361100
H       4.297100    15.987800     5.739400
C       2.510200    12.685700     6.389100
H       2.288900    13.326600     7.054700
C      -2.514800    10.157200     2.476500
H      -3.376900     9.765600     2.397700
C      -0.362300    10.659100     1.541200
H       0.244400    10.622300     0.810900
C       3.800000    10.826900     5.676300
H       4.478600    10.182800     5.841000
C       6.338700    16.871700     2.635900
H       6.244900    17.600500     3.238400
C       8.521900    12.182200     5.322500
H       9.341000    11.859400     5.676300
C       7.902700    13.245100     5.932000
H       8.302400    13.635100     6.700900
C       3.673000    16.149200    -3.560600
H       3.619100    15.741700    -4.417100
C       3.648400    18.099100    -2.189300
H       3.561600    19.042100    -2.099900
C       5.657800     8.395900     2.994900
H       5.693400     7.491200     3.371500
H       4.881700     8.474200     2.402900
H       5.582100     9.049600     3.721700
C      -2.139100    10.761400     3.649900
H      -2.745700    10.802900     4.378500
C       3.543300    17.520600    -3.431000
H       3.381200    18.059200    -4.196400
