55
Refcode: TEWREU_comp_1 | Dataset: tmCAT | Charge: unknown | Potential Spins: [1, 3, 5]
Cl      9.670900    13.964400     5.143300
Ni      7.496300    13.608800     5.036500
Cl      6.123500    15.303100     4.593100
C       6.711200    13.037500     7.907700
C       5.703500    13.871800     8.394900
C       5.898700    14.437100     9.645700
H       5.232700    15.017400     9.996500
C       7.038800    14.184600    10.408800
C       7.955700    13.269900     9.923200
H       8.697500    13.032900    10.467000
C       7.830800    12.684600     8.668200
C       4.450400    14.130200     7.597600
H       3.876100    14.756600     8.084900
H       3.970900    13.286500     7.459200
H       4.690300    14.515900     6.728300
C       7.273900    14.912200    11.709200
H       6.511200    14.768100    12.307800
H       7.375700    15.871300    11.533600
H       8.089600    14.570300    12.132000
C       8.861000    11.712400     8.151400
H       9.603700    11.654600     8.788400
H       9.196600    12.022800     7.285600
H       8.452100    10.827800     8.046100
N       6.665000    12.582500     6.536700
C       6.018400    11.531200     6.183400
C       5.195200    10.670600     7.072900
H       5.202000    11.038400     7.982200
H       5.565900     9.763200     7.084600
H       4.274800    10.643000     6.739700
C       6.185700    11.170600     4.724900
C       5.634200     9.882300     4.233200
H       5.826700     9.789000     3.277400
H       4.663800     9.866400     4.373600
H       6.046900     9.141400     4.723100
N       6.850900    12.016600     4.033600
C       7.214500    11.726600     2.664800
C       8.413000    11.071100     2.453800
C       8.793700    10.829500     1.132100
H       9.623300    10.396500     0.966100
C       8.007300    11.198500     0.060800
C       6.806800    11.838700     0.316800
H       6.254700    12.088700    -0.415700
C       6.378800    12.129500     1.612600
C       9.271900    10.610000     3.609700
H      10.100100    10.216000     3.263700
H       8.785300     9.940900     4.131500
H       9.489400    11.376600     4.181800
C       8.436700    10.880800    -1.360300
H       9.356900    11.190300    -1.500500
H       7.840000    11.332200    -1.991500
H       8.393500     9.912200    -1.505100
C       5.082100    12.833800     1.878500
H       5.252200    13.646200     2.400400
H       4.485400    12.240600     2.382100
H       4.661000    13.075900     1.027700
