107
Refcode: TIHLAX_comp_0 | Dataset: tmCAT | Charge: 2 | Potential Spins: [1, 3, 5]
C       1.904000    -2.372200     1.814000
H       2.511700    -2.501000     2.572000
C       0.790600    -3.404000     1.935600
H       0.323000    -3.276500     2.775900
H       0.154100    -3.279300     1.215100
C       1.350700    -4.814500     1.878000
H       1.929700    -4.963200     2.641400
H       0.621600    -5.452500     1.924600
C       2.130300    -5.036900     0.607100
H       2.501800    -5.932400     0.607100
H       1.536200    -4.957500    -0.155400
C       3.241600    -4.036200     0.482800
H       3.706000    -4.172300    -0.358400
H       3.877700    -4.169500     1.202300
C       2.705100    -2.610600     0.538500
H       2.139200    -2.449200    -0.232200
H       3.446300    -1.986700     0.502000
C       0.346500    -0.586800     3.459800
H      -0.334200    -1.284700     3.360100
C      -0.444500     0.692400     3.699300
H      -0.961100     0.908500     2.907500
H       0.167300     1.426300     3.870300
C      -1.379900     0.519500     4.888800
H      -1.835800     1.357900     5.063500
H      -2.051500    -0.146400     4.674000
C      -0.634800     0.093500     6.122200
H      -1.265700    -0.061000     6.841800
H      -0.035600     0.806200     6.396500
C       0.165100    -1.165100     5.878100
H      -0.438800    -1.900600     5.691600
H       0.671000    -1.387000     6.675400
C       1.121800    -0.981200     4.703200
H       1.771200    -0.293200     4.916300
H       1.601100    -1.809200     4.540500
C       2.859100     0.334000     2.060900
H       3.213800     0.417600     1.151100
C       2.617700     1.757000     2.517100
H       2.332800     1.757000     3.444200
H       1.910300     2.152800     1.985000
C       3.896000     2.588100     2.373600
H       4.119500     2.672300     1.433600
H       3.738700     3.479200     2.723700
C       5.060000     1.961500     3.108700
H       5.864500     2.474200     2.931300
H       4.890100     1.990600     4.063200
C       5.275400     0.536500     2.685300
H       5.988500     0.147200     3.214700
H       5.546100     0.513500     1.753700
C       3.990500    -0.289500     2.866400
H       4.142000    -1.200100     2.568300
H       3.748300    -0.315600     3.805400
Cl     -1.828800    -1.311500     0.898600
P       1.295400    -0.628800     1.876000
Ru      0.000000     0.000000     0.000000
Cl      1.828800     1.311500    -0.898600
P      -1.295400     0.628800    -1.876000
C      -1.904000     2.372200    -1.814000
H      -2.511700     2.501000    -2.572000
C      -0.790600     3.404000    -1.935600
H      -0.323000     3.276500    -2.775900
H      -0.154100     3.279300    -1.215100
C      -1.350700     4.814500    -1.878000
H      -1.929700     4.963200    -2.641400
H      -0.621600     5.452500    -1.924600
C      -2.130300     5.036900    -0.607100
H      -2.501800     5.932400    -0.607100
H      -1.536200     4.957500     0.155400
C      -3.241600     4.036200    -0.482800
H      -3.706000     4.172300     0.358400
H      -3.877700     4.169500    -1.202300
C      -2.705100     2.610600    -0.538500
H      -2.139200     2.449200     0.232200
H      -3.446300     1.986700    -0.502000
C      -0.346500     0.586800    -3.459800
H       0.334200     1.284700    -3.360100
C       0.444500    -0.692400    -3.699300
H       0.961100    -0.908500    -2.907500
H      -0.167300    -1.426300    -3.870300
C       1.379900    -0.519500    -4.888800
H       1.835800    -1.357900    -5.063500
H       2.051500     0.146400    -4.674000
C       0.634800    -0.093500    -6.122200
H       1.265700     0.061000    -6.841800
H       0.035600    -0.806200    -6.396500
C      -0.165100     1.165100    -5.878100
H       0.438800     1.900600    -5.691600
H      -0.671000     1.387000    -6.675400
C      -1.121800     0.981200    -4.703200
H      -1.771200     0.293200    -4.916300
H      -1.601100     1.809200    -4.540500
C      -2.859100    -0.334000    -2.060900
H      -3.213800    -0.417600    -1.151100
C      -2.617700    -1.757000    -2.517100
H      -2.332800    -1.757000    -3.444200
H      -1.910300    -2.152800    -1.985000
C      -3.896000    -2.588100    -2.373600
H      -4.119500    -2.672300    -1.433600
H      -3.738700    -3.479200    -2.723700
C      -5.060000    -1.961500    -3.108700
H      -5.864500    -2.474200    -2.931300
H      -4.890100    -1.990600    -4.063200
C      -5.275400    -0.536500    -2.685300
H      -5.988500    -0.147200    -3.214700
H      -5.546100    -0.513500    -1.753700
C      -3.990500     0.289500    -2.866400
H      -4.142000     1.200100    -2.568300
H      -3.748300     0.315600    -3.805400
