81
Refcode: TIHQOQ_comp_0 | Dataset: tmCAT | Charge: 0 | Potential Spins: [1, 3, 5]
Pt      4.462000     3.044800    18.237900
Cl      3.369100     1.414300    16.929000
P       5.883700     3.524100    16.525000
P       5.702700     4.403900    19.408400
O       5.344900     4.491300    15.356800
O       6.489000     2.289200    15.684900
O       6.838700     3.725700    20.330900
O       4.941100     5.441500    20.355600
C       3.095200     2.647900    19.793600
H       2.942000     1.690200    19.811700
H       3.524200     2.885100    20.629600
C       1.710800     3.344500    19.762000
C       1.001200     3.011200    21.090600
H       1.523100     3.344500    21.824900
H       0.906300     2.059500    21.174200
H       0.134500     3.421000    21.101900
C       0.836900     2.862600    18.629900
H       1.224900     3.126800    17.791700
H      -0.037400     3.248400    18.713600
H       0.768800     1.904900    18.663800
C       1.848200     4.856100    19.687400
H       2.406700     5.160800    20.408200
H       0.981000     5.259900    19.762000
H       2.245300     5.100700    18.849100
C       7.310600     4.419200    17.208700
H       7.880100     3.758800    17.656100
C       6.764700     5.361900    18.297800
H       6.194200     6.020900    17.848100
C       8.037700     6.099000    18.749700
H       7.821200     6.966600    19.122500
H       8.518600     5.581100    19.414000
C       8.861500     6.244600    17.473100
H       9.779700     5.980400    17.635700
H       8.855500     7.167800    17.177100
C       8.232500     5.336400    16.393000
H       7.728200     5.857300    15.746800
H       8.911900     4.826000    15.925300
C       4.123300     5.192300    15.396500
C       2.948100     4.540800    15.168300
H       2.933700     3.619200    15.044100
C       1.776600     5.276400    15.127700
H       0.965900     4.853100    14.965000
C       1.812800     6.619900    15.324200
H       1.023300     7.112200    15.310700
C       3.002200     7.248800    15.543400
H       3.023700     8.170500    15.667700
C       4.173700     6.525300    15.581800
H       4.986500     6.951600    15.735500
C       7.621800     2.362700    14.872300
C       7.647900     3.132800    13.747100
H       6.908500     3.649200    13.523400
C       8.750200     3.150800    12.949500
H       8.753600     3.667200    12.176700
C       9.841600     2.418300    13.279300
H      10.590400     2.418300    12.728000
C       9.829500     1.688700    14.422700
H      10.589000     1.215900    14.675700
C       8.693900     1.640700    15.211300
H       8.677400     1.109300    15.975000
C       5.568300     6.625900    20.828500
C       5.192200     7.799700    20.243300
H       4.570700     7.807200    19.551800
C       5.755700     8.978100    20.699700
H       5.521200     9.790200    20.308800
C       6.654600     8.946600    21.725500
H       7.027600     9.742100    22.030600
C       7.015500     7.771200    22.310700
H       7.633000     7.768200    23.004400
C       6.461100     6.579300    21.867900
H       6.689400     5.770200    22.265600
C       6.625200     2.738000    21.291700
C       5.670800     2.864100    22.256500
H       5.102100     3.599600    22.258800
C       5.553500     1.889900    23.228100
H       4.909300     1.976900    23.894700
C       6.366500     0.809100    23.219100
H       6.276900     0.142600    23.860800
C       7.318900     0.719000    22.256500
H       7.887500    -0.016500    22.261000
C       7.479900     1.673700    21.266800
H       8.139200     1.594200    20.613800
