45
Refcode: TIJDIC_comp_0 | Dataset: tmCAT | Charge: unknown | Potential Spins: [1, 3, 5]
Mn      5.207100    10.033700     2.177900
O       3.996700     6.887400     2.692800
O       4.567600     8.124800     0.006800
O       7.814400     8.647600     2.634800
O       2.391800    11.044400     2.332300
N       3.781100     6.950500     4.963600
O       6.246900    11.799900     0.028900
N       5.645200    11.316400     3.739200
C       5.328500    10.870600     4.982400
C       4.119300     7.547700     3.729100
C       3.907900     7.601000     6.178400
C       4.367900     8.876000     6.209900
H       4.441200     9.325000     7.021100
C       4.610400     8.912800     3.777400
C       4.738300     9.522800     5.002000
C       3.466500    10.679000     2.221400
C       5.588500    11.647800     6.109000
H       5.353600    11.339100     6.954400
C       6.834500     9.198100     2.435500
C       1.896000     5.273100     4.829800
C       1.149900     5.713300     3.736900
H       1.559800     6.216600     3.071000
C       3.380200     5.526100     4.910000
H       3.724300     5.080000     5.700000
H       3.802400     5.118200     4.138300
C       1.268600     4.515900     5.816500
H       1.754700     4.217400     6.550600
C       6.196200    12.881600     5.966400
H       6.386700    13.402100     6.712600
C       5.836400    11.148700     0.874000
C       6.221300    12.527800     3.612500
H       6.427300    12.837000     2.760100
C       6.518400    13.328400     4.696500
H       6.927400    14.154200     4.575500
C       3.541400     6.867200     7.436200
H       2.639400     6.546000     7.367800
H       3.614100     7.461700     8.186100
H       4.136500     6.123200     7.558400
C      -0.197600     5.404000     3.635800
H      -0.691100     5.708900     2.909000
C       4.785500     8.820600     0.896600
C      -0.807900     4.640600     4.617100
H      -1.708600     4.421300     4.542200
C      -0.079800     4.205000     5.708600
H      -0.494000     3.703200     6.371900
