93
Refcode: TIQSEU_comp_0 | Dataset: tmCAT | Charge: unknown | Potential Spins: [1, 3, 5]
Ni      2.325300     7.088100    10.025600
P       1.438300     8.743700     9.006100
P       3.436200     8.298500    11.415600
S       1.389300     5.800000     8.439500
S       2.853700     5.310500    11.278700
N       3.945800     9.822700    10.911300
N       1.949900    10.292200     9.400400
N       3.773400    11.920300     9.619700
C       2.794300     5.523500     7.413900
C       1.303900     4.591800    11.708400
C       2.622100     8.598200    13.035200
C      -0.252100     8.647000     9.674400
C       2.583600     8.647400     6.522100
H       3.383500     8.513300     7.015500
C       1.365800     8.767700     7.190100
C       0.141100     5.345900    11.896200
H       0.143600     6.271400    11.684100
C       5.132900    10.389200    11.617900
H       5.957900    10.110400    11.147700
H       5.168700    10.029600    12.539000
C       0.203000     8.990200     6.454500
H      -0.627800     9.095000     6.900900
C       4.101900     5.716700     7.852500
H       4.252100     6.055000     8.728200
C      -1.006800     4.764300    12.384800
H      -1.788500     5.291200    12.499900
C      -1.207100     7.737700     9.216200
H      -1.041800     7.239100     8.423600
C      -0.523300     9.365100    10.839800
H       0.110300     9.994400    11.161600
C       1.197500    11.419600     8.773100
H       0.873300    12.036600     9.476900
H       0.412400    11.066800     8.283900
C       2.630000     8.722400     5.143000
H       3.459800     8.638500     4.691000
C       5.029700     7.473200    11.753400
C       2.611800     5.032400     6.113600
H       1.731600     4.913400     5.777800
C       5.890500     7.316000    10.674700
H       5.645100     7.653200     9.820600
C       2.387000     9.902300    13.445100
H       2.668800    10.625800    12.899400
C      -1.032900     3.408400    12.710600
H      -1.818500     3.015100    13.069900
C      -2.640700     8.263800    11.061600
H      -3.452900     8.130300    11.536000
C       2.099700    12.165900     7.815700
H       1.581500    12.864600     7.342400
H       2.460700    11.539800     7.138400
C       5.401700     6.969000    12.989400
H       4.816600     7.055900    13.734800
C      -2.392400     7.556900     9.907700
H      -3.039100     6.941000     9.583100
C       2.167000     7.552800    13.832100
H       2.294400     6.652300    13.556000
C       0.258000     9.058800     5.065300
H      -0.535400     9.200600     4.562400
C       1.250300     3.225700    11.996200
H       2.015900     2.684900    11.843400
C       4.924400    12.500800    10.304800
H       4.804600    13.480500    10.382100
H       5.745000    12.331600     9.775900
C       0.098100     2.647700    12.503000
H       0.087300     1.720300    12.709500
C       5.073700    11.901000    11.672100
H       4.308600    12.178400    12.234500
H       5.901500    12.245700    12.092000
C       1.465100     8.922100     4.423300
H       1.499800     8.963500     3.475600
C       1.313600     9.119800    15.441900
H       0.874500     9.293700    16.266100
C       7.107000     6.669900    10.835900
H       7.687900     6.555000    10.091600
C      -1.705600     9.169500    11.529300
H      -1.875700     9.658100    12.326700
C       1.738900    10.159000    14.654900
H       1.592500    11.055400    14.933400
C       1.524400     7.829100    15.034300
H       1.227000     7.110800    15.581600
C       3.685200     4.720900     5.317900
H       3.541200     4.368900     4.447900
C       3.238800    12.804200     8.582000
H       3.964300    13.039600     7.951400
H       2.918500    13.642000     9.002000
B       3.241000    10.668600     9.960800
C       5.197000     5.426800     7.038700
H       6.080000     5.578900     7.353600
C       7.472200     6.194800    12.079400
H       8.313500     5.769400    12.195400
C       6.627800     6.335500    13.140800
H       6.880700     5.997100    13.991900
C       4.986400     4.918600     5.778600
H       5.726200     4.702200     5.221800
