37
Refcode: TISVUN_comp_0 | Dataset: tmCAT | Charge: unknown | Potential Spins: [1, 3, 5]
Rh     10.692500     6.477500     8.737000
Cl     10.612300     8.414100    10.101900
Cl      4.992000     7.077800     8.447400
Cl      6.328400     8.822100     5.752700
N       7.676600     6.679300     8.674300
N       8.501300     7.762000     7.006800
C       8.856300     6.990300     8.066300
C       6.618100     7.260000     8.000300
C       7.129400     7.939300     6.964800
C       7.586000     5.928100     9.916700
H       7.429200     6.434700    10.610200
H       8.260300     5.474300    10.037400
H       7.009000     5.318200     9.873700
C       9.440900     8.353100     6.053800
C      10.562800     4.479100     8.014600
C      11.082000     5.321800     7.020400
C      12.537600     5.435900     6.629300
C      13.490200     5.494700     7.839000
C      12.873100     6.193400     9.030400
C      12.199400     5.567900    10.047300
C      11.895000     4.096100    10.135600
C      11.407000     3.506700     8.814100
H      10.323400     7.995300     6.195600
H       9.111400     8.175400     5.141400
H       9.453600     9.327900     6.164300
H       9.632300     4.285800     7.953500
H      10.477300     5.594300     6.362000
H      12.626400     6.278600     6.055200
H      12.780500     4.766000     6.060600
H      14.273300     5.966500     7.601700
H      13.777600     4.633900     8.069500
H      13.156000     7.095000     9.180900
H      12.063300     6.050500    10.839300
H      11.167200     4.009700    10.842000
H      12.659400     3.637500    10.397400
H      12.163400     3.229300     8.271300
H      10.938300     2.773200     9.014500
