111
Refcode: TIVSIC_comp_0 | Dataset: tmCAT | Charge: unknown | Potential Spins: [1, 3, 5]
C       2.691800     2.486900    12.268800
C       7.104900     2.390800    10.340400
H       7.693900     3.126200    10.609200
C       7.535500     2.018200     8.915000
H       7.029600     1.246000     8.618400
H       7.336300     2.754800     8.316600
C       9.031600     1.701400     8.850400
H       9.261600     1.426800     7.949400
H       9.537300     2.502100     9.057700
C       9.416200     0.597800     9.826500
H      10.379700     0.485100     9.823200
H       9.014600    -0.239200     9.543100
C       8.948700     0.933000    11.236900
H       9.433800     1.709000    11.559700
H       9.148400     0.188500    11.826200
C       7.450300     1.221600    11.278000
H       7.186600     1.443800    12.185200
H       6.959800     0.431100    11.006300
C       4.378900     2.115200     9.239300
H       4.907700     2.115900     8.414500
C       4.177100     0.642200     9.625500
H       5.038100     0.237300     9.813700
H       3.638000     0.590100    10.429700
C       3.488200    -0.125600     8.501400
H       4.067900    -0.145900     7.723700
H       3.334600    -1.040500     8.784300
C       2.161200     0.515800     8.124600
H       1.541200     0.430800     8.865900
H       1.783200     0.048400     7.363300
C       2.333100     1.989400     7.777300
H       2.853900     2.065900     6.962200
H       1.461900     2.383300     7.612200
C       3.028100     2.758000     8.891400
H       2.462100     2.767300     9.679100
H       3.169900     3.675800     8.611600
C       5.408100     4.760500     9.736800
H       4.504800     5.118200     9.869500
C       5.660500     4.876500     8.221000
H       6.588700     4.673100     8.026900
H       5.104100     4.239700     7.745500
C       5.332900     6.299700     7.755000
H       5.480800     6.368300     6.799000
H       4.397100     6.488400     7.927700
C       6.195200     7.322800     8.476100
H       5.929800     8.217100     8.209100
H       7.124500     7.198100     8.225500
C       6.052800     7.180400     9.982900
H       5.153600     7.431900    10.243400
H       6.670200     7.787300    10.420200
C       6.332600     5.753900    10.455300
H       6.191000     5.695000    11.412800
H       7.257900     5.526400    10.273300
C       5.073800     2.278900    16.452000
H       5.680400     3.022300    16.656300
C       5.971800     1.171700    15.877900
H       5.458600     0.355300    15.775100
H       6.299000     1.436500    15.004100
C       7.151500     0.925300    16.816600
H       7.698500     0.208700    16.457700
H       7.697900     1.725900    16.857500
C       6.704200     0.554200    18.222800
H       7.479200     0.506000    18.804700
H       6.286800    -0.321800    18.206400
C       5.716200     1.575400    18.778100
H       6.175400     2.417100    18.931200
H       5.374500     1.261300    19.630200
C       4.548700     1.801900    17.816400
H       3.947100     2.467400    18.184700
H       4.053600     0.976100    17.704700
C       2.220300     2.067600    15.675400
H       2.156200     2.011000    16.652200
C       2.273900     0.620600    15.155600
H       2.382200     0.629500    14.192300
H       3.042600     0.168700    15.538500
C       1.002300    -0.147300    15.516900
H       1.046400    -1.040100    15.138700
H       0.940500    -0.232800    16.480800
C      -0.232100     0.558900    14.994200
H      -1.023600     0.069000    15.266500
H      -0.208500     0.575500    14.025000
C      -0.311500     1.996200    15.526500
H      -1.079600     2.440400    15.136000
H      -0.434500     1.975700    16.489000
C       0.950700     2.786700    15.196900
H       0.899900     3.659200    15.617400
H       1.002000     2.920700    14.237200
C       3.425300     4.684600    16.015000
H       2.724600     5.068200    15.447400
C       2.862400     4.714300    17.450700
H       2.119500     4.094600    17.519700
H       3.549300     4.429200    18.073200
C       2.389900     6.120700    17.819700
H       1.650900     6.372400    17.243700
H       2.070400     6.122000    18.735400
C       3.514500     7.138700    17.675000
H       3.166200     8.029500    17.832500
H       4.199100     6.962100    18.339700
C       4.127700     7.073500    16.286400
H       4.879200     7.685600    16.240200
H       3.469900     7.357500    15.632300
C       4.602100     5.665600    15.942200
H       5.293200     5.393100    16.565100
H       4.979800     5.657900    15.049000
N       4.815000     1.196900    12.956000
O       1.646200     2.154600    11.916900
O       4.927800     0.022200    12.985600
P       5.364700     3.060500    10.494400
P       3.784100     3.000200    15.303200
I       6.952400     3.940300    13.658300
I       3.382400     5.496700    12.565700
Re      4.444900     2.942000    12.853000
