113
Refcode: TOJHUW_comp_0 | Dataset: tmCAT | Charge: unknown | Potential Spins: [1, 3, 5]
Zr      4.934200    43.318900    -4.559200
N       5.234700    45.328300    -4.024100
N       4.486800    42.829200    -2.564600
N       5.686100    39.053400    -5.200100
O       6.695800    43.138100    -5.364700
O       3.247400    43.572100    -5.546400
O       4.766200    41.107500    -5.057400
C       3.966800    43.905500    -1.706500
H       4.712400    44.276900    -1.171900
H       3.307100    43.522500    -1.077700
C       3.307700    45.037300    -2.479200
H       2.724800    44.645700    -3.177500
H       2.728700    45.548600    -1.859600
C       4.277600    45.999100    -3.139500
H       3.765600    46.664600    -3.663700
H       4.776300    46.487400    -2.436300
C       6.224700    46.254100    -4.478500
C       6.062000    46.908200    -5.722000
C       7.028600    47.830200    -6.129000
H       6.930100    48.264400    -6.968800
C       8.125900    48.126200    -5.340400
H       8.772800    48.757800    -5.634200
C       8.271600    47.491600    -4.121600
H       9.023700    47.694400    -3.578700
C       7.342400    46.562800    -3.671300
C       7.572800    45.874300    -2.329100
H       6.802100    45.258800    -2.164600
C       8.843600    45.029400    -2.360500
H       8.791300    44.389500    -3.099900
H       8.933700    44.542700    -1.513900
H       9.620800    45.613300    -2.486200
C       7.618000    46.884500    -1.179100
H       6.793500    47.414200    -1.177500
H       8.388500    47.478900    -1.297600
H       7.701800    46.406000    -0.327200
C       4.899100    46.575100    -6.640100
H       4.249200    46.034800    -6.107400
C       5.409200    45.674600    -7.784900
H       4.663600    45.450400    -8.381000
H       5.785900    44.851700    -7.410600
H       6.101600    46.149700    -8.290400
C       4.158400    47.789500    -7.148100
H       3.850200    48.324300    -6.388300
H       3.387500    47.502800    -7.680400
H       4.757700    48.329100    -7.704500
C       4.550500    41.590300    -1.853500
C       3.459400    40.688600    -1.919800
C       3.525500    39.493800    -1.211300
H       2.799200    38.883600    -1.262500
C       4.622700    39.174600    -0.434200
H       4.650000    38.351900     0.042500
C       5.679900    40.060500    -0.354900
H       6.430600    39.844000     0.184800
C       5.661300    41.274900    -1.060800
C       6.847300    42.220400    -0.934600
H       6.697500    42.981300    -1.567500
C       8.159100    41.535900    -1.330900
H       8.077900    41.175500    -2.238500
H       8.347700    40.804300    -0.706100
H       8.890400    42.188600    -1.301300
C       6.938000    42.803600     0.477500
H       6.092000    43.239900     0.704300
H       7.665100    43.460300     0.513900
H       7.115000    42.083200     1.118300
C       2.215800    41.012700    -2.708400
H       2.425900    41.800600    -3.288400
C       1.072200    41.419100    -1.783800
H       1.366200    42.152600    -1.203400
H       0.808800    40.651000    -1.232900
H       0.306300    41.714400    -2.319800
C       1.789900    39.866700    -3.626700
H       2.534400    39.626000    -4.216400
H       1.022800    40.150500    -4.168300
H       1.539000    39.089600    -3.085100
C       7.786600    42.929100    -6.186900
H       7.395300    42.849600    -7.103700
C       8.384700    41.640600    -5.941000
H       7.684000    40.955200    -5.920700
H       8.850000    41.656900    -5.077800
H       9.023900    41.434200    -6.652700
C       8.672200    44.081200    -6.273000
H       8.147400    44.882800    -6.480800
H       9.334700    43.932000    -6.979900
H       9.131800    44.205100    -5.416000
C       2.001100    44.032600    -5.928100
H       1.949000    44.911600    -5.451200
C       0.880800    43.311800    -5.356900
H       1.047200    43.151300    -4.404900
H       0.776200    42.454400    -5.819000
H       0.064600    43.841000    -5.460400
C       1.919100    44.441700    -7.325500
H       2.719800    44.952300    -7.564000
H       1.123800    45.000200    -7.456800
H       1.857900    43.647100    -7.894900
C       5.007000    40.075100    -5.732900
C       4.499500    39.965600    -7.165800
H       5.152600    39.403300    -7.673000
C       4.420300    41.320900    -7.868100
H       5.297700    41.757500    -7.835700
H       3.756900    41.884400    -7.416100
H       4.154300    41.189900    -8.802500
C       3.151400    39.255500    -7.208700
H       3.224900    38.387900    -6.758000
H       2.884600    39.115900    -8.140700
H       2.478000    39.803200    -6.754300
C       6.217100    39.160900    -3.851500
H       5.994900    40.040300    -3.482500
H       7.190800    39.051200    -3.874400
H       5.823000    38.462100    -3.288400
C       5.946800    37.778800    -5.872800
H       5.564400    37.801100    -6.774700
H       5.537300    37.049100    -5.362400
H       6.914500    37.633500    -5.931800
