58
Refcode: TOKHOQ_comp_0 | Dataset: tmCAT | Charge: unknown | Potential Spins: [1, 3, 5]
Zr     -0.104300     3.534800     2.926900
Cl      1.587000     5.171800     2.354400
N      -3.040200     1.795100     2.081600
Si     -0.104300     0.238900     2.926900
C      -0.581000     1.524900     1.605100
C      -1.834800     2.236700     1.530200
C      -1.626600     3.435800     0.838300
C      -0.326800     3.414100     0.333700
C       0.343600     2.258400     0.852300
C       1.710800     2.060500     0.485900
C       2.312000     2.915900    -0.361800
C       1.659800     4.013700    -0.919000
C       0.353500     4.280300    -0.562000
C      -3.536500     0.579100     1.403700
C      -4.118700     2.766300     2.192800
C       1.247600    -0.861400     2.284100
H      -2.305600     4.075200     0.608800
H       2.199900     1.317400     0.844100
H       3.231400     2.762700    -0.592400
H       2.115000     4.579500    -1.546600
H      -0.093700     5.051200    -0.916700
H      -2.823100    -0.059100     1.331200
H      -4.255400     0.200300     1.914200
H      -3.850500     0.808300     0.526800
H      -3.794200     3.555300     2.633000
H      -4.434500     2.995500     1.315900
H      -4.837600     2.387500     2.703300
H       1.481400    -1.506800     2.955000
H       0.942100    -1.317400     1.496200
H       2.016500    -0.330600     2.068700
Cl     -1.795500     5.171800     3.499400
C       0.372500     1.524900     4.248700
C       1.626300     2.236700     4.323600
N       2.831700     1.795100     3.772200
C       3.328000     0.579100     4.450000
H       2.614600    -0.059100     4.522600
H       4.046800     0.200300     3.939600
H       3.642000     0.808300     5.326900
C       3.910200     2.766300     3.661000
H       3.585700     3.555300     3.220800
H       4.226000     2.995500     4.537900
H       4.629100     2.387500     3.150500
C      -0.552100     2.258400     5.001500
C       1.418100     3.435800     5.015500
C       0.118300     3.414100     5.520100
C      -1.919300     2.060500     5.367900
C      -2.520500     2.915900     6.215600
C      -1.868300     4.013700     6.772800
C      -0.562000     4.280300     6.415800
H      -0.114800     5.051200     6.770500
H      -2.323500     4.579500     7.400400
H      -3.439900     2.762700     6.446200
H      -2.408500     1.317400     5.009700
H       2.097100     4.075200     5.245000
C      -1.456100    -0.861400     3.569600
H      -1.689900    -1.506800     2.898800
H      -1.150600    -1.317400     4.357600
H      -2.225000    -0.330600     3.785100
