169
Refcode: TOLREU_comp_0 | Dataset: tmCAT | Charge: unknown | Potential Spins: [1, 3, 5]
Pd     -0.271200     9.481400     5.189900
Cl     -0.417400    11.045800     3.507500
P       1.783000     8.722300     4.347200
C       3.156800     9.556900     5.256400
H       3.970100     9.470000     4.715600
C       2.850000    11.054900     5.404800
H       2.666600    11.438400     4.532900
H       2.061000    11.172900     5.957000
C       4.037700    11.775900     6.044200
H       4.813900    11.692500     5.468100
H       3.832000    12.718300     6.135500
C       4.360300    11.195600     7.412200
H       3.624500    11.366300     8.020500
H       5.153200    11.626100     7.769300
C       4.599300     9.688100     7.309500
H       5.412200     9.530700     6.806100
H       4.725700     9.325900     8.200100
C       3.441600     8.954200     6.631700
H       2.647900     9.018700     7.184900
H       3.666300     8.015600     6.534100
C       2.090400     6.909700     4.620100
H       2.078500     6.781100     5.591600
C       1.018100     5.967000     4.064700
H       1.020500     6.005500     3.095300
H       0.143600     6.248200     4.377200
C       1.291700     4.526400     4.522500
H       1.208600     4.475200     5.487800
H       0.629800     3.934800     4.133300
C       2.680700     4.067500     4.112500
H       2.841700     3.176300     4.460200
H       2.734400     4.025800     3.145100
C       3.750000     5.011900     4.635600
H       4.620100     4.725500     4.319100
H       3.758500     4.989100     5.605100
C       3.474300     6.448900     4.158200
H       4.150400     7.044700     4.514200
H       3.521800     6.483400     3.189700
C       1.983000     8.940000     2.530600
C       0.911200     8.317700     1.848600
H       0.206100     7.970100     2.344800
C       0.875300     8.206300     0.478500
H       0.157300     7.789900     0.060200
C       1.922400     8.721800    -0.274000
H       1.931800     8.618600    -1.198900
C       2.939200     9.383400     0.359100
H       3.620400     9.746900    -0.158800
C       3.003100     9.539400     1.758300
C       4.094100    10.474500     2.223400
C       3.825500    11.864800     2.206800
C       4.861700    12.748700     2.496400
H       4.682400    13.660800     2.499500
C       6.145900    12.323900     2.780800
C       6.402600    10.962400     2.756900
H       7.263800    10.662800     2.938500
C       5.402300    10.025600     2.465200
C       2.462200    12.422300     1.796800
H       1.802500    11.705700     1.901600
C       2.002000    13.607300     2.643700
H       1.964700    13.346000     3.566500
H       1.130900    13.888400     2.354100
H       2.621100    14.334000     2.542000
C       2.493100    12.817000     0.311400
H       3.187600    13.461700     0.166100
H       1.646200    13.196200     0.063300
H       2.662700    12.037600    -0.223200
C       7.206100    13.378300     3.120200
H       7.071600    14.129200     2.504700
C       6.981600    13.911100     4.524600
H       7.084000    13.196200     5.157700
H       6.094900    14.273300     4.592000
H       7.624400    14.599500     4.712400
C       8.634900    12.900400     2.931300
H       9.239200    13.630500     3.081800
H       8.745600    12.572300     2.035500
H       8.822000    12.195000     3.555100
C       5.759400     8.557900     2.337500
H       4.924900     8.044000     2.330300
C       6.615600     8.055400     3.509400
H       7.487100     8.457400     3.465800
H       6.702500     7.099700     3.456500
H       6.195400     8.292400     4.338800
C       6.484000     8.296200     1.020300
H       5.919500     8.550300     0.287500
H       6.696300     7.361400     0.952900
H       7.293800     8.810100     0.993400
Cl     -0.125000     7.917000     6.872400
P      -2.325300    10.240500     6.032700
C      -3.699100     9.405900     5.123500
H      -4.512400     9.492800     5.664300
C      -3.392300     7.907900     4.975100
H      -3.208900     7.524400     5.847000
H      -2.603400     7.789900     4.422900
C      -4.580100     7.186900     4.335700
H      -5.356300     7.270300     4.911700
H      -4.374400     6.244500     4.244300
C      -4.902700     7.767200     2.967600
H      -4.166900     7.596500     2.359300
H      -5.695500     7.336700     2.610500
C      -5.141700     9.274700     3.070400
H      -5.954600     9.432100     3.573800
H      -5.268100     9.636900     2.179800
C      -3.984000    10.008600     3.748200
H      -3.190300     9.944100     3.194900
H      -4.208700    10.947200     3.845700
C      -2.632700    12.053100     5.759800
H      -2.620900    12.181700     4.788200
C      -1.560500    12.995800     6.315100
H      -1.562900    12.957300     7.284600
H      -0.685900    12.714600     6.002700
C      -1.834100    14.436400     5.857300
H      -1.750900    14.487600     4.892000
H      -1.172200    15.028000     6.246600
C      -3.223100    14.895300     6.267300
H      -3.384000    15.786500     5.919600
H      -3.276700    14.937000     7.234700
C      -4.292300    13.950900     5.744200
H      -5.162400    14.237300     6.060800
H      -4.300900    13.973700     4.774700
C      -4.016600    12.513900     6.221700
H      -4.692700    11.918100     5.865600
H      -4.064100    12.479400     7.190100
C      -2.525400    10.022800     7.849200
C      -1.453500    10.645100     8.531200
H      -0.748500    10.992700     8.035000
C      -1.417700    10.756500     9.901300
H      -0.699600    11.172900    10.319600
C      -2.464800    10.241000    10.653900
H      -2.474100    10.344200    11.578700
C      -3.481500     9.579400    10.020700
H      -4.162800     9.215900    10.538700
C      -3.545500     9.423400     8.621500
C      -4.636400     8.488300     8.156500
C      -4.367800     7.098000     8.173100
C      -5.404100     6.214100     7.883500
H      -5.224800     5.302000     7.880400
C      -6.688300     6.638900     7.599100
C      -6.945000     8.000400     7.623000
H      -7.806200     8.300000     7.441300
C      -5.944700     8.937200     7.914600
C      -3.004500     6.540500     8.583100
H      -2.344800     7.257100     8.478300
C      -2.544400     5.355500     7.736100
H      -2.507100     5.616800     6.813300
H      -1.673200     5.074400     8.025700
H      -3.163400     4.628800     7.837800
C      -3.035400     6.145800    10.068400
H      -3.729900     5.501100    10.213800
H      -2.188600     5.766600    10.316500
H      -3.205100     6.925200    10.603000
C      -7.748400     5.584500     7.259700
H      -7.613900     4.833600     7.875200
C      -7.524000     5.051700     5.855300
H      -7.626400     5.766600     5.222100
H      -6.637300     4.689500     5.787800
H      -8.166800     4.363300     5.667400
C      -9.177300     6.062400     7.448600
H      -9.781600     5.332300     7.298100
H      -9.287900     6.390500     8.344400
H      -9.364300     6.767800     6.824700
C      -6.301800    10.404900     8.042300
H      -5.467300    10.918800     8.049600
C      -7.158000    10.907400     6.870400
H      -8.029400    10.505400     6.914000
H      -7.244900    11.863100     6.923400
H      -6.737700    10.670400     6.041100
C      -7.026400    10.666600     9.359500
H      -6.461900    10.412500    10.092300
H      -7.238600    11.601400     9.427000
H      -7.836200    10.152700     9.386500
