110
Refcode: TOQHOX_comp_0 | Dataset: tmCAT | Charge: unknown | Potential Spins: [1, 3, 5]
W       9.310800    10.409100     4.800000
S       6.832700    12.499400     3.812800
Cl     10.255300    12.573000     4.492000
O       7.472200    11.562900     4.753300
O       7.208100    12.284900     2.454300
O       6.802400    13.833500     4.309700
F       4.606800    12.091000     5.110700
F       4.985200    10.674700     3.566400
F       4.327700    12.616800     3.081000
N       8.877100     9.882300     6.390300
N      11.058800     9.501400     4.461800
C      11.450200     9.655300     3.167200
C       8.475900     9.185700     3.513900
C      10.479600     9.888300     2.170200
C       9.086200     9.578900     2.301400
C      10.990600    10.315000     0.805900
H      10.391500     9.964700     0.127400
H      11.860900     9.910600     0.661600
C       8.195600     9.670200     1.049500
H       7.286700     9.845400     1.338100
H       8.485000    10.434300     0.526600
C       8.175600     8.444000     0.127400
H       9.091800     8.175600    -0.046900
H       7.783700     8.704900    -0.721500
C      11.118000    11.833900     0.611000
H      11.307900    12.009000    -0.324200
H      10.262600    12.240100     0.815200
C      12.180200    12.512200     1.448700
H      11.830600    12.624000     2.346400
H      12.332900    13.397400     1.085100
C       7.401500     7.217700     0.663400
H       6.499100     7.491700     0.890200
H       7.338800     6.554300    -0.041200
C      13.528000    11.800300     1.548000
H      13.652000    11.263600     0.749600
H      14.229100    12.469300     1.561100
C       8.046500     6.565500     1.902200
H       8.034200     5.602000     1.786000
H       8.975300     6.841300     1.947200
C      13.698000    10.900200     2.766200
H      13.461500    11.423900     3.547700
H      14.642300    10.693300     2.841100
C       7.379500     6.897200     3.230900
H       7.901300     6.492800     3.941200
H       6.503400     6.481600     3.242200
C       7.207700     8.384300     3.551400
H       6.581300     8.766400     2.916100
H       6.815800     8.466300     4.434100
C      12.933000     9.582600     2.854200
H      13.036800     9.120500     2.007200
H      13.356400     9.036600     3.534500
C       8.475900     9.729900     7.728800
C       8.372900     8.442100     8.274100
C       7.928500     8.324700     9.578500
H       7.834600     7.476800     9.947700
C       7.622200     9.422400    10.343100
H       7.328300     9.316100    11.220200
C       7.751400    10.691500     9.805300
H       7.553400    11.429500    10.333800
C       8.172000    10.885300     8.495300
C      11.859500     8.688100     5.373000
C      11.880600     7.292300     5.166900
C      12.644600     6.530100     6.036500
H      12.686400     5.609400     5.910900
C      13.343200     7.094700     7.074700
H      13.832900     6.556100     7.655700
C      13.316500     8.462600     7.252700
H      13.793300     8.839100     7.957400
C      12.592100     9.286300     6.405700
C       5.098800    11.947500     3.915000
C       8.684400     7.206500     7.451400
H       9.145000     7.495400     6.636200
C       7.382600     6.537500     7.042800
H       6.802200     7.187900     6.639900
H       6.958100     6.164800     7.818700
H       7.566700     5.838700     6.411300
C       9.604400     6.259800     8.195400
H      10.421200     6.714600     8.414700
H       9.800500     5.501300     7.638800
H       9.175400     5.963500     8.999400
C       8.217600    12.301600     7.938700
H       8.660700    12.269900     7.063500
C       6.802000    12.836500     7.730600
H       6.302500    12.217800     7.192800
H       6.843700    13.686300     7.284600
H       6.371900    12.942700     8.581500
C       8.997600    13.265100     8.821400
H       9.897300    12.946400     8.928200
H       8.574900    13.324700     9.681600
H       9.013400    14.133500     8.412800
C      11.124800     6.591600     4.048000
H      10.479800     7.227000     3.675100
C      12.054400     6.142400     2.919800
H      12.505900     6.906500     2.552500
H      11.539700     5.713800     2.232000
H      12.702700     5.523700     3.264700
C      10.347800     5.370900     4.550300
H       9.820600     5.618800     5.313100
H      10.965500     4.677600     4.801400
H       9.771700     5.048500     3.853100
C      12.691000    10.795800     6.576200
H      12.224100    11.220700     5.826600
C      14.144400    11.261700     6.559300
H      14.538100    11.051100     5.708500
H      14.631400    10.814500     7.256500
H      14.178700    12.210300     6.703600
C      12.022200    11.250600     7.876800
H      11.101200    10.980300     7.874900
H      12.075800    12.206600     7.946200
H      12.472800    10.849900     8.624600
