133
Refcode: TOQHIR_comp_0 | Dataset: tmCAT | Charge: unknown | Potential Spins: [1, 3, 5]
W      -9.175500     3.419000    17.635300
N      -8.710700     1.832300    18.113700
N      -9.127900     3.243700    15.652500
O      -7.978800     4.981200    17.488500
O      -9.504500     4.070000    19.490100
O      -3.120500     6.394800    19.758900
O     -12.379300     8.114900    21.927600
C     -11.208700     3.408300    17.487500
C      -9.722600     4.357800    15.029200
C     -11.642100     4.412500    16.658200
C     -10.830100     4.972100    15.577900
C     -11.291000     6.258800    14.913600
H     -12.259600     6.293400    14.938300
H     -11.020100     6.244200    13.982300
C     -13.070100     4.948400    16.846300
H     -13.363900     4.749700    17.748800
H     -13.058800     5.912500    16.745300
C     -14.081500     4.361500    15.857300
H     -14.958300     4.727800    16.057100
H     -13.842500     4.647600    14.963000
C     -10.732200     7.523700    15.575000
H     -11.069000     8.296500    15.094900
H     -11.069900     7.574700    16.481600
C     -14.175600     2.848700    15.871700
H     -13.366900     2.491500    15.474000
H     -14.917600     2.586300    15.305100
C      -9.214200     7.605700    15.618300
H      -8.888600     6.944100    16.246700
H      -8.962300     8.480600    15.956200
C      -8.512400     7.385200    14.264500
H      -9.131100     7.625800    13.557800
H      -7.758500     7.992100    14.208900
C     -14.364200     2.192600    17.237800
H     -14.991800     1.459900    17.138900
H     -14.767800     2.841400    17.835300
C      -8.009300     5.974500    13.996700
H      -7.449100     5.717500    14.746700
H      -7.437400     6.010900    13.213700
C     -13.089100     1.653100    17.901200
H     -13.357900     1.058900    18.620300
H     -12.620100     1.111800    17.246000
C      -9.033600     4.848100    13.771700
H      -9.710000     5.165200    13.151900
H      -8.582200     4.099000    13.353800
C     -12.093400     2.666500    18.476100
H     -12.592900     3.324400    18.983000
H     -11.516700     2.198100    19.100400
C      -8.122200     0.678000    18.694700
C      -7.075200     0.836600    19.635300
C      -6.536900    -0.313500    20.196600
H      -5.844100    -0.235100    20.810600
C      -6.998400    -1.563800    19.869000
H      -6.623400    -2.318300    20.264600
C      -8.016200    -1.702300    18.952100
H      -8.318900    -2.555300    18.739800
C      -8.607000    -0.596000    18.333900
C      -8.631900     2.165200    14.804000
C      -7.245200     1.942900    14.709400
C      -6.800400     0.896700    13.899800
H      -5.889100     0.712600    13.858600
C      -7.670100     0.136700    13.166300
H      -7.352800    -0.543100    12.618200
C      -9.028100     0.393700    13.250800
H      -9.615900    -0.120300    12.743900
C      -9.535200     1.387000    14.062200
C      -2.854800     6.165900    21.099100
H      -1.944800     6.402800    21.290700
H      -2.993300     5.236300    21.298900
H      -3.444700     6.698100    21.638900
C      -6.820700     5.409500    18.101900
C      -6.733200     5.631800    19.471300
H      -7.490700     5.548000    20.002900
C      -5.518100     5.976300    20.048200
H      -5.472400     6.125800    20.965100
C      -4.380300     6.098400    19.279700
C      -4.475800     5.936200    17.917700
H      -3.720000     6.041900    17.388200
C      -5.675700     5.622700    17.334600
H      -5.727200     5.549800    16.409500
C      -6.620400     2.198100    20.089900
H      -6.860700     2.843300    19.393000
C      -5.111800     2.300100    20.326400
H      -4.644700     2.068700    19.518700
H      -4.855900     1.695000    21.026900
H      -4.887500     3.198700    20.579800
C      -7.390700     2.577200    21.366900
H      -8.333800     2.520700    21.200000
H      -7.163400     3.473900    21.624500
H      -7.153700     1.972100    22.073700
C      -9.718700    -0.796500    17.353200
H      -9.936200     0.076500    16.965800
C     -10.961400    -1.312300    18.062000
H     -11.221500    -0.690800    18.746000
H     -10.772700    -2.165200    18.459600
H     -11.675000    -1.405200    17.427300
C      -9.281100    -1.720500    16.213700
H      -8.507100    -1.352400    15.783100
H      -9.993900    -1.800700    15.575000
H      -9.069300    -2.586300    16.568100
C     -13.027000     9.125800    21.160900
H     -13.495900     9.721700    21.750200
H     -13.649500     8.719300    20.555100
H     -12.371300     9.619700    20.662200
C     -10.172100     5.108700    20.026600
C     -10.430000     5.106900    21.391600
H     -10.113700     4.407000    21.915000
C     -11.143300     6.123900    21.983000
H     -11.285100     6.113000    22.902000
C     -11.650800     7.162800    21.222700
C     -11.400800     7.197400    19.883400
H     -11.729800     7.895500    19.366200
C     -10.650400     6.184100    19.290000
H     -10.466100     6.227800    18.379300
C      -6.219900     2.825000    15.394700
H      -6.701900     3.548600    15.849000
C      -5.418200     2.065000    16.442400
H      -6.018900     1.671300    17.081200
H      -4.824900     2.670100    16.893700
H      -4.908000     1.374200    16.015900
C      -5.281000     3.462900    14.365500
H      -5.798600     3.933200    13.706200
H      -4.764900     2.775800    13.934900
H      -4.690600     4.077200    14.806400
C     -11.046900     1.605700    14.126500
H     -11.237900     2.152500    14.919800
C     -11.833400     0.313500    14.252200
H     -11.542600    -0.164000    15.033100
H     -11.687100    -0.227800    13.473300
H     -12.769500     0.514000    14.332500
C     -11.551200     2.376700    12.892300
H     -12.497000     2.518800    12.970600
H     -11.368200     1.866300    12.101100
H     -11.102400     3.222400    12.838700
