43
Refcode: TOQQAS_comp_0 | Dataset: tmCAT | Charge: 0 | Potential Spins: [1, 3, 5]
Pd      8.934100    17.291200     0.534200
Cl     10.134200    16.563500     2.392700
S      10.049000    15.810200    -0.776600
O       7.911000    18.481200     1.745000
N       7.930300    17.959300    -1.085500
C       7.115600    19.439800     1.380100
C       6.611500    20.253300     2.468600
C       6.936500    19.915200     3.795300
H       7.522100    19.212800     3.961700
C       6.394100    20.617800     4.847100
H       6.601000    20.368300     5.718900
C       5.540900    21.697000     4.627300
H       5.189600    22.172800     5.344800
C       5.228500    22.048300     3.346400
H       4.655600    22.766700     3.204500
C       5.743500    21.357800     2.228900
C       5.404700    21.644200     0.883900
H       4.856300    22.370500     0.696200
C       5.855800    20.894100    -0.114500
H       5.604400    21.122800    -0.980100
C       6.717100    19.738500     0.061100
C       7.073700    18.929700    -1.117500
C       6.363300    19.265600    -2.409100
H       6.313500    18.481400    -2.960200
H       6.848200    19.951600    -2.871600
H       5.475800    19.576000    -2.215200
C       8.221700    17.185400    -2.319000
H       8.095100    17.759900    -3.091500
H       7.592500    16.450400    -2.390800
C       9.622500    16.637900    -2.335800
H      10.246600    17.363100    -2.493000
H       9.709400    16.006200    -3.067100
C       8.995300    14.343200    -0.761800
C       8.582800    13.722800    -1.923600
H       8.791100    14.094800    -2.751000
C       7.853800    12.541500    -1.853400
H       7.566100    12.124000    -2.632000
C       7.551900    11.980400    -0.595400
H       7.068700    11.187600    -0.537400
C       7.978800    12.614700     0.543500
H       7.792700    12.234000     1.370900
C       8.675600    13.796900     0.493100
H       8.930600    14.229500     1.276300
