106
Refcode: TUBBEX_comp_0 | Dataset: tmCAT | Charge: unknown | Potential Spins: [1, 3, 5]
Rh      4.170300     8.598500    20.200100
S       1.951200     8.036400    19.666600
P       6.124900     9.434700    21.057600
P       4.723800     8.882600    18.039700
B       0.809900     6.839100    23.745200
B       1.990300     6.727000    22.458900
B       0.283100     6.947000    22.081400
B      -0.414300     7.966600    23.300000
B       0.870200     8.470100    24.405800
B       2.352500     7.693700    23.884700
C       1.482300     7.998300    21.396100
C       0.108300     8.611800    21.820800
B       0.356000     9.568000    23.117400
B       2.148500     9.392400    23.616000
B       2.733500     8.343100    22.313200
C      -0.911900     8.990500    20.741700
C       1.657200     6.405400    19.018300
C       2.529500     5.379500    19.223500
C       2.252600     4.118700    18.692100
C       1.093000     3.915600    17.967900
C       0.239400     4.969100    17.781200
C       0.460100     6.221400    18.294100
C       6.657900     8.563100    22.571700
C       6.349800     7.232600    22.752200
C       6.841100     6.528100    23.847800
C       7.590600     7.169100    24.785400
C       7.944500     8.484900    24.606900
C       7.436500     9.176600    23.527700
C       5.964600    11.169300    21.623900
C       4.723800    11.617800    22.079300
C       4.559400    12.889100    22.538900
C       5.608600    13.764900    22.559400
C       6.820300    13.329100    22.138800
C       7.018100    12.064100    21.658700
C       7.698900     9.460100    20.126200
C       7.932000    10.388700    19.127100
C       9.108300    10.420500    18.390500
C      10.043100     9.451600    18.673700
C       9.874500     8.531400    19.621500
C       8.685700     8.529300    20.360100
C       4.892500    10.625700    17.600700
C       4.507300    11.552200    18.495200
C       4.563500    12.914500    18.232600
C       5.104800    13.341800    17.071400
C       5.421300    12.455500    16.146100
C       5.300500    11.097400    16.394300
C       3.489300     8.322000    16.812900
C       3.555900     7.088700    16.242500
C       2.587800     6.674100    15.331600
C       1.540600     7.499100    15.005400
C       1.457300     8.723900    15.577800
C       2.425400     9.170300    16.476400
C       6.193700     7.977200    17.485800
C       6.578800     6.885600    18.222300
C       7.626000     6.077500    17.807900
C       8.308900     6.356800    16.671300
C       7.957000     7.435600    15.951200
C       6.884800     8.197200    16.361500
H       0.603800     5.965400    24.311500
H       2.539900     5.859700    22.177800
H      -0.208200     6.219300    21.459700
H      -1.457300     7.953900    23.613900
H       0.603800     8.630800    25.480900
H       3.060400     7.298100    24.578200
H      -0.249800    10.428900    23.326700
H       2.727300    10.217400    24.044800
H       1.540600     9.878900    22.629100
H       3.830700     8.250100    21.952100
H      -1.540600     9.477000    21.254600
H      -1.290800     8.186600    20.433900
H      -0.645400     9.519300    20.003100
H       3.324800     5.521200    19.726100
H       2.860500     3.401600    18.829600
H       0.893100     3.058900    17.606800
H      -0.549600     4.825200    17.270400
H      -0.160300     6.927900    18.166900
H       5.793900     6.790400    22.122400
H       6.651700     5.601600    23.940100
H       7.869600     6.703700    25.565000
H       8.531600     8.912200    25.220300
H       7.630200    10.103200    23.441600
H       3.980600    11.025500    22.069100
H       3.705800    13.172600    22.848700
H       5.492100    14.657600    22.861000
H       7.559400    13.923600    22.177800
H       7.875800    11.799700    21.348900
H       7.259600    11.029700    18.936300
H       9.260300    11.080500    17.721700
H      10.848800     9.438900    18.166900
H      10.551100     7.886200    19.793800
H       8.558700     7.873500    21.035100
H       4.184600    11.262400    19.340400
H       4.224200    13.540700    18.862400
H       5.256800    14.268400    16.923600
H       5.735600    12.751600    15.298800
H       5.510800    10.479700    15.702900
H       4.272100     6.504900    16.466100
H       2.652300     5.813100    14.933600
H       0.880600     7.213500    14.385800
H       0.726600     9.288700    15.360300
H       2.363000    10.039700    16.853900
H       6.122900     6.682500    19.028600
H       7.867500     5.318100    18.326900
H       9.025000     5.800400    16.386100
H       8.440000     7.672600    15.169500
H       6.620400     8.927000    15.813700
