39
Refcode: TUDTIW_comp_0 | Dataset: tmCAT | Charge: -2 | Potential Spins: [1, 3, 5]
Ag     -1.394500     4.059900     0.779500
O       4.892800     3.744100     5.310600
O       2.387900     0.942200     7.213900
H       2.328500     0.104300     7.212200
O       2.232200     0.291400     3.892500
O      -3.108700     4.387400    -0.419300
O      -2.774800     6.468900     0.280000
N       0.646700     2.391200     2.356600
N       1.085100     4.513300     2.581900
N       3.125000     4.298800     3.991500
N       3.494500     2.046700     4.689600
C       0.228300     3.603300     1.983100
C       2.048800     3.829400     3.281500
C       3.900200     3.397200     4.710300
C       2.474100     1.499500     3.904000
C       1.762200     2.498800     3.171800
C       0.095500     1.132700     1.833400
H      -0.740200     1.314800     1.357700
H      -0.079800     0.519100     2.577500
H       0.739400     0.724500     1.218300
C       0.977700     5.959700     2.332900
H       1.076600     6.444900     3.179300
H       0.101900     6.160100     1.943100
H       1.683700     6.238800     1.711900
C       3.594700     5.698100     3.932200
H       3.586500     6.006900     3.001400
H       4.507600     5.751900     4.285000
H       3.003200     6.264400     4.470200
C       4.244300     1.147600     5.613000
H       5.211300     1.357900     5.567000
H       4.121900     0.206200     5.331400
C       3.750200     1.320600     7.050700
H       4.311300     0.771700     7.653900
H       3.857500     2.268600     7.317500
C      -3.403800     5.626900    -0.392800
C      -4.585400     6.052500    -1.242100
H      -5.394100     6.073200    -0.689200
H      -4.706800     5.414100    -1.974200
H      -4.417600     6.945000    -1.609600
