67
Refcode: TUKPIA_comp_0 | Dataset: tmCAT | Charge: unknown | Potential Spins: [1, 3, 5]
Au     13.632200     5.511400    -6.841100
Cl     13.968800     5.426700    -9.093100
C      13.239500     5.622000    -4.942800
N      13.859300     6.590500    -4.161600
H      13.597700     6.709000    -3.329500
N      12.307400     4.855200    -4.261700
C      12.166000     4.850400    -2.854300
H      13.045600     5.082500    -2.453800
H      11.947000     3.930000    -2.565200
C      11.107100     5.810900    -2.284600
H      10.199400     5.602800    -2.642800
O      11.497000     7.118800    -2.587800
C      10.438400     7.972000    -2.806300
H      10.772800     8.873200    -3.013700
H       9.897200     7.648600    -3.555200
H       9.879300     8.018400    -1.998300
O      11.157100     5.625200    -0.904000
C       9.959300     5.923000    -0.183300
H      10.095600     5.756500     0.767200
H       9.710200     6.854600    -0.330000
H       9.233500     5.338700    -0.513300
C      11.613100     3.843500    -5.062700
H      11.696600     4.126900    -6.018800
C      12.304800     2.474800    -4.949900
H      13.247600     2.556500    -5.224900
H      12.287500     2.178700    -3.999400
C      11.601000     1.435900    -5.810100
H      11.759700     1.653600    -6.767700
H      11.993900     0.547500    -5.638100
C      10.103600     1.363900    -5.584500
H       9.927400     0.979700    -4.681900
H       9.689000     0.766800    -6.251500
C       9.467100     2.759800    -5.669100
H       9.523200     3.081500    -6.604100
H       8.503100     2.692500    -5.435000
C      10.113700     3.761900    -4.766600
H       9.979900     3.496100    -3.820300
H       9.701500     4.651900    -4.896300
C      14.920400     7.406900    -4.693200
C      16.228500     6.984300    -4.574800
C      17.228500     7.866300    -5.044400
H      18.146100     7.635800    -4.910400
C      16.922400     9.070100    -5.704400
H      17.605100     9.633600    -6.055500
C      15.602800     9.391900    -5.813000
H      15.378800    10.206700    -6.245900
C      14.580600     8.625100    -5.347600
C      16.580000     5.698800    -3.934500
H      15.712500     5.226600    -3.821700
C      13.128500     9.044500    -5.528100
H      12.530600     8.327400    -5.161400
C      17.123100     5.858900    -2.552500
H      17.339900     4.976900    -2.178800
H      17.928400     6.412800    -2.568000
H      16.443100     6.287900    -1.982800
C      17.379500     4.802400    -4.837100
H      17.590300     3.968400    -4.371700
H      16.860200     4.602300    -5.646500
H      18.215300     5.252200    -5.095100
C      12.828400    10.309200    -4.837100
H      11.887500    10.536500    -4.976700
H      13.003700    10.205100    -3.879500
H      13.398300    11.015100    -5.202300
C      12.824100     9.236600    -7.022900
H      13.019700     8.410600    -7.510900
H      11.884900     9.478300    -7.147000
H      13.392600     9.961800    -7.381100
