139
Refcode: TUKZUV_comp_0 | Dataset: tmCAT | Charge: unknown | Potential Spins: [1, 3, 5]
Y       8.161500    12.251000     5.253900
Si      4.793100    11.947400     5.511100
Si      5.684800    12.593300     2.766400
O       9.666100    13.086200     3.760200
O       8.203700    10.394100     6.585200
O       8.079200    14.574000     5.602000
N       8.943700    12.231900     7.575800
N       9.683000    10.883000     3.930400
C       9.496400    13.017300     8.642600
N       6.071900    12.251200     4.405800
C      10.996100    11.957700     2.103500
C       9.205100    10.024900     8.730000
C       8.844900    13.114500     9.900300
C      12.962700    12.752700     0.868300
C       8.773100    10.929500     7.608800
C       8.371400     8.963500     9.196600
C      11.540000     9.263400     3.777000
C      10.180700     9.578400     3.601700
C      12.114000    12.831100     2.017800
C       9.277300     8.621700     3.114400
C      10.099600    11.956700     3.306000
C      11.980000     8.016700     3.362000
H      12.878700     7.797600     3.457400
C      10.729100    11.078200     1.080200
H       9.993700    10.511300     1.142700
C       9.783300     7.381500     2.719300
H       9.200000     6.736200     2.385500
C      10.665600    13.752000     8.396200
C       7.552300    12.409000    10.253100
H       7.304300    11.842100     9.493300
C      12.465600    13.753800     3.027700
H      11.929500    13.826200     3.784600
C      10.601700    14.594100    10.647000
H      10.984100    15.104600    11.324500
C      11.398300    13.727700     7.057400
H      10.878400    13.172800     6.438700
C      11.205500    14.525700     9.415600
H      11.987300    15.004100     9.261300
C       6.428400    13.418100    10.471700
H       6.648600    13.987000    11.212200
H       5.610400    12.951700    10.660400
H       6.317400    13.950800     9.681300
C       7.561400    15.325800     6.722200
H       8.279700    15.709700     7.249400
H       7.010400    14.768900     7.293300
C      11.122400     7.092000     2.812300
H      11.447900     6.277900     2.505200
C       7.190600    12.517500     1.666500
H       7.848700    13.140700     1.982600
H       6.942000    12.744700     0.766700
H       7.555400    11.631000     1.684800
C      11.514900    15.118700     6.453100
H      10.638100    15.500700     6.360600
H      11.931000    15.060400     5.591500
H      12.046500    15.673500     7.027200
C      10.431300    10.225900     9.305500
H      10.978800    10.907300     8.985400
C       7.106900     8.649900     8.647200
H       6.776700     9.156500     7.940400
C      11.549000    11.025900    -0.057600
H      11.341800    10.445000    -0.752000
C      14.095900    13.584900     0.798400
H      14.652900    13.530700     0.056200
C       8.842700     8.163400    10.280700
C      12.529000    10.185700     4.472900
H      12.116200    11.070200     4.553700
C       7.794700     8.881100     3.012100
H       7.643600     9.827900     3.215700
C      13.566900    14.531700     2.920300
H      13.778400    15.122700     3.606400
C      14.395500    14.459400     1.784900
H      15.142400    15.008200     1.711600
C       7.705500    11.504400    11.484500
H       8.442100    10.903300    11.351400
H       6.899100    10.997800    11.610200
H       7.868500    12.045100    12.259700
C       9.437200    13.910600    10.876700
H       9.029400    13.980900    11.710300
C      10.883700     9.423800    10.371800
H      11.719300     9.574600    10.750700
C       8.079000    15.480600     4.449500
H       7.735300    15.036300     3.660100
H       8.974400    15.804200     4.263200
C       8.015900     7.112100    10.765400
H       8.305800     6.601500    11.488100
C      12.644500    11.826000    -0.143300
H      13.198100    11.759700    -0.888800
C      10.101600     8.436800    10.838400
H      10.402700     7.922200    11.551600
C       6.361800     7.616600     9.139200
H       5.534500     7.427700     8.758300
C      13.840300    10.340500     3.691800
H      14.304800     9.500200     3.674700
H      14.390400    11.001800     4.116700
H      13.646100    10.613900     2.790800
C       7.044800     8.058900     4.053200
H       7.157100     7.124100     3.865200
H       6.111400     8.282000     4.023900
H       7.394200     8.253900     4.924900
C       4.997900    14.320700     2.480800
H       4.225700    14.453300     3.035000
H       4.751500    14.419200     1.557800
H       5.667400    14.972000     2.702900
C      12.800800     9.659000     5.880800
H      11.988400     9.677100     6.392300
H      13.460300    10.209800     6.306900
H      13.124600     8.756400     5.828300
C      12.781700    13.108500     7.185900
H      13.317800    13.645200     7.776800
H      13.198400    13.072300     6.321500
H      12.703800    12.222000     7.542400
C       7.248300     8.613700     1.616400
H       7.724400     9.150400     0.979100
H       6.315800     8.836800     1.589500
H       7.362200     7.685000     1.401500
C       4.400600    11.419900     2.060800
H       4.708000    10.515400     2.153600
H       4.263900    11.614900     1.130500
H       3.573400    11.526500     2.534500
C       7.174600    16.614300     4.861400
H       7.658300    17.454600     4.834500
H       6.417700    16.676600     4.258300
C       3.284000    13.038200     5.269200
H       3.545900    13.960800     5.313100
H       2.642400    12.853200     5.960200
H       2.892000    12.857200     4.412100
C       4.203100    10.171600     5.510900
H       3.883300     9.940400     4.636800
H       3.492700    10.069100     6.150600
H       4.931600     9.592700     5.747700
C       5.354400    12.290400     7.264000
H       6.178700    11.828000     7.432500
H       4.684100    11.984800     7.881800
H       5.486900    13.235200     7.378800
C       6.825200     6.840700    10.203800
H       6.309400     6.137100    10.523700
C       6.766000    16.371100     6.074900
H       5.836100    16.093700     6.048100
H       6.818800    17.183200     6.599900
