43
Refcode: TULLUJ_comp_0 | Dataset: tmCAT | Charge: 1 | Potential Spins: [1, 3, 5]
Zn     16.930500     4.859000    10.094000
Cl     15.755500     3.321800     8.962000
N      17.129200     4.189800    12.021300
H      17.609200     4.825600    12.501100
N      18.929500     4.420400     9.521600
N      17.573500     6.565500     9.177900
N      15.447900     6.320900    10.580300
C      17.887000     2.922500    12.047400
H      17.397800     2.248200    11.512500
H      17.926300     2.594900    12.981000
C      19.311300     3.036000    11.509800
H      19.815700     2.239400    11.812300
H      19.733100     3.826500    11.931900
C      19.490000     3.159200    10.000100
H      20.453200     3.118100     9.776000
H      19.036200     2.402800     9.550500
C      19.560400     5.309500     8.875400
C      18.775200     6.565500     8.605900
C      19.209600     7.666900     7.882600
H      20.066800     7.682600     7.474300
C      18.340900     8.746400     7.776800
H      18.593500     9.501900     7.259800
C      17.119300     8.739400     8.409300
H      16.539000     9.488800     8.351500
C      16.753000     7.612700     9.133900
C      15.530800     7.448500     9.987700
C      14.410400     5.950600    11.545500
H      13.803900     5.279800    11.142700
H      13.873300     6.748000    11.783400
C      15.062100     5.367200    12.813300
H      15.700000     6.035300    13.169400
H      14.355600     5.239600    13.493900
C      15.799400     4.051800    12.642800
H      15.904800     3.628200    13.531000
H      15.247400     3.448300    12.084500
C      20.974100     5.249300     8.395500
H      21.530100     5.844100     8.942700
H      21.014800     5.534900     7.459200
H      21.305400     4.330400     8.472500
C      14.576600     8.597100    10.093600
H      14.263100     8.845100     9.198500
H      15.029400     9.362200    10.504700
H      13.810600     8.335900    10.644900
