55
Refcode: TUMLEU_comp_0 | Dataset: tmCAT | Charge: unknown | Potential Spins: [1, 3, 5]
Rh      2.960500    12.316100    19.801000
I       5.250000    11.522900    18.745600
I       0.660900    13.243500    20.748600
C       2.665400    13.292900    18.246400
O       2.475200    13.889200    17.322500
C       3.881900    14.038000    20.530700
H       4.690900    14.221900    20.009600
H       4.124000    13.905600    21.471200
H       3.265000    14.796000    20.455800
N       2.088700    10.403700    19.317700
N       3.258100    11.137400    21.523300
C       2.057800     9.540300    20.275100
C       2.754600     9.955000    21.523700
C       1.400000     8.204600    20.208100
H       0.816700     8.166000    19.420600
H       0.866700     8.061700    21.018400
H       2.085100     7.506400    20.141500
C       2.870700     8.969700    22.640000
H       3.449500     9.336400    23.341600
H       3.257300     8.135500    22.299800
H       1.981300     8.790400    23.011900
C       1.666100    10.048700    17.999000
C       0.654200    10.772800    17.380000
H       0.221000    11.481600    17.840300
C       0.282100    10.449400    16.075600
C       0.958700     9.421900    15.417800
H       0.707200     9.197000    14.530300
C       1.994400     8.719000    16.028100
C       2.341400     9.040000    17.330400
H       3.042100     8.569000    17.765500
C      -0.829600    11.193400    15.399100
H      -0.689900    12.157600    15.506100
H      -1.685300    10.939100    15.802800
H      -0.839800    10.968400    14.444500
C       2.734600     7.647000    15.283200
H       3.119000     7.012000    15.921500
H       3.453300     8.053500    14.754400
H       2.115800     7.176000    14.686300
C       4.007000    11.570600    22.673700
C       5.338300    11.193400    22.793000
H       5.753600    10.677900    22.110800
C       6.059600    11.574100    23.919400
C       5.436900    12.352100    24.884700
H       5.924700    12.604000    25.660400
C       4.118100    12.771500    24.750000
C       3.403900    12.372000    23.626900
H       2.502100    12.649700    23.513000
C       7.506000    11.146500    24.070200
H       7.690700    10.942700    25.009800
H       8.094300    11.870500    23.772400
H       7.669600    10.347500    23.524000
C       3.480600    13.647900    25.795100
H       3.870300    13.447500    26.671400
H       2.515500    13.476800    25.820800
H       3.639700    14.588600    25.574600
