101
Refcode: TUNXAD_comp_0 | Dataset: tmCAT | Charge: unknown | Potential Spins: [1, 3, 5]
Ir      8.796100     7.534700    13.304100
Cl      7.078000     9.142300    13.418600
C       8.298600     6.995400    15.350100
H       7.417500     7.261000    15.156700
C       8.544900     5.519200    15.583500
H       8.738400     5.377000    16.533800
H       7.728400     5.022100    15.368400
C       9.684900     4.965600    14.764900
H       9.500500     4.026600    14.554800
H      10.506900     4.998600    15.298400
C       9.905400     5.729600    13.465100
H       9.437900     5.455700    12.697500
C      10.780100     6.829700    13.366900
H      10.890200     7.216300    12.517500
C      11.556600     7.437300    14.508100
H      11.945900     8.285900    14.211400
H      12.293600     6.837900    14.748200
C      10.708200     7.690000    15.736900
H      10.748600     6.903700    16.320400
H      11.081200     8.449200    16.233700
C       9.263400     7.981500    15.396800
H       9.014300     8.868800    15.208400
C       8.727000     7.628900    11.256100
N       7.713700     7.212800    10.466500
C       7.978100     7.423200     9.034700
H       7.209700     7.836900     8.589500
H       8.194800     6.579300     8.586200
C       9.163500     8.352900     9.047700
H       9.851200     8.063700     8.412800
H       8.898600     9.273100     8.841300
N       9.627700     8.224700    10.440600
C      10.898600     8.790100    10.778900
C      11.007300    10.058200    11.283700
C       9.797800    10.935000    11.517200
H       8.993000    10.370800    11.400500
C       9.747100    11.529700    12.926000
H      10.506200    12.119700    13.056000
H       9.777500    10.815100    13.579500
H       8.924500    12.032700    13.034300
C       9.747400    12.036200    10.453500
H       8.872100    12.452300    10.461800
H       9.914900    11.649600     9.579800
H      10.425300    12.702600    10.646900
C      12.324400    10.570600    11.518800
H      12.420600    11.431000    11.885600
C      13.445200     9.840800    11.225400
H      14.295800    10.206300    11.388800
C      13.331700     8.543300    10.681900
C      12.041100     8.003800    10.443600
C      11.929800     6.700400     9.918300
H      11.072600     6.344300     9.761600
C      13.031500     5.931700     9.629900
C      12.868600     4.526100     9.083000
H      13.771300     4.168800     8.896300
C      12.094700     4.528400     7.774200
H      11.183200     4.817600     7.937600
H      12.088000     3.632900     7.402500
H      12.520800     5.134900     7.149000
C      12.215500     3.614000    10.101700
H      12.729700     3.627000    10.923600
H      12.185200     2.710200     9.753200
H      11.312600     3.923200    10.280100
C      14.309200     6.483000     9.866600
H      15.075900     5.975200     9.669900
C      14.451800     7.738200    10.373400
H      15.316700     8.077800    10.521800
C       6.499100     6.535800    10.795100
C       5.306900     7.330300    10.789900
C       5.333600     8.736000    10.660200
H       6.160500     9.174400    10.586800
C       4.178500     9.476400    10.641900
C       4.192700    10.985500    10.566800
H       3.625000    11.309900    11.310400
C       5.547600    11.622500    10.753600
H       5.448400    12.586300    10.801900
H       6.119400    11.393400    10.005000
H       5.945200    11.297000    11.577200
C       3.548300    11.447400     9.313100
H       3.289400    12.377100     9.404800
H       2.760500    10.908000     9.136400
H       4.171900    11.356900     8.576200
C       2.949000     8.800600    10.738600
H       2.151900     9.299000    10.711900
C       2.877600     7.451400    10.870300
H       2.038900     7.035300    10.942000
C       4.058100     6.660400    10.900600
C       4.034900     5.257100    11.018700
H       3.211800     4.810500    11.093700
C       5.194700     4.537800    11.023700
H       5.152000     3.603500    11.120400
C       6.465500     5.160700    10.886300
C       7.702500     4.302800    10.766900
H       8.490100     4.904500    10.763600
C       7.850400     3.348400    11.954000
H       8.723800     2.926500    11.924000
H       7.159400     2.667900    11.910600
H       7.761600     3.845600    12.782600
C       7.697800     3.535300     9.444800
H       7.598000     4.159400     8.707900
H       6.958400     2.907700     9.438100
H       8.532300     3.051100     9.348100
