102
Refcode: TUSFES_comp_0 | Dataset: tmCAT | Charge: unknown | Potential Spins: [1, 3, 5]
Os      1.956500     8.236300    10.966800
H       0.961100     9.130700    10.136800
H       2.051100     9.572300    11.705500
H       1.505700     6.766600    10.936000
H       1.503500     7.863800    12.386200
H       2.850600     9.164900    10.151600
Cl     -1.672200     7.903200     9.792800
P       2.834000     8.365100     6.946500
P       4.028600     7.540400    11.968600
Si     -0.367100     8.342300    11.441300
Si      2.097800     7.163100     8.840800
H       2.980800     6.140500     8.671800
H       0.960000     6.700800     8.183500
C       5.420500     7.374000    10.771700
H       6.185000     6.962300    11.249700
H       5.140600     6.739500    10.065800
C       5.926600     8.656300    10.083600
H       5.168900     9.284700     9.969600
H       6.598900     9.093900    10.663700
C       6.554500     8.370300     8.713300
H       7.009500     9.189400     8.392100
H       7.244800     7.666900     8.819800
C       5.554900     7.919400     7.655200
H       5.084300     7.111600     7.982200
H       6.047600     7.669800     6.833900
C       4.508900     8.998600     7.303000
H       4.829700     9.501600     6.512700
H       4.449000     9.637400     8.057700
C       4.721900     8.716100    13.294800
C       4.568900    10.177600    12.827200
H       4.993700    10.774800    13.478300
H       3.616400    10.399800    12.754700
H       4.998900    10.288600    11.954100
C       3.927500     8.570800    14.604500
H       4.204200     9.268700    15.233400
H       4.103100     7.689100    14.996600
H       2.970900     8.660000    14.416500
C       6.218200     8.491400    13.584900
H       6.522900     9.137800    14.255200
H       6.732400     8.611600    12.759100
H       6.352800     7.580600    13.923700
C       3.984700     5.762800    12.680700
C       2.745600     5.542000    13.553800
H       2.757100     4.630700    13.914900
H       1.937800     5.668700    13.013600
H       2.747900     6.185200    14.293700
C       5.233600     5.373300    13.488700
H       5.231600     4.406000    13.645500
H       5.225000     5.843500    14.348500
H       6.037800     5.621400    12.988500
C       3.895500     4.801500    11.495300
H       3.715400     3.895900    11.822400
H       4.743300     4.809400    11.004000
H       3.169900     5.084000    10.900400
C       2.955500     7.288200     5.402900
C       3.570600     5.925600     5.780200
H       3.590000     5.347100     4.990000
H       3.029600     5.504800     6.480200
H       4.483700     6.060200     6.108700
C       3.850400     7.922900     4.331500
H       3.933200     7.311700     3.569400
H       4.737900     8.097100     4.707300
H       3.451700     8.767000     4.031100
C       1.569900     7.015200     4.818300
H       1.650500     6.400000     4.059200
H       1.171400     7.858500     4.515000
H       0.998500     6.612900     5.506500
C       1.771200     9.893700     6.640000
C       2.096300    10.559700     5.290400
H       1.649300    11.430600     5.240100
H       1.780400     9.988900     4.559400
H       3.064900    10.684900     5.212000
C       0.289300     9.513000     6.688800
H      -0.257200    10.304600     6.500900
H       0.069900     9.169100     7.579700
H       0.106600     8.823300     6.017000
C       2.034800    10.917000     7.758800
H       1.467300    11.704300     7.621100
H       2.976500    11.186300     7.739500
H       1.828800    10.512300     8.625900
C      -1.042900    10.028600    12.002900
C      -2.252400    10.114000    12.698400
H      -2.728800     9.316600    12.893800
C      -2.775500    11.332300    13.109800
H      -3.598500    11.359600    13.581900
C      -2.101000    12.501500    12.833100
H      -2.454800    13.334300    13.121700
C      -0.904200    12.456300    12.134600
H      -0.439000    13.260300    11.934800
C      -0.384600    11.233000    11.724700
H       0.436400    11.212700    11.245200
C      -1.049900     7.139700    12.754700
C      -0.534800     7.222500    14.046600
H       0.145600     7.859800    14.227100
C      -0.975800     6.411900    15.079500
H      -0.601300     6.498300    15.948100
C      -1.967000     5.477400    14.838300
H      -2.269900     4.909500    15.536800
C      -2.504600     5.379800    13.584900
H      -3.192300     4.745600    13.417600
C      -2.057600     6.198300    12.547500
H      -2.446300     6.112300    11.684800
