57
Refcode: TUTMAY_comp_0 | Dataset: tmCAT | Charge: 0 | Potential Spins: [1, 3, 5]
Mo      4.343000     6.174200    14.925500
N       6.050200     9.937800    15.360400
C       6.754100     9.901400    16.614500
O       3.149100     6.781000    15.942200
N       5.762100    11.146400    14.718900
C       6.250700     9.144900    17.651100
H       5.476200     8.644400    17.535100
O       5.106900     4.957900    15.817500
C       6.808000     6.242800    12.836500
H       6.434500     7.004200    12.385500
H       7.343900     5.737400    12.222800
H       7.353500     6.541200    13.568200
N       3.676100     7.374600    13.097700
C       6.921000     9.140000    18.889900
H       6.592300     8.633000    19.597200
O       5.627200     7.666100    15.110800
N       2.877700     6.634700    12.203100
C       8.064800     9.891600    19.050800
H       8.510300     9.899800    19.866600
O       3.258100     4.985400    13.771600
O       5.902900     5.539000    13.264800
H       6.251000     4.548800    13.212600
C       8.537700    10.620400    17.999200
H       9.316400    11.117700    18.104000
C       7.881500    10.636700    16.781000
H       8.212100    11.150300    16.081200
C       4.965500    10.848700    13.699100
C       4.470300    11.957400    12.823400
H       4.640900    12.800300    13.248200
H       3.527600    11.854600    12.681200
H       4.926900    11.926400    11.979500
C       4.700700     9.425300    13.665500
C       5.433400     8.918300    14.724600
C       3.878200     8.631300    12.771000
C       3.279500     9.275300    11.567800
C       1.979600     9.744900    11.588400
H       1.440600     9.567200    12.325700
C       1.469300    10.477000    10.529300
H       0.597500    10.799800    10.564900
C       2.243300    10.721500     9.432800
H       1.906400    11.228600     8.729200
C       3.510800    10.225900     9.369200
H       4.024300    10.367700     8.607600
C       4.040800     9.511800    10.430100
H       4.911300     9.187300    10.381500
C       2.706200     5.426000    12.634400
C       1.898100     4.455900    11.884100
C       1.420900     4.754200    10.602300
H       1.592500     5.589000    10.231800
C       0.700000     3.823300     9.883700
H       0.395100     4.028700     9.030500
C       0.433700     2.590700    10.432000
H      -0.047700     1.959700     9.945500
C       0.875100     2.284200    11.704400
H       0.667500     1.459200    12.082400
C       1.621900     3.200500    12.421100
H       1.943000     2.977100    13.265000
