58
Refcode: TUXDOH_comp_0 | Dataset: tmCAT | Charge: unknown | Potential Spins: [1, 3, 5]
Ru      3.719700     9.001600     4.627800
Br     -3.144500     8.170400     2.970700
Cl      4.211800     6.659000     4.225700
N       4.847000     9.348000     2.888800
C       2.353100     9.467900     6.281500
H       1.451200     9.225200     6.453800
C       7.104500     8.818900     3.606300
H       6.839800     7.913500     3.718400
C       4.763000     9.034300     6.584800
C       2.632900    10.655400     5.512100
C       8.411400     9.217000     3.911900
H       9.035600     8.574800     4.229400
C      -1.698700     7.016400     0.802400
H      -2.532600     6.645500     0.541700
C       3.981800    11.022200     5.336300
H       4.196100    11.807600     4.846600
C       6.199400     9.761000     3.139000
C       3.121100     8.818900     1.305200
H       2.947500     8.708400     0.377600
C      -0.549200     6.802300     0.044800
H      -0.605000     6.293700    -0.755200
C       0.773300     8.059700     1.613200
C       3.386300     8.670200     6.777100
H       3.174000     7.872600     7.248000
C       5.031900    10.223200     5.888600
H       5.933800    10.502700     5.780000
C       8.805700    10.535500     3.758500
H       9.695200    10.795900     3.968600
C       2.083700     8.523000     2.166600
C      -1.585700     7.786700     1.947100
C       1.757700    11.987500     3.535500
H       2.524200    12.598400     3.559100
H       0.967500    12.467500     3.212200
H       1.956500    11.240400     2.933700
C       6.586800    11.093100     2.991500
H       5.961800    11.740800     2.684700
C       7.892600    11.472200     3.297100
H       8.159100    12.377500     3.187400
C      -0.377700     8.302100     2.368400
H      -0.328300     8.817500     3.165000
C       4.417500     9.270200     1.656800
C       1.143700    12.595600     5.908600
H       0.955400    12.222100     6.794800
H       0.355000    13.075600     5.581700
H       1.900900    13.214700     5.968800
C       5.311900     9.641000     0.489700
H       5.196800    10.591400     0.280900
H       5.067600     9.102500    -0.292700
H       6.246800     9.467900     0.726900
C       1.491600    11.454400     4.933900
H       0.695700    10.850400     4.880800
C       5.850800     8.152100     7.107600
H       6.710300     8.433000     6.727600
H       5.669500     7.223600     6.852700
H       5.887000     8.223000     8.084700
C       0.666200     7.317700     0.434300
H       1.436600     7.166300    -0.100300
O       2.086400     8.609800     3.450900
