65
Refcode: UBEDAJ_comp_0 | Dataset: tmCAT | Charge: 1 | Potential Spins: [1, 3, 5]
Fe     -1.642500     5.762400     6.847300
B      -2.657300     3.013100     6.197700
O      -2.506100     3.156400     7.684900
O      -3.632100     4.042000     5.697200
O      -1.314500     3.231900     5.526200
C      -3.552400     3.906800    10.114900
H      -4.060900     3.241600     9.606700
H      -4.161600     4.408200    10.696800
H      -2.876400     3.455500    10.661500
C      -2.880700     4.847800     9.168200
C      -2.843100     6.281300     9.321500
C      -3.274500     6.995800    10.557200
H      -2.571400     7.617400    10.837000
H      -3.436600     6.345800    11.270900
H      -4.099100     7.492300    10.375600
C      -4.592500     5.814600     3.864300
H      -4.514600     4.884500     3.566100
H      -4.541700     6.410400     3.088500
H      -5.452200     5.942200     4.317300
C      -3.486700     6.128300     4.803300
C      -2.677800     7.344200     4.775800
C      -3.010500     8.530600     3.930200
H      -2.896200     9.349200     4.456100
H      -3.939700     8.465200     3.625900
H      -2.413700     8.554000     3.152900
C       1.386400     2.950100     6.046700
H       0.872900     2.377700     5.437300
H       1.594000     2.450300     6.864700
H       2.219700     3.225400     5.611300
C       0.584600     4.155100     6.391700
C       1.070700     5.242200     7.211200
C       2.473100     5.306800     7.734700
H       2.454100     5.409300     8.709000
H       2.937300     6.071300     7.333800
H       2.946800     4.480800     7.503200
C      -3.225400     1.567100     5.908700
H      -3.405600     1.029400     6.670700
C      -3.479900     1.016500     4.730500
C      -4.112000    -0.364900     4.560300
H      -4.240000    -0.775100     5.441100
H      -3.523400    -0.928500     4.018400
H      -4.980000    -0.274500     4.114200
C      -3.176000     1.693400     3.409700
H      -2.773400     2.579500     3.596000
H      -2.499500     1.154500     2.928300
C      -4.350700     1.888000     2.513600
H      -5.028300     2.486700     2.807200
C      -4.528000     1.301100     1.346900
H      -3.874800     0.698400     1.014900
H      -5.309700     1.481500     0.837900
N      -2.332400     4.464700     8.049000
N      -2.426900     6.905400     8.254500
N      -2.235600     8.271800     8.318900
H      -2.702200     8.691200     8.936700
H      -2.359700     8.610500     7.516300
N      -3.077300     5.307200     5.713300
N      -1.627300     7.269100     5.560000
N      -0.795600     8.386900     5.655000
H       0.008900     8.105900     5.870400
H      -0.812500     8.897100     4.939800
N      -0.668200     4.321800     6.088900
N       0.147700     6.096800     7.567600
N       0.491800     7.120100     8.423900
H       1.308600     7.443900     8.394000
H      -0.162800     7.710300     8.408500
