96
Refcode: UBUSIT_comp_0 | Dataset: tmCAT | Charge: 0 | Potential Spins: [1, 3, 5]
Mo      7.893600     6.628200     3.360800
P       5.541100     7.417300     3.521000
P      10.300900     6.101500     3.173600
O       2.960300     4.922600     1.692800
O       4.634900     2.391700     1.644700
O       6.589700     0.365800     2.330900
O       9.660800     0.662000     2.439400
O      10.953500     2.760700     0.946200
O       7.347600     5.282800     0.560600
O       7.295600     3.758900     4.523900
O       8.405100     7.918000     6.198200
O       8.604200     9.425900     2.047600
C       4.311100     6.760300     2.344500
C       4.039300     5.278900     2.509600
C       2.588300     3.576500     1.728500
C       3.433900     2.626800     1.004100
C       5.637600     1.889800     0.798300
C       6.844800     1.538800     1.636100
C       7.527700    -0.036200     3.227800
C       8.815200    -0.461200     2.698100
C      10.659900     0.400500     1.480900
C      11.580800     1.590100     1.431600
C      10.376200     3.578000     1.984700
C      10.827200     4.992900     1.797500
C       5.378600     9.221100     3.293100
C       5.927500    10.070600     4.241800
C       5.928600    11.422600     4.066800
C       5.403100    11.967400     2.954300
C       4.875000    11.165500     1.994600
C       4.845600     9.780200     2.149800
C       4.621700     7.193000     5.098000
C       5.069000     6.285700     6.066300
C       4.318700     6.064400     7.214600
C       3.140300     6.756200     7.387000
C       2.717000     7.611400     6.450700
C       3.414500     7.850200     5.319800
C      11.392600     7.544900     2.927200
C      12.028100     7.833000     1.735900
C      12.859800     8.960300     1.650900
C      13.025000     9.785500     2.714100
C      12.375800     9.527100     3.909100
C      11.545400     8.426800     3.973200
C      11.167100     5.317200     4.581800
C      12.562800     5.159100     4.551000
C      13.246800     4.601800     5.579700
C      12.560200     4.169800     6.689700
C      11.191600     4.316100     6.764900
C      10.499500     4.852500     5.695500
C       7.507400     4.799300     4.123500
C       8.210500     7.421000     5.183000
C       8.358800     8.419100     2.523100
C       7.549200     5.790300     1.556000
H       4.651500     6.897000     1.461100
H       3.537200     7.193200     2.497300
H       4.801500     4.797900     2.221300
H       3.810200     5.094700     3.376900
H       1.739200     3.532300     1.383500
H       2.633400     3.308100     2.630300
H       2.998700     1.788300     0.928900
H       3.644800     3.003500     0.214400
H       5.846100     2.554100     0.165100
H       5.299700     1.119400     0.385600
H       6.947200     2.267400     2.215100
H       7.517100     1.410600     1.053400
H       7.209800    -0.785700     3.747700
H       7.752600     0.666700     3.814300
H       8.862800    -0.936700     1.818400
H       9.454800    -1.103300     3.242600
H      10.273000     0.352000     0.659100
H      11.144500    -0.370800     1.718600
H      11.829400     1.772600     2.300100
H      12.253700     1.406700     0.852500
H      10.662700     3.254100     2.823700
H       9.469900     3.603500     1.897300
H      11.672700     4.962400     1.844300
H      10.434400     5.341400     0.990500
H       6.268300     9.705500     5.014200
H       6.299500    11.960000     4.706200
H       5.395400    12.889100     2.858200
H       4.553200    11.530900     1.252900
H       4.453300     9.215800     1.528900
H       5.864000     5.866500     5.928400
H       4.602400     5.491600     7.836700
H       2.646600     6.604300     8.153300
H       1.955600     8.057000     6.566500
H       3.140500     8.435600     4.687700
H      11.890000     7.289300     1.006500
H      13.311500     9.138600     0.864900
H      13.589500    10.541200     2.647600
H      12.485200    10.083200     4.606400
H      11.073100     8.245100     4.713600
H      12.960200     5.417800     3.832700
H      14.151600     4.511300     5.573500
H      13.024500     3.745300     7.385800
H      10.754300     4.078000     7.506500
H       9.582900     4.884900     5.710300
