80
Refcode: UCOLOP_comp_0 | Dataset: tmCAT | Charge: 0 | Potential Spins: [1, 3, 5]
Hf      2.312500     3.429800     6.419600
O       2.923200     3.198300     4.571300
N       1.972700     5.709800     5.897000
C       3.486400     2.826100     3.344300
H       2.770300     2.910100     2.650600
O       1.622800     3.807600     8.209400
N       0.206800     3.863600     5.452100
C       4.592200     3.731900     2.948500
H       4.251300     4.647600     2.864800
H       4.961600     3.440400     2.089400
H       5.294600     3.707200     3.632000
O       4.199200     3.939400     6.969000
C       3.908200     1.385000     3.379000
H       4.580100     1.258200     4.080900
H       4.291800     1.134700     2.511800
H       3.129100     0.820200     3.566700
O       1.734300     1.475600     6.544000
C       1.085900     4.067800     9.490200
H       0.296700     4.673900     9.382100
C       0.610600     2.778300    10.135000
H      -0.054600     2.350100     9.557600
H       0.206600     2.977600    11.006300
H       1.373100     2.173900    10.259500
C       2.107800     4.769400    10.375800
H       2.881800     4.183100    10.508400
H       1.701000     4.975300    11.243000
H       2.397600     5.601100     9.945200
C       4.472100     5.037900     7.710900
C       5.177000     4.930800     8.916800
C       5.381700     6.072100     9.661600
H       5.876700     6.003000    10.469600
C       4.893900     7.328700     9.286200
C       4.220800     7.412700     8.074100
H       3.889400     8.255900     7.788500
C       4.019400     6.309300     7.278400
C       5.616900     3.573800     9.390200
H       4.828700     3.025400     9.586100
H       6.156600     3.670900    10.202300
H       6.151500     3.142300     8.692400
C       5.042100     8.537500    10.196200
H       5.171400     9.342900     9.653500
H       5.816100     8.412400    10.783900
H       4.232900     8.638000    10.741000
C       3.313700     6.413000     5.948000
H       3.899500     6.029300     5.246000
H       3.178700     7.369900     5.733700
C       1.449300     5.818500     4.515600
H       2.195400     5.736200     3.870800
H       1.029100     6.706200     4.389000
C       0.406400     4.708500     4.248300
H      -0.455500     5.121900     3.989100
H       0.713600     4.142000     3.495300
C       1.040500     6.403100     6.837600
H       1.143400     7.383100     6.733500
H       1.284700     6.170900     7.768100
C      -0.420000     6.022700     6.592800
H      -0.729100     6.506900     5.784700
H      -0.954300     6.355400     7.355900
C      -0.739000     4.527300     6.403000
H      -0.690800     4.071100     7.280400
H      -1.663600     4.431800     6.062200
C      -0.366600     2.544500     5.019600
H      -1.223100     2.709200     4.552300
H       0.253800     2.126100     4.372700
C      -0.609900     1.584300     6.145900
C      -1.894300     1.175900     6.472400
H      -2.631200     1.554700     6.007100
C      -2.138000     0.232200     7.462000
C      -1.035900    -0.291500     8.117000
H      -1.183100    -0.947000     8.788300
C       0.268400     0.090600     7.851700
C       0.478500     1.059000     6.847800
C       1.436500    -0.487500     8.604700
H       1.108700    -1.096800     9.300500
H       1.947600     0.237200     9.020900
H       2.014900    -0.979900     7.984400
C      -3.557700    -0.191000     7.782300
H      -3.712900    -1.096800     7.441600
H      -4.186500     0.429800     7.357900
H      -3.690900    -0.179500     8.751600
