23
Refcode: UFENOL_comp_0 | Dataset: tmCAT | Charge: unknown | Potential Spins: [1, 3, 5]
Hg     -0.888300     7.049200     4.529900
Cl     -2.063900     6.563700     6.491200
O       0.170800     5.473300     1.768000
N       1.304400     4.798900     3.685400
C       0.282800     7.626700     2.921400
C       0.658400     6.815800     1.881900
C       1.406800     7.255500     0.824000
H       1.654600     6.649400     0.135900
C       1.804200     8.590200     0.750600
H       2.318700     8.903600     0.015900
C       1.431800     9.450700     1.776600
H       1.691100    10.364600     1.737400
C       0.682400     8.990700     2.868700
H       0.440500     9.585600     3.567900
C       0.550800     4.521600     2.656900
C       0.074300     3.214600     2.323900
H      -0.446800     3.054100     1.545200
C       0.411200     2.194800     3.204200
H       0.112300     1.308700     3.037700
C       1.175400     2.462900     4.322100
H       1.407400     1.775000     4.934300
C       1.600700     3.765200     4.521700
H       2.127000     3.950400     5.289400
