47
Refcode: UFIFEV_comp_0 | Dataset: tmCAT | Charge: 0 | Potential Spins: [1, 3, 5]
V       0.714600     4.930700     1.860300
Cl      0.615100     3.917300    -0.078600
Cl     -0.928300     6.322800     2.276800
O       0.925200     3.774800     3.175000
N       2.082000     5.805100     1.846600
C       3.304800     6.561300     1.840600
C       4.484300     5.582200     1.636700
C       3.269800     7.573700     0.665800
C       3.476700     7.289500     3.171400
C       5.810700     6.389200     1.609500
C       5.746400     7.385600     0.466300
C       4.607900     8.372600     0.661100
C       4.736800     9.090300     1.993800
C       4.814700     8.101900     3.131300
C       5.936200     7.114800     2.943500
C       1.945300     3.554900     4.062900
C       2.943300     2.649000     3.733600
C       3.958400     2.413000     4.661800
C       3.973300     3.091900     5.864900
C       2.971600     3.988200     6.177600
C       1.927200     4.248300     5.281300
C       2.946400     1.944800     2.391900
C       0.835500     5.226100     5.585100
H       4.508800     4.889900     2.426800
H       4.365500     5.070000     0.726700
H       3.162200     7.058800    -0.242900
H       2.463200     8.233900     0.792200
H       2.670100     7.944500     3.321200
H       3.510600     6.590600     3.955300
H       6.625100     5.739600     1.474600
H       6.651800     7.912500     0.420200
H       5.596700     6.865400    -0.433700
H       4.604200     9.012900    -0.054000
H       5.626500     9.685200     1.987300
H       3.885800     9.721200     2.135700
H       4.944100     8.615400     4.038200
H       5.907200     6.410500     3.722100
H       6.851900     7.628300     2.970300
H       4.714200     1.715300     4.444900
H       4.701100     2.934500     6.501600
H       2.991700     4.451100     7.041300
H       2.923700     2.610400     1.673100
H       3.760600     1.403200     2.309200
H       2.160000     1.364500     2.324600
H       0.975000     6.042400     5.061700
H      -0.030100     4.831200     5.352800
H       0.849700     5.443500     6.540100
