96
Refcode: UFIKAY_comp_0 | Dataset: tmCAT | Charge: 0 | Potential Spins: [1, 3, 5]
Ru     -1.946400     5.941700     8.398000
H      -2.662100     6.631800     9.642000
Cl     -3.975800     4.766100     7.759100
P      -2.770300     7.922900     7.442300
P      -1.499700     4.089600     9.767100
N      -0.887900     5.258300     6.679600
N      -0.123900     6.810000     8.679000
N       2.500000     7.944300     8.722200
C       0.346900     5.821700     6.537800
C       1.111800     5.593100     5.399300
H       1.967800     5.996200     5.311500
C       0.623700     4.783000     4.397800
H       1.127600     4.641200     3.605500
C      -0.611700     4.179200     4.558900
H      -0.953500     3.591800     3.894100
C      -1.340200     4.443700     5.704600
H      -2.192800     4.036100     5.809200
C       0.761600     6.646300     7.663100
C       2.051200     7.226000     7.723200
H       2.634000     7.084000     6.985000
C       1.630800     8.104000     9.763400
C       0.331700     7.549500     9.770600
C       2.084100     8.840900    10.886300
H       2.952000     9.226800    10.880300
C       1.279400     8.998200    11.974300
H       1.587100     9.496500    12.722100
C      -0.003400     8.425300    11.989900
H      -0.551500     8.525700    12.759400
C      -0.476700     7.724600    10.911500
H      -1.351800     7.355000    10.933200
C      -4.457000     8.515900     7.849400
C      -5.388500     7.681800     8.460200
H      -5.129900     6.817200     8.757100
C      -6.705800     8.118800     8.634500
H      -7.344200     7.539000     9.030000
C      -7.088000     9.382800     8.236500
H      -7.988500     9.663700     8.350800
C      -6.155800    10.243100     7.671500
H      -6.405500    11.125300     7.425000
C      -4.853000     9.797800     7.469500
H      -4.220400    10.378500     7.065600
C      -2.821400     8.067700     5.604800
C      -3.163000     6.925200     4.882300
H      -3.356400     6.117400     5.342800
C      -3.222200     6.955500     3.492500
H      -3.449700     6.169300     3.010400
C      -2.952500     8.127500     2.814400
H      -2.982800     8.144100     1.864700
C      -2.635800     9.280900     3.517800
H      -2.458000    10.088500     3.051300
C      -2.578600     9.250800     4.903900
H      -2.372400    10.045300     5.382400
C      -1.727800     9.335100     7.940800
C      -0.520900     9.584700     7.274700
H      -0.304500     9.095500     6.489700
C       0.362800    10.547600     7.755600
H       1.171200    10.721000     7.288000
C       0.074100    11.249600     8.903800
H       0.683000    11.901800     9.229600
C      -1.106800    11.000500     9.584200
H      -1.308500    11.480300    10.378900
C      -1.999700    10.047600     9.102200
H      -2.805900     9.880200     9.574600
C      -0.178600     4.356100    11.020900
C       1.092500     4.735700    10.577300
H       1.275400     4.758100     9.645600
C       2.088800     5.076800    11.476600
H       2.948800     5.327500    11.159200
C       1.831200     5.054600    12.841100
H       2.504700     5.318200    13.457900
C       0.593700     4.646500    13.298000
H       0.423200     4.606100    14.230900
C      -0.404100     4.296300    12.391500
H      -1.251600     4.014000    12.713700
C      -2.905600     3.480700    10.786500
C      -2.888600     2.190300    11.319100
H      -2.161700     1.609600    11.125500
C      -3.930100     1.750500    12.131800
H      -3.906800     0.875300    12.500900
C      -5.003000     2.588000    12.404700
H      -5.716200     2.290100    12.956500
C      -5.022400     3.857600    11.867300
H      -5.757500     4.429100    12.047600
C      -3.985900     4.309500    11.070200
H      -4.013300     5.190700    10.715600
C      -0.944500     2.546700     8.925400
C      -1.748100     2.041600     7.896300
H      -2.556800     2.485500     7.671500
C      -1.375800     0.896700     7.201400
H      -1.931900     0.560900     6.507700
C      -0.193800     0.242500     7.518800
H       0.069100    -0.532400     7.035500
C       0.598600     0.726500     8.540700
H       1.404900     0.277200     8.765500
C       0.225000     1.863800     9.244000
H       0.774300     2.179900     9.952100
