49
Refcode: UFOYUK_comp_0 | Dataset: tmCAT | Charge: unknown | Potential Spins: [1, 3, 5]
Ir     15.023700     7.226400     3.840400
Cl     14.181000     9.286700     2.893500
N      12.977600     6.713500     3.843900
C      17.069800     6.721100     4.304700
C      16.296600     5.520600     4.123400
C      15.861800     5.494700     2.746700
C      16.323500     6.662200     2.110200
C      17.051100     7.443400     3.105200
C      17.817800     7.060100     5.557100
C      16.260400     4.368800     5.084900
C      15.033600     4.422900     2.146600
C      16.117600     7.060100     0.684100
C      17.738000     8.744000     2.832400
C      14.409400     7.871800     5.687400
C      15.095300     8.752400     6.525800
C      14.595200     9.095700     7.773800
C      13.400800     8.575300     8.218700
C      12.684900     7.736500     7.392400
C      13.170200     7.396900     6.130300
C      12.424200     6.444500     5.237200
C      12.752700     4.996800     5.585100
C      10.914400     6.643100     5.208100
H      12.760700     5.971500     3.265000
H      12.524800     7.368900     3.536100
H      17.700700     6.371000     6.201500
H      18.740900     7.149200     5.350500
H      17.492200     7.881400     5.910500
H      15.757100     3.657400     4.706800
H      17.146900     4.072800     5.257900
H      15.856100     4.644100     5.899500
H      14.813700     4.656900     1.252200
H      15.521300     3.608000     2.149500
H      14.236800     4.317900     2.652100
H      16.561500     7.881400     0.511500
H      16.466700     6.385300     0.112400
H      15.186500     7.162000     0.522500
H      18.191300     9.022500     3.619900
H      18.366100     8.635800     2.127400
H      17.096300     9.399700     2.588200
H      15.917100     9.125900     6.227900
H      15.085400     9.690900     8.328900
H      13.074400     8.796500     9.082900
H      11.853100     7.386400     7.685200
H      13.598700     4.954500     6.014100
H      12.084700     4.652100     6.166200
H      12.775400     4.480200     4.788300
H      10.488600     5.823500     4.984600
H      10.614900     6.932800     6.062600
H      10.697100     7.298800     4.556900
