69
Refcode: UFOZIZ_comp_0 | Dataset: tmCAT | Charge: unknown | Potential Spins: [1, 3, 5]
Ir      1.577100     0.837800     3.092500
O       0.964700    -1.374500     0.845700
O       2.562600    -0.882900     2.314400
N       1.682400     1.473300     1.067900
C       1.028800     0.370500     5.117300
C       0.887900     1.777800     4.892700
C      -0.057500     1.967700     3.874000
C      -0.613300     0.680500     3.519300
C       0.057600    -0.277400     4.270300
C       1.842700    -0.286800     6.187800
C       1.617200     2.868100     5.638700
C      -0.608300     3.281800     3.382900
C      -1.709200     0.427300     2.533400
C      -0.160900    -1.767700     4.212300
C       3.430800     1.694100     3.015600
C       4.426900     1.564000     3.993900
C       5.661700     2.186400     3.857600
C       5.918700     2.971300     2.758100
C       4.963500     3.100900     1.774800
C       3.741500     2.475000     1.902300
C       2.689700     2.575600     0.794000
C       1.917000     3.892200     0.811700
C       2.241500     4.943500     1.658700
C       1.509700     6.130200     1.635900
C       0.460800     6.270800     0.756100
C       0.128500     5.242400    -0.078300
C       0.843600     4.059700    -0.051800
C       3.378900     2.296600    -0.550400
C       3.436800     3.199600    -1.599300
C       4.150500     2.866200    -2.748000
C       4.822000     1.679900    -2.852800
C       4.779600     0.788200    -1.816400
C       4.082100     1.091100    -0.689200
C       2.040500    -1.595400     1.388500
C       2.878000    -2.775600     0.942900
H       0.898400     1.664300     0.795200
H       1.914500     0.675100     0.555400
H       1.572500     0.033200     7.041100
H       2.760900    -0.081900     6.050200
H       1.718600    -1.227200     6.147400
H       0.988700     3.428100     6.080500
H       2.122100     3.387100     5.022700
H       2.202200     2.481800     6.279900
H      -1.540300     3.330500     3.563500
H      -0.462700     3.357800     2.447600
H      -0.161600     3.990000     3.831100
H      -2.420800    -0.042900     2.952500
H      -2.029700     1.260400     2.209000
H      -1.372400    -0.085800     1.810100
H      -0.474600    -2.085700     5.051700
H       0.662500    -2.191100     4.001500
H      -0.800800    -1.968700     3.539500
H       4.211900     0.952100     4.758900
H       6.330000     2.113000     4.531600
H       6.725400     3.418300     2.739200
H       5.120900     3.623200     0.959300
H       2.854700     4.868000     2.196400
H       1.755100     6.864000     2.158500
H      -0.032700     7.135200     0.706900
H      -0.548500     5.359700    -0.681600
H       0.601100     3.346100    -0.593300
H       3.034700     4.093400    -1.514800
H       4.220700     3.574400    -3.471300
H       5.272400     1.457500    -3.622800
H       5.143400     0.011700    -1.994400
H       4.027100     0.415600     0.151500
H       2.640700    -3.541200     1.452900
H       3.798800    -2.581300     1.071700
H       2.715300    -2.946200     0.022700
