81
Refcode: UJELOK_comp_0 | Dataset: tmCAT | Charge: 0 | Potential Spins: [1, 3, 5]
Pd      0.000000     0.000000     0.000000
S       0.500500     1.304100    -1.808600
N       1.775600     0.184700     0.961400
N       6.159800     1.535200     1.623700
N       2.111100    -0.548400     2.080100
N       5.759500     2.788400     1.200100
C       2.691300     1.043200     0.570500
H       2.437200     1.543600    -0.171100
C       4.007500     1.366000     1.053300
C      -1.098900     1.249000    -2.543900
C       4.444400     2.705200     0.750100
C       5.075000     0.711900     1.607900
C       7.212500     5.870000    -0.184900
H       7.013000     6.777800    -0.212300
C       6.684300     3.670900     0.561000
C       5.223800    -0.690800     2.094900
H       6.116200    -0.821900     2.423500
H       5.056000    -1.299700     1.372300
H       4.594600    -0.851500     2.801700
C       8.573400     4.057100    -0.845100
H       9.311600     3.731500    -1.307900
N      -1.218700     1.938300    -3.666900
C       6.426000     5.039700     0.552500
H       5.719300     5.383600     1.049000
C       8.270400     5.409000    -0.873700
H       8.796300     5.994000    -1.367000
C       7.773700     3.204200    -0.128900
H       7.972700     2.296400    -0.109900
C       7.290300     1.461900     2.564000
H       7.916200     2.162500     2.366400
H       7.724700     0.610400     2.476300
H       6.966700     1.564800     3.461900
C      -2.415700     1.956700    -4.497200
H      -2.914700     2.770100    -4.329300
H      -2.981800     1.202500    -4.264800
C      -2.053900     1.881900    -5.947700
H      -2.855600     1.881900    -6.477000
H      -1.561400     1.074200    -6.113600
H      -1.514500     2.640400    -6.182300
O       3.861800     3.630000     0.188000
H      -0.577100     2.213200    -4.014500
N      -2.111100     0.548400    -2.080100
N      -1.775600    -0.184700    -0.961400
S      -0.500500    -1.304100     1.808600
C       1.098900    -1.249000     2.543900
N       1.218700    -1.938300     3.666900
C       2.415700    -1.956700     4.497200
H       2.914700    -2.770100     4.329300
H       2.981800    -1.202500     4.264800
C       2.053900    -1.881900     5.947700
H       2.855600    -1.881900     6.477000
H       1.561400    -1.074200     6.113600
H       1.514500    -2.640400     6.182300
H       0.577100    -2.213200     4.014500
C      -2.691300    -1.043200    -0.570500
H      -2.437200    -1.543600     0.171100
C      -4.007500    -1.366000    -1.053300
C      -4.444400    -2.705200    -0.750100
N      -5.759500    -2.788400    -1.200100
N      -6.159800    -1.535200    -1.623700
C      -5.075000    -0.711900    -1.607900
C      -5.223800     0.690800    -2.094900
H      -6.116200     0.821900    -2.423500
H      -5.056000     1.299700    -1.372300
H      -4.594600     0.851500    -2.801700
C      -7.290300    -1.461900    -2.564000
H      -7.916200    -2.162500    -2.366400
H      -7.724700    -0.610400    -2.476300
H      -6.966700    -1.564800    -3.461900
C      -6.684300    -3.670900    -0.561000
C      -6.426000    -5.039700    -0.552500
C      -7.212500    -5.870000     0.184900
H      -7.013000    -6.777800     0.212300
C      -8.270400    -5.409000     0.873700
C      -8.573400    -4.057100     0.845100
H      -9.311600    -3.731500     1.307900
C      -7.773700    -3.204200     0.128900
H      -7.972700    -2.296400     0.109900
H      -8.796300    -5.994000     1.367000
H      -5.719300    -5.383600    -1.049000
O      -3.861800    -3.630000    -0.188000
