31
Refcode: UKUMUJ_comp_0 | Dataset: tmCAT | Charge: unknown | Potential Spins: [1, 3, 5]
Mo      1.350800     5.540500     2.067400
Br      3.982200     5.681800     1.658400
N       2.413900     8.494800     2.915500
N       0.939700     8.685100     1.371700
O      -0.742500     6.834000     3.965000
O       2.047700     4.301100     4.821300
C       1.614400     7.748600     2.095800
C       2.244000     9.848700     2.679500
H       2.695100    10.560200     3.118800
C       1.319900     9.964000     1.711000
H       0.992700    10.771300     1.333900
C       3.306000     8.003500     3.964700
H       2.953800     7.163900     4.326600
H       3.365200     8.668900     4.681200
H       4.198200     7.849000     3.589200
C      -0.113000     8.416300     0.394400
H       0.288300     8.083100    -0.434700
H      -0.605400     9.243200     0.209200
H      -0.728500     7.744000     0.753700
C       0.635800     5.158400    -0.199300
H       0.652900     5.827300    -0.942200
C      -0.426200     4.958900     0.717700
H      -1.313700     5.419100     0.691400
C      -0.089600     3.850700     1.546700
H      -0.706700     3.391700     2.185500
C       1.193700     3.387100     1.156300
H       1.653400     2.567100     1.497100
C       1.620700     4.196600     0.069000
H       2.472300     4.080200    -0.442200
C       0.000000     6.342800     3.267600
C       1.833400     4.804400     3.797200
