16
Refcode: ULOHAF_comp_2 | Dataset: tmCAT | Charge: -2 | Potential Spins: [1, 3, 5]
N       1.400500     7.394400     4.341200
O       1.837900     8.446400     4.842200
O       2.235800     6.629400     3.897000
O       0.243300     7.112600     4.363900
N       5.799300     9.967600     6.394700
O       5.364400    10.613400     5.387100
O       5.988400    10.716100     7.402300
O       5.913800     8.704200     6.488400
N       2.977600     9.900500     1.328300
O       3.057500    10.558100     2.462200
O       2.424900    10.688300     0.410100
O       3.273900     8.750200     1.169400
O       5.241200     6.838300     4.677500
Ag      4.016800     8.992300     3.797800
H       4.780100     6.030300     4.330200
H       6.183500     6.842000     4.364400
