99
Refcode: ULOQIW_comp_0 | Dataset: tmCAT | Charge: 1 | Potential Spins: [1, 3, 5]
Au     11.386300    14.652200     9.171800
C      13.010400    14.734200     7.943300
N      14.345700    14.966400     8.297100
C      15.136900    14.880600     7.192000
H      16.082500    14.975300     7.157300
C      14.333800    14.638100     6.179400
H      14.607000    14.570100     5.273200
N      13.031800    14.497700     6.627900
C      14.749600    15.383400     9.647100
C      15.319800    14.411900    10.530200
C      15.768800    14.851100    11.780900
H      16.101500    14.233000    12.419000
C      15.714200    16.193600    12.067600
H      16.044500    16.483400    12.909100
C      15.222400    17.126600    11.226100
H      15.241400    18.040400    11.482700
C      14.690200    16.777700     9.989300
C      15.445700    12.964400    10.121100
H      15.293700    12.965800     9.131600
C      16.631300    12.375900    10.287500
H      16.602800    11.471000     9.915300
H      16.857000    12.344800    11.230700
H      17.317900    12.899300     9.802000
C      14.445500    12.050600    10.657400
H      13.564000    12.287200    10.294400
H      14.433600    12.100900    11.623700
H      14.668800    11.130900    10.373000
C      14.086700    17.780200     9.004500
H      13.354900    17.312900     8.507400
C      15.134500    18.281400     7.943300
H      14.702100    18.915700     7.333000
H      15.474200    17.517000     7.432400
H      15.875800    18.726500     8.401100
C      13.454700    18.994100     9.737300
H      12.808500    18.673200    10.403100
H      12.996200    19.566300     9.087700
H      14.158000    19.507200    10.188100
C      11.862900    14.190100     5.798000
C      11.038400    15.257700     5.324100
C       9.936000    14.973800     4.582000
H       9.361000    15.662800     4.269900
C       9.672300    13.588300     4.281500
H       8.912000    13.378400     3.754400
C      10.461100    12.560700     4.723000
H      10.230600    11.670600     4.482600
C      11.641900    12.779500     5.546000
C      11.456600    16.663800     5.650000
H      12.031600    16.620900     6.466100
C      12.235900    17.388300     4.595900
H      12.475900    18.275500     4.921800
H      11.677500    17.472600     3.789000
H      13.041300    16.879700     4.380900
C      10.311400    17.580600     5.964400
H      10.653500    18.476600     6.165600
H       9.810100    17.237500     6.725000
H       9.717400    17.635300     5.178400
C      12.528100    11.680900     6.050000
H      13.359700    12.102300     6.410600
C      12.946300    10.716900     4.896400
H      13.416700    11.224100     4.200500
H      12.148000    10.299900     4.512600
H      13.540300    10.020500     5.250100
C      11.815400    10.971200     7.222100
H      11.587300    11.630700     7.911000
H      12.409300    10.294000     7.603500
H      10.998000    10.543900     6.893800
C       9.710300    14.582000    10.428500
N       8.408300    14.305500    10.051700
C       7.614800    14.463700    11.207600
H       6.671500    14.363100    11.260800
C       8.455800    14.789000    12.241000
H       8.208700    14.913200    13.149500
N       9.696000    14.901300    11.727800
C       7.949800    14.039300     8.625300
C       8.752800    12.893400     8.003500
H       9.688900    13.174300     7.901700
H       8.379800    12.677500     7.125000
H       8.705300    12.111200     8.586000
C       8.032900    15.288700     7.908700
H       8.971400    15.557800     7.843900
H       7.522100    15.968900     8.387200
H       7.662300    15.166000     7.009400
C       6.469600    13.526200     8.766300
H       5.916000    14.228600     9.166300
H       6.452900    12.732200     9.342000
H       6.117900    13.295600     7.880900
C      10.971900    15.148300    12.615500
C      11.656200    16.446500    12.097600
H      12.456800    16.631300    12.634000
H      11.031300    17.197600    12.173900
H      11.912800    16.329700    11.159100
C      11.908000    14.000900    12.527600
H      11.466100    13.192100    12.862900
H      12.703900    14.185700    13.068600
H      12.174100    13.866300    11.593700
C      10.482500    15.421800    14.028000
H      10.057200    14.616000    14.388600
H       9.831500    16.155200    14.011800
H      11.242800    15.671700    14.594400
