97
Refcode: UMEGIE_comp_0 | Dataset: tmCAT | Charge: unknown | Potential Spins: [1, 3, 5]
Ir      5.644400     2.503200    13.370900
Cl      7.523400     2.346500    14.797700
C       5.109700     0.429400    13.909000
H       5.571900     0.080600    14.725000
C       5.906000     0.461100    12.761600
H       6.832900     0.112800    12.903600
C       5.412100     0.317100    11.338500
H       5.208100    -0.636000    11.163300
H       6.133100     0.590600    10.717700
C       4.160600     1.157600    11.051800
H       4.116600     1.360000    10.082900
H       3.353500     0.637500    11.292600
C       4.172900     2.454500    11.835700
H       4.142900     3.276900    11.269500
C       3.569100     2.602200    13.108100
H       3.189400     3.512900    13.266400
C       2.813600     1.503200    13.813900
H       1.961100     1.339500    13.337700
H       2.595400     1.799700    14.732700
C       3.610600     0.189500    13.885700
H       3.347900    -0.306300    14.701800
H       3.383800    -0.372200    13.102400
C       6.085600     4.461400    13.043900
N       6.951700     4.820900    12.068400
C       7.300800     4.024700    10.927800
C       8.496700     3.327400    10.888800
C       9.504200     3.379200    12.006700
H       9.035600     3.713700    12.824500
C      10.114600     2.009400    12.342800
H       9.392400     1.379100    12.591100
H      10.575000     1.648700    11.543400
C      11.110200     2.121200    13.494400
H      11.523300     1.235500    13.656100
H      10.629700     2.388800    14.317900
C      12.207900     3.143300    13.196300
H      12.791100     3.241800    13.989900
H      12.764500     2.819700    12.444400
C      11.605600     4.501300    12.835700
H      11.130900     4.871500    13.621400
H      12.331100     5.129400    12.591100
C      10.632900     4.371400    11.671300
H      11.120500     4.058100    10.868100
H      10.243200     5.258400    11.466200
C       8.800800     2.605700     9.702600
H       9.611800     2.111800     9.664200
C       7.973900     2.594000     8.619800
H       8.207900     2.084000     7.854500
C       6.769300     3.335900     8.626200
C       5.914500     3.378500     7.496600
H       6.134600     2.873900     6.721900
C       4.770100     4.141000     7.508700
H       4.197400     4.153300     6.750900
C       4.451700     4.902400     8.646300
H       3.667500     5.437200     8.647400
C       5.263300     4.881700     9.759100
H       5.035600     5.412200    10.515100
C       6.432900     4.080800     9.794300
C       7.317500     6.247000    12.109300
H       7.050900     6.709200    11.275200
H       8.290400     6.363400    12.247600
C       6.531900     6.761700    13.294500
H       7.135600     7.099100    14.003400
H       5.911900     7.484500    13.025200
N       5.791200     5.567300    13.749700
C       4.822500     5.717200    14.791500
C       3.513500     6.058800    14.478400
C       3.040900     6.214800    13.049700
H       3.707900     5.753700    12.463700
C       2.993300     7.694700    12.613100
H       2.283600     8.167500    13.115900
H       3.858400     8.129400    12.816800
C       2.711200     7.792900    11.115100
H       2.618200     8.746300    10.866200
H       3.482600     7.424400    10.615400
C       1.454000     7.048100    10.704100
H       1.401400     7.024300     9.716300
H       0.663500     7.541700    11.037900
C       1.412000     5.620100    11.239200
H       2.101600     5.075200    10.781300
H       0.526600     5.220300    11.045600
C       1.662000     5.597600    12.747400
H       1.632500     4.664800    13.077300
H       0.955200     6.112800    13.212300
C       2.627200     6.350800    15.548000
H       1.723000     6.565600    15.352000
C       3.035200     6.332300    16.848800
H       2.420400     6.558300    17.536000
C       4.367400     5.979500    17.187200
C       4.807000     5.904500    18.532600
H       4.197600     6.090800    19.237800
C       6.099300     5.567900    18.828700
H       6.381300     5.522200    19.735500
C       7.013900     5.287500    17.790900
H       7.912900     5.066400    18.001000
C       6.615200     5.331800    16.484900
H       7.238800     5.132300    15.797700
C       5.281700     5.671800    16.143400
