76
Refcode: UMIDOJ_comp_0 | Dataset: tmCAT | Charge: unknown | Potential Spins: [1, 3, 5]
Rh      5.699100     7.355400     5.877400
I       7.985000     8.460800     5.088600
I       3.356800     6.176200     6.301700
O       4.983600     7.885200     3.893900
O       5.911500     5.900000     4.276800
N       4.406200     9.924200     6.429200
N       6.031900     9.741300     7.773700
N       7.331400     5.358400     7.332100
N       6.004000     6.203100     8.721300
C       5.295800     9.027500     6.806600
C       4.510800    11.172300     7.047000
C       3.783500    12.325400     6.862500
H       3.099700    12.413300     6.239100
C       4.193400    13.345800     7.720600
H       3.722400    14.145600     7.698300
C       5.208600    13.247200     8.559200
H       5.431800    13.986000     9.079100
C       5.946400    12.103000     8.696200
H       6.663300    12.036700     9.283200
C       5.543500    11.055800     7.899500
C       7.164000     9.296500     8.550800
C       8.562900     9.764600     8.344000
H       8.781000    10.261300     7.589200
C       9.471700     9.477600     9.213300
H      10.326400     9.807600     9.054000
C       9.311200     8.776500    10.283900
C      10.406700     8.484100    11.005100
H      11.259700     8.731600    10.731200
C      10.207800     7.852900    12.078500
H      10.947400     7.693300    12.620800
C       8.910000     7.349000    12.548100
H       8.826300     6.850400    13.330800
C       7.839000     7.653800    11.771000
H       6.986000     7.415300    12.053300
C       7.994300     8.306600    10.583000
C       6.926700     8.620400     9.755600
C       5.557400     8.175700    10.071500
C       4.748100     8.945000    10.943600
C       5.212100    10.091000    11.497100
H       6.056300    10.428100    11.298600
C       4.388700    10.706100    12.338500
H       4.697500    11.471800    12.768900
C       3.124100    10.288200    12.615200
H       2.578100    10.792100    13.174200
C       2.668800     9.144100    12.081300
H       1.812400     8.837400    12.277000
C       3.459000     8.462600    11.276200
C       3.033400     7.239600    10.683600
H       2.201300     6.902500    10.926800
C       3.766000     6.542000     9.797500
H       3.441600     5.756500     9.417400
C       5.030600     7.038700     9.462100
C       6.670300     5.152200     9.325100
C       6.563900     4.720000    10.655700
H       6.011000     5.119900    11.287400
C       7.415100     3.577700    10.940800
H       7.355800     3.206400    11.790600
C       8.269900     3.012800    10.093800
H       8.801900     2.291900    10.345400
C       8.329200     3.575900     8.771700
H       8.925700     3.251300     8.134300
C       7.471000     4.614200     8.475300
C       6.394700     6.341100     7.418700
C       8.071000     4.928000     6.021100
H       7.425600     4.757700     5.330600
H       8.580400     4.131800     6.186000
H       8.660600     5.631000     5.738800
C       3.396200     9.793300     5.316700
H       3.476400    10.542900     4.721300
H       2.511800     9.775300     5.691200
H       3.556700     8.980900     4.833100
C       5.341100     6.773300     3.438200
C       5.046300     6.335800     2.057300
H       4.270100     5.770900     2.057300
H       5.796400     5.848000     1.710700
H       4.882400     7.105100     1.506700
