101
Refcode: UMUCOV_comp_0 | Dataset: tmCAT | Charge: 0 | Potential Spins: [1, 3, 5]
Zn      4.009800     5.396800     5.361500
N       5.578700     4.691800     4.505400
Si      6.932900     5.739500     4.532700
C       6.487300     7.409300     5.263000
H       5.716900     7.779800     4.784500
H       7.250000     8.017800     5.175600
H       6.262600     7.302300     6.210800
C       8.358300     5.120600     5.575600
H       8.019100     4.808300     6.440200
H       8.997800     5.849700     5.720600
H       8.805300     4.380600     5.113100
C       7.621900     6.065600     2.802500
H       7.888100     5.216700     2.392300
H       8.400600     6.655500     2.866800
H       6.933400     6.492600     2.251500
Si      5.592100     3.056900     4.006200
C       7.302000     2.394800     3.595800
H       7.722400     2.969800     2.922900
H       7.224300     1.483800     3.243600
H       7.851600     2.384800     4.406500
C       4.595000     2.813900     2.435900
H       3.699800     3.192800     2.556500
H       4.521200     1.856500     2.241000
H       5.043900     3.266400     1.690900
C       4.923200     1.925300     5.348300
H       5.594800     1.825400     6.055600
H       4.720200     1.046800     4.963100
H       4.106700     2.313400     5.725800
O       4.288400     5.997000     7.184200
C       3.525300     5.562100     8.191900
C       4.078100     5.114700     9.421600
C       3.190200     4.767300    10.444200
H       3.559100     4.496100    11.276900
C       1.792100     4.792000    10.326700
C       1.287300     5.172700     9.091800
H       0.347000     5.172500     8.955000
C       2.125500     5.555600     8.047300
C       5.602400     4.955100     9.582200
C       5.997600     4.352500    10.940300
H       5.571400     3.475700    11.044900
H       5.702200     4.947800    11.660200
H       6.971100     4.248900    10.981000
C       6.313200     6.314000     9.451900
H       7.282000     6.183200     9.519500
H       6.013300     6.909800    10.170100
H       6.096900     6.714000     8.583500
C       6.119800     3.993000     8.493300
H       5.659600     3.131300     8.573100
H       7.084300     3.860200     8.605700
H       5.944100     4.376400     7.608300
C       0.881200     4.476700    11.526000
C      -0.558200     4.209600    11.096600
H      -0.574300     3.476000    10.447800
H      -0.931900     5.017400    10.686300
H      -1.092800     3.964600    11.880500
C       0.882900     5.686800    12.478900
H       0.463000     6.452100    12.034400
H       1.806400     5.913200    12.717500
H       0.382200     5.463900    13.291100
C       1.377900     3.255300    12.300000
H       0.774900     3.078000    13.052500
H       2.280800     3.427500    12.638000
H       1.395300     2.476300    11.705800
C       1.548500     5.998300     6.734200
H       1.864300     6.915500     6.538000
H       0.562100     6.028600     6.810500
N       1.922900     5.094000     5.585000
C       1.440700     3.717500     5.929800
H       0.507100     3.785500     6.251200
H       1.987700     3.375200     6.680100
C       1.484100     2.707300     4.811300
H       2.270000     2.876900     4.233100
H       1.564400     1.793500     5.184800
O       0.293800     2.815100     4.050300
C       0.252400     1.951700     2.916000
H      -0.481800     1.296100     3.023300
H       1.105100     1.452200     2.847300
C       0.034800     2.748600     1.671100
H      -0.154300     2.141300     0.912600
H      -0.743900     3.349100     1.788700
O       1.191000     3.512300     1.396000
C       0.987500     4.456100     0.359600
H       0.263600     5.083800     0.608800
H       0.727100     3.993600    -0.475800
C       2.267400     5.204900     0.155100
H       3.030400     4.574100     0.133000
H       2.241800     5.694000    -0.705300
O       2.423300     6.124500     1.236300
C       3.767000     6.450600     1.543200
H       4.202200     6.859200     0.753500
H       4.265500     5.629300     1.782100
C       3.793300     7.418500     2.697300
H       4.729800     7.686500     2.872000
H       3.286600     8.232500     2.448300
O       3.231100     6.866200     3.900900
C       1.787900     6.962600     3.969200
H       1.421200     7.239900     3.092400
H       1.521300     7.632500     4.647700
C       1.262100     5.602100     4.346100
H       0.285200     5.656600     4.493800
H       1.425800     4.969100     3.603400
