113
Refcode: UNECUM_comp_0 | Dataset: tmCAT | Charge: 0 | Potential Spins: [1, 3, 5]
Fe      5.859700    10.302300     3.715800
Cl      6.850900     8.226300     3.602200
Cl      4.723400    10.675300     1.773000
N       7.774800    11.390300     3.643200
N       3.953600    10.155800     4.914000
N       6.288100    10.901600     5.681400
C       4.076400    10.226100     6.205700
C       2.126400    12.786300     5.863700
C       5.390900    10.728200     6.674800
C       2.688800     9.937600     4.310000
C       4.587700     6.512000     7.550500
H       5.418100     6.495500     8.012100
C       3.181800    13.303400     6.652000
H       4.018700    13.505200     6.251200
C       1.858000    11.051100     4.034500
C       5.637100    11.128800     7.983600
H       5.000500    10.977800     8.673100
C       1.862300    13.559000     3.445700
C       6.846500    11.758000     8.249500
H       7.042500    12.059900     9.129000
C       3.328700     6.988700     5.521800
C       0.907200    12.548700     6.484900
H       0.183800    12.206400     5.973900
C       8.319300    11.687800     4.752500
C       2.319100     8.647800     3.905400
C       3.019500     9.888300     7.210500
H       2.213800     9.578900     6.745100
H       2.804600    10.684900     7.740500
H       3.346100     9.179800     7.803100
C       7.763600    11.941900     7.231400
H       8.589600    12.378300     7.400400
C       2.170300     6.567300     6.171500
H       1.338200     6.570300     5.713700
C       1.602900    14.366100     1.172000
H       1.673700    14.219600     0.237400
C       2.942300     5.053200     3.356400
H       2.833700     4.784200     4.260600
C       3.301500     7.504400     4.095300
H       4.205500     7.903400     3.941500
C       0.205400     9.549000     3.035400
C       0.962700    15.751600     3.008800
H       0.606500    16.566100     3.345000
C       4.524100     6.951400     6.236000
H       5.323200     7.235400     5.806800
C       1.062600     8.492300     3.269000
H       0.799700     7.624000     2.989800
C       1.999700    13.387100     2.053400
H       2.372300    12.581500     1.717100
C       9.455200    10.868700     1.891900
C       0.637700    10.829900     3.419100
H       0.071700    11.574200     3.246200
C       8.418900    11.671300     2.382000
C       7.873700    12.765400     1.662100
C       9.964400    11.203500     0.615400
H      10.661400    10.677400     0.241200
C       1.352900    14.741200     3.903500
H       1.259100    14.881700     4.838000
C       3.033700     4.504700     1.001000
H       2.982200     3.860600     0.303900
C       9.713200    12.222800     4.952000
H      10.157500    12.311000     4.082000
H      10.222500    11.607100     5.518000
H       9.668000    13.101700     5.385100
C       2.991800    13.515700     8.006400
H       3.711900    13.831000     8.542000
C       2.233800     6.144300     7.493500
H       1.436400     5.878300     7.936100
C       3.435900     6.101000     8.181100
H       3.464000     5.791600     9.077700
C       1.095100    15.570700     1.652600
H       0.842600    16.259800     1.050400
C       3.165100     6.389400     3.035400
C       6.792800    13.641200     2.266100
H       6.279700    13.077700     2.915700
C       2.370900    12.460500     4.399200
H       3.363700    12.432100     4.283400
C      -1.103700     9.363700     2.344000
H      -1.564500    10.226100     2.279400
H      -1.656000     8.734400     2.854900
H      -0.949000     9.006500     1.443600
C       9.476800    12.267700    -0.095000
H       9.851900    12.482900    -0.940300
C       8.438800    13.034400     0.414100
H       8.103900    13.760800    -0.098800
C      10.023500     9.643200     2.598500
H       9.513400     9.523600     3.449500
C       3.333700     6.757100     1.694400
H       3.502000     7.667300     1.477800
C       0.723800    12.798300     7.833500
H      -0.123000    12.638300     8.232400
C       7.380700    14.808500     3.046800
H       8.001800    14.469200     3.724900
H       6.659000    15.306200     3.485600
H       7.860800    15.403300     2.433300
C       3.261400     5.824500     0.691400
H       3.368300     6.090500    -0.214600
C       1.751300    13.272000     8.591400
H       1.621300    13.436500     9.518400
C       5.788900    14.159800     1.217600
H       5.397900    13.400600     0.737000
H       6.254200    14.744200     0.583100
H       5.078600    14.663500     1.665900
C       7.461200    11.484500     5.968200
C      11.509300     9.850900     2.972700
H      11.597200    10.655000     3.527400
H      12.040800     9.958500     2.155900
H      11.831000     9.072200     3.472300
C       2.881600     4.102700     2.313600
H       2.734700     3.186500     2.514900
C       9.845500     8.372700     1.774100
H       8.894400     8.250200     1.565200
H      10.168900     7.603000     2.285100
H      10.354000     8.450500     0.940300
