78
Refcode: UNEGEB_comp_0 | Dataset: tmCAT | Charge: unknown | Potential Spins: [1, 3, 5]
Ru      4.540300     5.877700     3.446200
Cl      2.440400     5.490200     4.597500
Cl      3.394900     6.760700     1.435900
P       4.291600     3.688200     2.741300
P       5.494900     5.254200     5.420200
N       6.279100     6.561000     2.489400
N       4.592300     7.923900     3.981800
C       7.138200     5.862900     1.779000
H       7.009300     4.941100     1.736900
C       8.202600     6.379700     1.100300
H       8.772200     5.823600     0.619700
C       8.409700     7.685200     1.138200
H       9.134200     8.053900     0.685100
C       7.556400     8.498100     1.844400
H       7.684900     9.419900     1.863400
C       6.500100     7.917900     2.529400
C       5.547400     8.649300     3.387300
C       5.645800    10.027300     3.642400
H       6.317700    10.526000     3.239800
C       4.769500    10.619700     4.464500
H       4.861500    11.526300     4.647800
C       3.731700     9.915500     5.050400
H       3.097000    10.332600     5.588000
C       3.692600     8.537400     4.784900
H       3.022600     8.023700     5.176900
C       2.775000     3.170200     1.810700
C       1.660600     3.965000     1.745300
H       1.645000     4.811200     2.131100
C       0.524700     3.436100     1.060300
H      -0.236500     3.968000     0.990700
C       0.505300     2.203100     0.510100
H      -0.255200     1.882800     0.080100
C       1.629500     1.435500     0.602800
H       1.645200     0.589300     0.215000
C       2.734900     1.900900     1.262600
H       3.478700     1.347900     1.346900
C       5.553600     3.000900     1.576700
C       5.529300     3.466300     0.261400
H       4.851600     4.043600    -0.006300
C       6.481800     3.088600    -0.636600
H       6.457900     3.415000    -1.507100
C       7.484600     2.218200    -0.246600
H       8.124100     1.940200    -0.862100
C       7.532400     1.786100     1.003300
H       8.229300     1.224000     1.260500
C       6.583000     2.136600     1.930800
H       6.629100     1.798100     2.795000
C       4.164600     2.411600     4.038700
H       3.257000     2.429800     4.382300
H       4.289400     1.547300     3.612900
C       5.132900     2.481100     5.257000
H       5.024200     1.683300     5.796600
H       6.047600     2.502300     4.934500
C       5.193200     6.446100     6.766300
C       4.212500     6.225500     7.763300
H       3.702300     5.448800     7.752700
C       4.015000     7.177500     8.754000
H       3.382500     7.026400     9.417900
C       4.724400     8.310800     8.764500
H       4.557000     8.948400     9.420100
C       5.699900     8.549500     7.820200
H       6.227200     9.314100     7.862300
C       5.872600     7.627800     6.814700
H       6.481100     7.815200     6.138100
C       7.284500     4.971400     5.588000
C       7.963200     5.222200     6.800000
H       7.519300     5.590900     7.531400
C       9.354200     4.895800     6.871600
H       9.809100     5.037800     7.670500
C      10.024100     4.391100     5.819800
H      10.934800     4.209800     5.887300
C       9.360700     4.143300     4.662600
H       9.822800     3.798800     3.933300
C       7.995500     4.406200     4.550900
H       7.554000     4.191700     3.760400
C       4.887800     3.683900     6.106500
H       5.310800     3.541900     6.968600
H       3.933000     3.762500     6.260400
