53
Refcode: UNEHIE_comp_0 | Dataset: tmCAT | Charge: unknown | Potential Spins: [1, 3, 5]
Os      3.725200     3.185300     6.638800
O       3.156800     4.585000     7.483100
O       3.793800     3.174200     4.917800
N       5.284700     2.465900     7.406300
C       5.242200     1.080700     7.884100
H       5.813100     0.983300     8.699500
C       3.785500     0.746900     8.223800
H       3.608900    -0.206100     7.980600
N       2.952900     1.627900     7.357600
C       6.601700     3.174000     7.475400
C       6.577000     4.383600     6.538400
H       6.431900     4.081300     5.617100
H       7.432700     4.858400     6.593800
H       5.851400     4.986700     6.802600
C       6.837100     3.635400     8.904200
H       6.856300     2.858300     9.499200
H       6.112900     4.237000     9.175600
H       7.692800     4.108800     8.957300
C       7.740700     2.256700     7.043500
H       7.586000     1.955900     6.123300
H       7.777700     1.479500     7.640000
H       8.589500     2.745300     7.088700
C       5.709000     0.107500     6.803800
O       5.439300     0.189200     5.636700
O       6.422000    -0.889500     7.348900
C       6.842600    -1.920800     6.416300
H       7.354600    -2.604800     6.894800
H       7.403900    -1.520700     5.718700
H       6.054000    -2.330000     6.004800
C       3.499300     0.936000     9.713600
C       3.240600    -0.174100    10.515400
H       3.218700    -1.041300    10.125900
C       3.013300    -0.026000    11.874600
H       2.821700    -0.786300    12.410300
C       3.068100     1.223000    12.449300
H       2.912000     1.323800    13.381300
C       3.347400     2.328400    11.674900
H       3.406200     3.186500    12.079100
C       3.544500     2.194100    10.309100
H       3.710200     2.963600     9.777700
C       1.611400     1.110000     6.919700
C       1.849600     0.126700     5.759400
H       2.406800    -0.616800     6.070600
H       2.304100     0.590900     5.026200
H       0.988500    -0.219900     5.442100
C       0.742000     2.259700     6.450200
H       1.192500     2.731500     5.718700
H       0.591400     2.879600     7.194000
H      -0.117700     1.913100     6.134600
C       0.894000     0.392400     8.067800
H       1.441600    -0.358800     8.377700
H       0.028800     0.056500     7.752900
H       0.751600     1.019900     8.806700
