59
Refcode: UNEJAY_comp_0 | Dataset: tmCAT | Charge: unknown | Potential Spins: [1, 3, 5]
Os      2.495400     6.794600     7.648800
O       1.175300     7.853700     7.369100
O       3.325000     6.828500     9.149400
N       3.686200     6.764300     6.193900
C       4.458700     7.952500     5.753700
C       4.779200     8.818100     6.925900
H       3.952500     9.045200     7.400900
H       5.214700     9.639700     6.617400
H       5.382100     8.337600     7.532500
C       3.540200     8.789300     4.862800
H       2.724200     9.015700     5.355900
H       3.305600     8.275900     4.061200
H       4.002400     9.612700     4.599600
C       5.654200     7.607100     4.986800
H       5.402200     7.048900     4.221500
H       6.279500     7.113100     5.558600
H       6.085100     8.426200     4.664700
C       3.914100     5.495000     5.486000
H       4.040900     5.654600     4.507400
C       5.121700     4.767100     6.077400
O       5.358400     4.852400     7.263200
C       5.958000     3.875300     5.192600
C       7.066300     3.252100     5.767300
H       7.270900     3.401600     6.682400
C       7.868600     2.414400     5.008000
H       8.634400     2.004800     5.395200
C       7.547000     2.179600     3.681500
H       8.086600     1.591000     3.165700
C       6.452700     2.787600     3.097700
H       6.240000     2.612800     2.188600
C       5.663300     3.659100     3.844900
H       4.927400     4.104200     3.439500
C       2.667000     4.626900     5.737100
H       2.962100     3.676000     5.829300
C       1.693800     4.714700     4.572400
C       0.702000     5.677400     4.496800
H       0.611700     6.315000     5.195600
C      -0.161900     5.723900     3.418300
H      -0.835500     6.392700     3.386600
C      -0.056400     4.810200     2.383800
H      -0.660500     4.836300     1.651700
C       0.951400     3.853400     2.439700
H       1.057200     3.236000     1.724300
C       1.794300     3.796800     3.527200
H       2.459600     3.119500     3.565100
N       2.117300     5.060100     7.013700
C       1.382400     4.033200     7.856100
C       2.429300     3.232700     8.607900
H       2.963900     3.836500     9.164500
H       3.013600     2.776700     7.966600
H       1.987500     2.568100     9.176600
C       0.519800     3.133000     6.977400
H      -0.148000     3.676000     6.510000
H       0.067300     2.466700     7.537000
H       1.087500     2.677000     6.320900
C       0.471200     4.749400     8.848400
H      -0.206500     5.259400     8.358300
H       1.003400     5.359100     9.398900
H       0.031800     4.089000     9.423100
