66
Refcode: UNIVOE_comp_0 | Dataset: tmCAT;tmPHOTO | Charge: unknown | Potential Spins: [1, 3, 5]
Pt      6.741900    11.593500    10.329900
I       6.741900    12.947500     8.030000
N       6.741900     8.257900    13.012700
N       6.741900    10.257400    14.426100
B       6.741900     8.701600    14.485400
F       5.612000     8.262300    15.148000
C       6.741900    10.489500    11.989200
C       6.741900     9.081100    11.877600
C       6.741900     8.234600    10.754800
H       6.741900     8.508900     9.844300
C       6.741900     6.921000    11.216300
H       6.741900     6.138700    10.677700
C       6.741900     6.958900    12.609100
H       6.741900     6.201500    13.182200
C       6.741900    11.061600    13.270300
C       6.741900    12.402900    13.705600
H       6.741900    13.166200    13.139500
C       6.741900    12.427700    15.079100
H       6.741900    13.198300    15.634300
C       6.741900    11.076200    15.499300
H       6.741900    10.788700    16.405700
P       4.422700    11.672600    10.315400
C       3.635200    10.819300    11.732900
H       3.952100     9.882300    11.745300
H       3.950800    11.248400    12.567800
C       2.096700    10.809100    11.749500
H       1.781200    10.466100    12.613200
H       1.765000    10.232600    11.029000
H       1.761000    11.719900    11.618600
C       3.639300    10.974100     8.831700
H       2.656300    11.000300     8.946100
H       3.867200    11.541800     8.053400
C       4.235300    14.209800    11.538700
H       5.207400    14.330900    11.493200
H       4.003300    13.745700    12.370800
H       3.797000    15.085500    11.520800
C       4.065400     9.524800     8.530000
H       3.519300     9.168600     7.798500
H       3.940000     8.973100     9.330400
H       5.010600     9.510200     8.268300
C       3.764700    13.376400    10.338800
H       4.039700    13.836200     9.505400
H       2.775000    13.337000    10.347100
F       7.871800     8.262300    15.148000
P       9.061100    11.672600    10.315400
C       9.848600    10.819300    11.732900
H       9.531700     9.882300    11.745300
H       9.533000    11.248400    12.567800
C      11.387100    10.809100    11.749500
H      11.702600    10.466100    12.613200
H      11.718800    10.232600    11.029000
H      11.722800    11.719900    11.618600
C       9.844500    10.974100     8.831700
H      10.827500    11.000300     8.946100
H       9.616600    11.541800     8.053400
C       9.248500    14.209800    11.538700
H       8.276400    14.330900    11.493200
H       9.480500    13.745700    12.370800
H       9.686800    15.085500    11.520800
C       9.418400     9.524800     8.530000
H       9.964500     9.168600     7.798500
H       9.543800     8.973100     9.330400
H       8.473200     9.510200     8.268300
C       9.719100    13.376400    10.338800
H       9.444100    13.836200     9.505400
H      10.708800    13.337000    10.347100
