49
Refcode: UQUSIJ_comp_0 | Dataset: tmCAT | Charge: 0 | Potential Spins: [1, 3, 5]
Pd      3.945400     8.716400    10.793500
Cl      5.109100    10.092000     9.232700
Cl      4.508300    10.124600    12.499500
P       3.058700     7.236100    12.188400
C       1.299200     6.909900    11.889500
C       0.821400     5.620400    11.671000
H       1.423100     4.885600    11.655900
C      -0.538600     5.412800    11.474700
H      -0.866400     4.533200    11.328800
C      -1.415300     6.481800    11.491000
H      -2.342500     6.334500    11.345400
C      -0.951000     7.766000    11.718600
H      -1.558500     8.495600    11.740100
C       0.407100     7.984600    11.915500
H       0.728400     8.865000    12.068600
C       3.239500     7.400200    13.983100
C       2.125100     7.286800    14.814000
H       1.265000     7.138100    14.438400
C       2.275400     7.393400    16.193500
H       1.516200     7.319700    16.761300
C       3.526900     7.607600    16.736800
H       3.625700     7.677600    17.679200
C       4.642500     7.720700    15.916200
H       5.500300     7.862200    16.299000
C       4.503900     7.625900    14.542100
H       5.264400     7.715500    13.980200
C       3.929100     5.704500    11.731000
C       4.464400     4.850400    12.693800
H       4.372300     5.063100    13.615800
C       5.128900     3.694100    12.319900
H       5.508700     3.133900    12.986500
C       5.243800     3.346900    10.984200
H       5.689600     2.546800    10.732600
C       4.699000     4.183200    10.016500
H       4.763100     3.942300     9.099800
C       4.058200     5.374000    10.374400
C       3.500400     6.181600     9.275300
H       3.234800     5.715200     8.491100
N       3.341700     7.439200     9.277000
C       2.694900     8.126900     8.111900
H       3.356100     8.780300     7.745800
C       2.294100     7.202800     6.978400
H       3.088200     6.741800     6.636100
H       1.885500     7.726800     6.257900
H       1.649400     6.542600     7.308200
C       1.505900     8.922400     8.626800
H       0.853900     8.311800     9.029400
H       1.087300     9.403100     7.882400
H       1.810900     9.565500     9.301300
