49
Refcode: URONUL_comp_0 | Dataset: tmCAT | Charge: unknown | Potential Spins: [1, 3, 5]
Zn      1.096300     9.296700     1.574700
O      -2.545200    10.251400     3.256000
N      -0.402800    10.107000     2.558400
C      -1.304600     7.971200     0.696200
O      -1.928800     7.123700    -0.167200
N       0.014600     7.997300     0.577700
C      -2.118900     8.664900     1.581900
H      -3.046500     8.460400     1.602100
C      -1.635400     9.647600     2.441800
C      -1.789200    11.081300     4.171000
H      -1.677300    10.631300     5.045500
H      -2.238800    11.952000     4.311300
C      -0.432700    11.270100     3.472700
H       0.299600    11.175900     4.147100
C      -0.930300     6.751100    -1.147300
H      -1.003000     7.314300    -1.958600
H      -1.027200     5.800800    -1.407400
C       0.407000     6.990800    -0.431600
H       1.052700     7.405300    -1.074300
C       3.019800     9.635700     1.637300
H       3.435800     9.311800     0.811600
H       3.409200     9.167500     2.404300
H       3.178700    10.598600     1.726400
C      -0.287300    12.634200     2.751000
C      -1.467400    12.890100     1.802400
H      -1.355900    13.762700     1.372200
H      -2.304300    12.881000     2.312800
H      -1.494200    12.188500     1.118900
C      -0.216700    13.721000     3.831900
H      -0.211000    14.604400     3.408200
H       0.602800    13.606300     4.358200
H      -0.995700    13.646300     4.421600
C       1.018900    12.678900     1.946000
H       1.155800    13.584500     1.595000
H       0.965400    12.045400     1.201000
H       1.769500    12.435900     2.526300
C       1.044000     5.713300     0.177600
C       2.293900     6.086800     0.983300
H       2.756700     5.270800     1.264300
H       2.031400     6.602400     1.773300
H       2.892500     6.626700     0.426900
C       1.466500     4.785900    -0.968300
H       1.873800     3.974300    -0.598100
H       2.116300     5.246500    -1.538700
H       0.679200     4.544300    -1.498900
C       0.062300     4.988900     1.101500
H       0.504500     4.212000     1.503600
H      -0.714300     4.692300     0.584100
H      -0.230400     5.599500     1.808500
