67
Refcode: USAPIO_comp_0 | Dataset: tmCAT | Charge: unknown | Potential Spins: [1, 3, 5]
C       0.218600    -1.378200     6.988900
H      -0.441600    -0.986100     7.565900
H       0.434700    -2.259000     7.303800
H      -0.128300    -1.431700     6.095900
C       2.046200    -0.347100     8.407800
H       2.827800     0.208100     8.366400
H       2.281200    -1.206300     8.763100
H       1.389400     0.065600     8.975600
C       1.467700    -0.520700     6.994900
H       2.142600    -0.992200     6.464300
C       1.208600     0.810000     6.307400
H       0.807400     0.633800     5.430000
C       0.303000     1.800400     7.071800
H      -0.447600     2.073300     6.521000
H      -0.037000     1.396300     7.884700
C       2.319000     2.711500     6.724300
C       3.358100     3.717500     6.641400
C       3.444100     4.951400     7.273700
H       2.795100     5.225200     7.881100
C       4.526200     5.761400     6.970500
H       4.598500     6.599900     7.364000
C       5.493800     5.337400     6.090600
H       6.217700     5.885800     5.890500
C       5.381800     4.075000     5.498400
C       6.255600     3.380700     4.567500
C       8.056400     2.923000     3.393300
H       8.832900     2.575900     3.860900
H       8.342200     3.288300     2.543200
C       6.998500     1.805600     3.185700
H       7.372900     0.955900     3.499600
C       6.583600     1.650200     1.707300
H       7.430600     1.560400     1.222000
C       5.967200     2.953200     1.168900
H       5.860500     2.886700     0.216100
H       6.547400     3.690700     1.374300
H       5.110700     3.095700     1.576200
C       5.863900     0.480100     1.381400
H       6.269400    -0.275500     1.813500
H       5.877700     0.350600     0.428600
H       4.955700     0.569900     1.678900
C       3.964900    -0.332500     4.223900
C       3.247000    -2.612100     3.233600
H       3.775600    -3.361700     3.577500
C       1.816300    -2.793500     3.673100
H       1.767300    -2.713200     4.640100
H       1.520200    -3.685500     3.432300
C       0.886600    -1.768500     3.035600
H      -0.029300    -1.962800     3.290600
H       1.107900    -0.883400     3.365000
C       1.012300    -1.793500     1.537300
H       0.699000    -2.649300     1.200800
H       0.450200    -1.101000     1.154700
C       2.429200    -1.579400     1.100200
H       2.705600    -0.682200     1.346000
H       2.480900    -1.654500     0.134600
C       3.377900    -2.583700     1.731000
H       3.190200    -3.467000     1.377900
H       4.290300    -2.354800     1.494800
N       2.428400     1.590600     6.110800
N       4.306700     3.309900     5.777100
N       5.925000     2.216700     4.107000
N       3.766100    -1.379000     3.804900
O       1.162100     2.943700     7.381000
O       7.391900     3.939400     4.190600
Cl      5.478100     0.657400     6.799700
Cl      2.851100     2.289500     3.117000
Ru      4.159700     1.467100     4.958400
