69
Refcode: USEKIN_comp_0 | Dataset: tmCAT | Charge: unknown | Potential Spins: [1, 3, 5]
Ti     -5.199800     0.212200    13.656900
S      -8.495400    -1.256200    13.506000
C      -6.866200     0.520800    11.854300
C      -5.612100     0.303100    11.240800
C      -5.113700    -0.982300    11.609200
C      -6.129200    -1.607600    12.396100
C      -6.408900    -3.054100    13.015900
H      -5.891900    -3.826600    12.998600
C      -7.737200    -2.802400    13.629300
C      -7.167800    -0.653100    12.578100
C      -7.739800     1.728700    11.707800
C      -4.920400     1.262700    10.306200
C      -3.842200    -1.605900    11.115900
C      -8.446900    -3.871000    14.406700
C      -3.373400    -3.264900    15.844600
C      -5.126500    -1.418600    17.624100
C      -2.312900    -0.474600    16.671000
C      -1.243900    -0.719300    15.602900
C      -2.640500     1.032000    16.595900
C      -1.746100    -0.776800    18.068800
C      -5.277600     0.034800    18.121300
C      -4.773900    -2.311300    18.828900
C      -6.501000    -1.834000    17.051200
C      -2.307000    -3.844000    16.792000
C      -4.596900    -4.198400    15.886600
C      -2.863200    -3.321500    14.392700
Cl     -6.569300     1.626900    14.866800
Cl     -3.469000     1.640100    13.137100
N      -4.503200    -0.811600    14.924900
P      -3.855000    -1.485400    16.237000
H      -8.355300     1.863600    12.487200
H      -7.197800     2.577700    11.611500
H      -8.365700     1.645900    10.928500
H      -5.228300     1.750400     9.544900
H      -4.016300     1.323700    10.245500
H      -5.175200     0.688000     9.264700
H      -3.033600    -1.114700    11.313800
H      -3.811400    -1.733000    10.210400
H      -3.621200    -2.194600    11.594000
H      -8.505400    -3.701200    15.324400
H      -7.606600    -4.946500    14.448700
H      -9.220500    -4.145300    13.958300
H      -0.901300    -1.637200    15.639600
H      -1.560200    -0.531200    14.658900
H      -0.573500    -0.130600    15.797300
H      -3.018100     1.315000    15.709700
H      -1.844000     1.550100    16.655400
H      -3.040200     1.341100    17.303400
H      -0.900800    -0.191600    18.091600
H      -2.248200    -0.618300    18.809600
H      -1.523200    -1.619800    18.214100
H      -5.511100     0.644400    17.513600
H      -4.551200     0.278700    18.634500
H      -5.926300     0.069700    18.862200
H      -4.052100    -2.011700    19.229900
H      -5.358200    -2.194600    19.457600
H      -4.798300    -3.152500    18.687000
H      -6.743100    -1.288900    16.305200
H      -7.110300    -1.654600    17.741300
H      -6.792300    -2.734500    16.655400
H      -1.340300    -3.387600    16.567900
H      -2.570100    -3.727300    17.688700
H      -2.100900    -4.833300    16.532800
H      -4.916700    -4.293300    16.743000
H      -4.309800    -5.103200    15.429500
H      -5.338600    -3.962400    15.376900
H      -2.750700    -4.284600    14.186000
H      -3.466100    -2.934800    13.730700
H      -2.039800    -2.778000    14.256100
