102
Refcode: USIBEE_comp_0 | Dataset: tmCAT | Charge: unknown | Potential Spins: [1, 3, 5]
Ni      7.847600     0.696900     4.787500
O       4.587400     1.820300     4.419000
O       4.185100    -0.050800     5.588200
O       8.260100     1.748100     7.850900
O       8.604800     3.637800     6.696200
N       7.761800    -2.125800     5.859100
C       7.847600    -1.269200     4.787500
C       7.802400    -3.450200     5.453700
H       7.771400    -4.214400     6.016900
C       7.668100    -1.827400     7.275500
C       6.497400    -2.205300     7.958200
C       6.457200    -1.992500     9.336200
H       5.673100    -2.221000     9.820100
C       7.536300    -1.455800    10.007400
H       7.489400    -1.319600    10.946100
C       8.681000    -1.115900     9.320100
H       9.416600    -0.746700     9.795200
C       8.785400    -1.301400     7.941900
C      10.078100    -0.979700     7.214400
H       9.843800    -0.475100     6.382700
C      10.803800    -2.264100     6.793600
H      11.645100    -2.033300     6.348200
H      10.237300    -2.773000     6.175900
H      10.991500    -2.807900     7.587200
C      11.025400    -0.110500     8.035700
H      10.540200     0.668800     8.378100
H      11.766200     0.189700     7.470400
H      11.379600    -0.631900     8.786000
C       5.306300    -2.886100     7.303400
H       5.385700    -2.779000     6.311800
C       3.969900    -2.285700     7.753800
H       4.012400    -1.308600     7.686800
H       3.792800    -2.542400     8.682600
H       3.251300    -2.622300     7.179300
C       5.312100    -4.388100     7.635100
H       6.180100    -4.773400     7.391900
H       4.603200    -4.837300     7.129500
H       5.158600    -4.510900     8.594500
C       2.846900    -0.087400     5.052900
H       2.438900    -0.956300     5.250900
H       2.878700     0.044900     4.082800
H       2.312900     0.624900     5.461600
C       4.943300     0.994000     5.224500
C       6.223100     0.997800     5.956600
H       6.225000     0.536000     6.844200
C       7.011900     2.156900     5.856800
H       6.627600     2.932700     5.356200
C       7.999700     2.451300     6.908500
C       9.659600     3.955300     7.625500
H      10.009500     4.849300     7.430200
H      10.380800     3.296100     7.539300
H       9.307400     3.935900     8.539000
O      11.107800     1.820300     5.155900
O      11.510100    -0.050800     3.986800
O       7.435100     1.748100     1.724100
O       7.090400     3.637800     2.878800
N       7.933400    -2.125800     3.715900
C       7.892800    -3.450200     4.121300
H       7.923800    -4.214400     3.558100
C       8.027100    -1.827400     2.299500
C       9.197800    -2.205300     1.616800
C       9.238000    -1.992500     0.238800
H      10.022100    -2.221000    -0.245100
C       8.158900    -1.455800    -0.432400
H       8.205800    -1.319600    -1.371100
C       7.014200    -1.115900     0.254900
H       6.278600    -0.746700    -0.220200
C       6.909700    -1.301400     1.633100
C       5.617100    -0.979700     2.360600
H       5.851400    -0.475100     3.192300
C       4.891400    -2.264100     2.781300
H       4.050100    -2.033300     3.226800
H       5.457900    -2.773000     3.399100
H       4.703700    -2.807900     1.987800
C       4.669800    -0.110500     1.539300
H       5.155000     0.668800     1.196900
H       3.929000     0.189700     2.104600
H       4.315600    -0.631900     0.789000
C      10.388900    -2.886100     2.271600
H      10.309500    -2.779000     3.263200
C      11.725300    -2.285700     1.821200
H      11.682800    -1.308600     1.888200
H      11.902400    -2.542400     0.892400
H      12.443900    -2.622300     2.395700
C      10.383100    -4.388100     1.939900
H       9.515100    -4.773400     2.183100
H      11.092000    -4.837300     2.445500
H      10.536600    -4.510900     0.980500
C      12.848300    -0.087400     4.522100
H      13.256200    -0.956300     4.324100
H      12.816500     0.044900     5.492200
H      13.382300     0.624900     4.113400
C      10.751900     0.994000     4.350500
C       9.472100     0.997800     3.618400
H       9.470200     0.536000     2.730800
C       8.683200     2.156900     3.718200
H       9.067600     2.932700     4.218700
C       7.695500     2.451300     2.666400
C       6.035600     3.955300     1.949500
H       5.685700     4.849300     2.144800
H       5.314300     3.296100     2.035600
H       6.387800     3.935900     1.036000
