38
Refcode: USONIB_comp_0 | Dataset: tmCAT | Charge: -1 | Potential Spins: [1, 3, 5]
Ni     16.183000     4.731000     8.663800
C      14.571900     6.380200    10.134000
C      13.490900     7.167900    10.608800
H      12.696100     7.251000    10.097400
C      13.611600     7.812700    11.828200
H      12.887200     8.330300    12.158700
C      14.777600     7.714000    12.576100
H      14.846400     8.166700    13.407600
C      15.838500     6.958400    12.111700
H      16.637800     6.890900    12.623100
C      15.727700     6.287600    10.875000
C      17.954400     5.278300    10.701000
C      18.636200     4.350400     9.723500
C      20.692800     4.160800    11.042000
H      20.228500     3.821500    11.849100
H      20.866600     5.128600    11.156800
C      21.974700     3.416400    10.814100
H      21.776400     2.479900    10.605400
H      22.526200     3.459700    11.622900
H      22.459300     3.822400    10.066100
C      18.552200     3.033900     7.740500
H      19.464800     2.820900     8.027500
H      18.577200     3.451900     6.855100
H      18.023300     2.209800     7.698800
C      15.815400     3.151600     6.082800
H      15.082300     2.902300     5.481000
H      16.162800     2.348300     6.522900
H      16.531100     3.576600     5.564500
C      14.112600     4.578900     6.903800
C      13.639700     5.513700     8.025800
N      14.609800     5.641000     8.939000
N      16.712200     5.481700    10.266200
N      17.942700     3.954800     8.697900
N      15.321400     4.088100     7.093400
O      18.514400     5.712800    11.716700
O      19.891600     3.918500     9.845000
O      13.336000     4.372000     5.930400
O      12.507200     6.006300     8.044000
