77
Refcode: USUTOS_comp_0 | Dataset: tmCAT | Charge: unknown | Potential Spins: [1, 3, 5]
Ru      7.159200     7.071200    12.285100
Cl      8.989100     8.174700    11.226600
Cl      6.014500     5.577400    13.700300
O       7.454800     8.449300    14.111400
N       6.133300     5.673300     9.756600
N       7.966800     4.783700    10.913300
C       7.016600     5.741500    10.782200
C       6.061100     4.661600     8.677400
H       6.889500     4.667300     8.173700
H       5.320800     4.871300     8.086100
H       5.925100     3.783600     9.066100
C       8.906700     4.857900    12.051600
H       8.971000     5.776100    12.358800
H       9.782100     4.549000    11.769100
H       8.583400     4.297700    12.774900
C       5.125300     6.693800     9.585000
C       3.844000     6.487300    10.115600
C       2.871800     7.467700     9.904800
H       2.012300     7.348100    10.266900
C       3.146400     8.618100     9.171700
C       4.417600     8.770500     8.625500
H       4.604100     9.537500     8.114800
C       5.424900     7.822700     8.811700
C       3.516300     5.251300    10.915700
H       2.606900     5.313100    11.248300
H       4.129200     5.177600    11.662900
H       3.600800     4.467500    10.350200
C       2.073700     9.663300     8.965200
H       2.293900    10.458300     9.475000
H       1.219300     9.313500     9.264100
H       2.018300     9.887800     8.023000
C       6.795700     8.023500     8.212100
H       7.455100     8.073900     8.922600
H       6.807800     8.847800     7.701600
H       7.005100     7.278700     7.627000
C       8.170600     3.563500    10.142400
C       9.068100     3.582300     9.073700
C       9.251700     2.397700     8.354200
H       9.834200     2.396200     7.617000
C       8.597100     1.225000     8.698900
C       7.747900     1.240700     9.799200
H       7.315300     0.444500    10.050300
C       7.514900     2.399000    10.545600
C       9.782300     4.848900     8.656600
H       9.349200     5.613600     9.064600
H       9.749500     4.935500     7.691600
H      10.707600     4.808600     8.945600
C       8.802400    -0.042500     7.895300
H       9.525600    -0.559200     8.284100
H       9.025900     0.187200     6.980000
H       7.987100    -0.568200     7.906800
C       6.540600     2.387300    11.703700
H       5.906200     1.663400    11.585500
H       6.064800     3.231500    11.734700
H       7.026700     2.259800    12.533800
C       6.622600     9.537800    14.018600
C       5.778700     9.491200    12.896700
C       4.874500    10.538600    12.691500
H       4.303900    10.521100    11.944100
C       4.810300    11.600200    13.576600
H       4.198900    12.299800    13.434800
C       5.657800    11.622400    14.675200
H       5.612500    12.345200    15.274200
C       6.570600    10.603300    14.912600
H       7.140000    10.632000    15.660100
C       5.866800     8.348500    12.011600
C       8.147600     8.201000    15.395100
H       8.668700     9.003600    15.648600
C       7.134500     7.892000    16.483800
H       6.549100     8.655800    16.607000
H       7.599100     7.704000    17.314300
H       6.607700     7.119600    16.225400
C       9.087900     7.043700    15.165100
H       8.575500     6.227700    15.053200
H       9.680700     6.951500    15.928400
H       9.613200     7.207800    14.366000
H       5.239800     8.349500    11.338700
