48
Refcode: UVOVOS_comp_0 | Dataset: tmCAT | Charge: 0 | Potential Spins: [1, 3, 5]
Mo      2.609500     0.547900     5.150500
O       1.598000     0.924000     6.455100
O       4.225300     0.801100     5.673600
O       2.612700    -1.380500     5.349700
O       2.277300     2.167200     4.135000
O       0.601500     1.418800    -0.085000
N       3.442700    -0.091000     3.046300
N       0.859100    -0.118100     3.805300
H       0.106900     0.325600     4.062400
C       4.730800    -0.360700     2.775000
H       5.363900    -0.245800     3.447000
C       5.141500    -0.796400     1.552500
H       6.039500    -0.986300     1.404700
C       4.239800    -0.952800     0.544500
H       4.508400    -1.241600    -0.297500
C       2.926200    -0.675100     0.805600
H       2.285800    -0.785200     0.141700
C       2.558000    -0.229800     2.050400
C       1.158100     0.233000     2.380300
H       0.520100    -0.223400     1.793400
C       0.655000    -1.544800     4.015800
C       1.633200    -2.152900     4.797100
C       1.568800    -3.526900     4.999500
H       2.221400    -3.957800     5.501500
C       0.533500    -4.240300     4.451000
H       0.508000    -5.162700     4.566400
C      -0.463000    -3.627500     3.734500
H      -1.181200    -4.122200     3.412600
C      -0.388900    -2.267800     3.497600
H      -1.043900    -1.844900     2.989600
C       1.759600     4.071100     2.860100
H       1.458200     4.318500     1.983600
H       2.679500     4.324900     2.967300
H       1.226100     4.521200     3.519900
C       1.624700     2.587000     3.036100
C       1.032900     1.730000     2.190100
C       0.429000     2.116200     0.908800
C      -0.476400     3.268400     0.787400
C      -1.344000     3.597200     1.801400
H      -1.306300     3.116800     2.596900
C      -2.283400     4.632900     1.680000
H      -2.842400     4.842000     2.392500
C      -2.370900     5.322300     0.524200
H      -2.987000     6.013400     0.429100
C      -1.506800     4.976000    -0.544500
H      -1.564000     5.440400    -1.348100
C      -0.568700     3.943500    -0.408900
H      -0.015800     3.715300    -1.121400
