100
Refcode: UWOPED_comp_0 | Dataset: tmCAT | Charge: 0 | Potential Spins: [1, 3, 5]
Mo     19.861900     0.192600     4.746600
N      18.253600    -1.232800     5.771200
O      19.063100     1.642600     5.130600
C      20.033200     0.286200     7.697100
O      21.298400     0.597500     3.934400
N      20.642700    -2.124500     4.425100
C      20.815600     0.950100     8.667600
O      20.592400    -0.079000     6.520800
C      20.187700     1.279700     9.868900
H      20.690600     1.723800    10.509300
O      18.746600    -0.225500     3.190000
C      18.856600     0.989000    10.176700
O      22.835900    -3.631900     3.244100
C      18.130600     0.321600     9.188800
H      17.251400     0.072100     9.367500
C      18.676300     0.014900     7.947800
C      17.673600    -0.516200     6.920200
H      17.061500    -1.113700     7.371900
H      17.157200     0.231200     6.582600
C      17.087300    -1.618500     4.874900
H      16.365000    -1.955000     5.428400
H      17.368700    -2.337400     4.286600
C      16.560800    -0.456700     4.021000
C      15.197000    -0.139600     4.008600
H      14.629900    -0.510500     4.644100
C      14.699600     0.714300     3.065400
C      15.593000     1.232800     2.134600
H      15.247000     1.783300     1.469400
C      16.959700     0.989000     2.122200
C      17.432300     0.124800     3.115100
C      18.923600    -2.478100     6.183000
H      18.256300    -3.108800     6.498200
H      19.523700    -2.288100     6.920200
C      19.706300    -3.105400     5.046200
H      20.210400    -3.863200     5.381300
H      19.089300    -3.430500     4.371000
C      22.012900    -2.249200     5.046200
H      22.552200    -1.489200     4.775600
H      21.927700    -2.225200     6.011700
C      22.716700    -3.511800     4.649000
H      23.603700    -3.523200     5.046200
H      22.225200    -4.274100     4.994000
C      21.546500    -3.635400     2.653400
H      21.041100    -4.397700     2.981000
H      21.630500    -3.721200     1.690300
C      20.807200    -2.371700     2.978600
H      21.282000    -1.623100     2.586400
H      19.929600    -2.409500     2.566500
C      18.253100     1.387300    11.517100
C      18.309300     2.936000    11.608900
H      19.209700     3.232500    11.467400
H      18.010800     3.216400    12.477700
H      17.737100     3.316000    10.936300
C      19.092500     0.812700    12.656400
H      19.237200    -0.124800    12.507400
H      18.631200     0.936300    13.490400
H      19.938500     1.264800    12.691100
C      16.800000     0.926000    11.668500
H      16.265700     1.332400    10.983400
H      16.471300     1.185800    12.532300
H      16.759300    -0.028600    11.584100
C      22.274300     1.347200     8.394600
C      22.886800     2.121000     9.588500
H      22.361400     2.905100     9.767200
H      23.786900     2.378600     9.375000
H      22.891200     1.556700    10.365400
C      22.357100     2.264100     7.156000
H      22.127500     1.763900     6.369100
H      23.253100     2.601800     7.066600
H      21.747200     2.999000     7.257700
C      23.150300     0.091600     8.168700
H      23.122800    -0.464700     8.950600
H      24.056300     0.360600     8.002400
H      22.819900    -0.399500     7.414100
C      13.211400     1.078300     2.968600
C      12.635600     0.562000     1.638200
H      12.948700     1.113700     0.918400
H      11.675900     0.595200     1.670500
H      12.920200    -0.343400     1.496700
C      12.383600     0.375400     4.073200
H      11.455800     0.588300     3.961500
H      12.679900     0.676500     4.934500
H      12.505400    -0.574600     4.006200
C      13.033900     2.559400     3.100200
H      13.611600     3.007000     2.477200
H      13.253600     2.830700     3.993700
H      12.122500     2.790600     2.909100
C      17.896700     1.592200     1.057400
C      18.935200     2.520500     1.720100
H      19.494900     2.005400     2.305900
H      18.479700     3.197000     2.226500
H      19.472600     2.934900     1.042500
C      17.121600     2.423200     0.022300
H      17.738300     2.808900    -0.603200
H      16.640200     3.122600     0.471600
H      16.503300     1.857800    -0.444300
C      18.613400     0.497900     0.280500
H      19.210900     0.028600     0.866300
H      19.112900     0.890500    -0.439300
H      17.968000    -0.116800    -0.076900
