74
Refcode: UXAHAE_comp_0 | Dataset: tmCAT | Charge: 0 | Potential Spins: [1, 3, 5]
Pd     14.538800     3.212800     1.833400
S      14.008400     1.568800     3.370900
P      16.262300     1.981700     1.028600
N      13.134200     4.237100     2.832000
N      12.313500     3.609900     3.781200
C      14.645100     4.681000     0.447900
C      15.083200     4.432900    -0.821700
H      15.297800     3.554300    -1.040400
C      15.231100     5.404500    -1.812400
H      15.499000     5.161600    -2.669400
C      14.984600     6.692700    -1.524300
H      15.145600     7.351600    -2.159500
C      13.646900    10.173400     1.608200
H      13.857500    10.815500     0.969900
C      13.233900    10.557100     2.810300
H      13.167800    11.462800     3.011300
C      12.900500     9.607500     3.771900
H      12.613800     9.886500     4.611300
C      12.988900     8.283100     3.504600
H      12.748700     7.668100     4.159500
C      13.618200     6.438100     1.939200
C      14.226800     8.369700     0.053900
H      14.372700     9.006700    -0.607200
C      13.771300     8.792200     1.278700
C      13.438400     7.815400     2.247600
C      14.247600     6.037600     0.740100
C      14.478000     7.044100    -0.246400
C      13.005000     5.510500     2.834100
H      12.452200     5.870900     3.490100
C      12.664800     2.398000     4.052900
C      11.807700     1.664100     5.024900
C      12.274800     0.519400     5.642300
H      13.133500     0.210600     5.465100
C      11.464800    -0.165400     6.522100
H      11.787600    -0.929000     6.944900
C      10.206000     0.257100     6.781100
H       9.664600    -0.217100     7.369700
C       9.737400     1.379900     6.173900
H       8.870800     1.669300     6.348000
C      10.531500     2.091800     5.306400
H      10.204500     2.865700     4.907600
C      17.040600     1.011700     2.357900
C      18.072400     1.531000     3.090500
H      18.457400     2.341100     2.847600
C      18.538500     0.839800     4.194700
H      19.252400     1.182200     4.683800
C      17.966100    -0.330800     4.571900
H      18.278800    -0.777800     5.326300
C      16.940600    -0.852700     3.856900
H      16.550400    -1.657700     4.113900
C      16.486200    -0.186100     2.751000
H      15.788000    -0.549100     2.254900
C      17.646900     2.879900     0.270500
C      18.323500     2.475500    -0.864800
H      18.060000     1.700300    -1.307700
C      19.377900     3.205500    -1.345000
H      19.819900     2.922500    -2.113900
C      19.790300     4.334700    -0.715000
H      20.518000     4.812800    -1.040400
C      19.130500     4.761100     0.395800
H      19.408700     5.535000     0.831100
C      18.056400     4.055700     0.875200
H      17.596600     4.372200     1.618600
C      15.743900     0.702900    -0.137400
C      16.579800    -0.337200    -0.497000
H      17.449000    -0.366900    -0.165800
C      16.136700    -1.326900    -1.338800
H      16.706900    -2.019400    -1.587500
C      14.860600    -1.290700    -1.809300
H      14.561400    -1.965200    -2.375100
C      14.009700    -0.276500    -1.459000
H      13.137100    -0.261000    -1.782300
C      14.461300     0.726100    -0.616100
H      13.888900     1.418600    -0.373000
