88
Refcode: UXIRAV_comp_0 | Dataset: tmCAT | Charge: unknown | Potential Spins: [1, 3, 5]
Hf      8.539000     5.028800     5.374100
N       7.870000     4.628200     3.241000
N       8.856600     6.723100     4.225300
C       8.077200     5.669100     2.256800
H       8.818100     5.408200     1.654700
H       7.258700     5.768300     1.709100
C       8.377900     6.882300     2.858900
H       7.566800     7.451000     2.864700
H       9.070600     7.346700     2.325100
C       7.402000     3.477700     2.933000
H       7.124600     3.302900     2.041400
C       7.292200     2.439300     3.939200
C       7.663300     2.864600     5.257000
C       7.545700     1.896700     6.272500
C       7.119900     0.581800     5.936700
H       7.095100    -0.075700     6.621000
C       6.743300     0.221800     4.665300
C       6.864800     1.150500     3.654400
H       6.655500     0.907900     2.760500
C       7.874500     2.196700     7.702500
H       8.818200     1.993200     7.871500
H       7.312200     1.651400     8.289600
H       7.709600     3.146300     7.883100
C       6.323100    -1.187000     4.394300
H       7.104200    -1.716700     4.136100
H       5.666100    -1.197500     3.667100
H       5.921200    -1.567900     5.202500
C       9.580400     7.873700     4.840100
H      10.044500     7.511000     5.647200
C       8.693000     9.016400     5.338000
C       7.877700     9.697300     4.436000
H       7.808700     9.415500     3.531700
C       7.146800    10.834800     4.908400
C       7.305800    11.262600     6.177500
H       6.864700    12.055700     6.455400
C       8.110500    10.563400     7.102700
C       8.794800     9.452000     6.648800
H       9.350900     8.972000     7.253200
C       6.268500    11.580900     3.910300
H       6.791000    12.290500     3.480700
H       5.504400    11.977500     4.380400
H       5.943800    10.954800     3.229400
C       8.308500    11.087800     8.510700
H       9.093900    11.672200     8.533900
H       8.444700    10.333900     9.122100
H       7.515400    11.594000     8.786300
C      10.681100     8.392800     3.913800
H      11.175600     7.615400     3.551300
H      10.254000     8.857200     3.150700
C      11.673700     9.337300     4.549500
C      11.342700    10.683400     4.808800
H      10.483300    11.014800     4.576100
C      12.267400    11.515700     5.398200
H      12.031500    12.410500     5.614800
C      13.540700    11.048700     5.673800
H      14.180100    11.638300     6.054800
C      13.895500     9.759900     5.411000
H      14.774500     9.446800     5.590400
C      12.934300     8.925000     4.876000
H      13.162100     8.014500     4.726600
C      10.599700     4.685600     6.193700
H      11.168900     5.497000     6.175200
H      10.600000     4.278600     7.096900
C      10.922200     3.707200     5.100600
C      11.151100     4.148200     3.803800
H      11.269500     5.074300     3.631200
C      11.205200     3.253300     2.780200
H      11.345000     3.571600     1.895500
C      11.066100     1.920200     2.986300
H      11.103500     1.317500     2.252200
C      10.876900     1.461000     4.211400
H      10.792300     0.524400     4.352600
C      10.796900     2.340200     5.312500
H      10.659200     1.998400     6.189100
C       7.203300     5.903900     6.963700
H       7.177800     5.353500     7.784700
H       7.442200     6.837900     7.188400
C       5.965500     5.812600     6.184500
C       5.642800     6.835300     5.262800
H       6.156300     7.633600     5.235000
C       4.545300     6.657900     4.379300
H       4.361900     7.320600     3.725000
C       3.768500     5.583000     4.452200
H       3.008800     5.512600     3.886000
C       4.051900     4.573400     5.339200
H       3.491300     3.806400     5.389000
C       5.151200     4.680400     6.152000
H       5.368400     3.949900     6.718300
