73
Refcode: UYEQOF_comp_0 | Dataset: tmCAT | Charge: unknown | Potential Spins: [1, 3, 5]
Ni      7.254600     3.282500     2.633000
P       5.781700     4.656800     1.745400
N       7.269900     1.958700     1.160200
C       7.944900     1.605700     2.092500
C       8.614500     3.207100     4.081500
H       9.503600     3.576100     3.814200
C       7.655400     4.191000     4.347900
H       6.944800     4.042700     4.988600
H       7.911300     5.122500     4.265500
C       8.802800     0.588900     2.684700
C       9.199900    -0.524600     1.940500
H       8.905400    -0.626600     1.042600
C      10.024300    -1.480800     2.512600
H      10.306300    -2.233000     2.007400
C      10.430800    -1.330800     3.818800
H      11.001600    -1.979700     4.210600
C      10.015700    -0.237300     4.571200
H      10.293200    -0.156600     5.476500
C       9.194200     0.746200     4.012000
C       8.704600     1.929000     4.833900
H       7.809100     1.713100     5.198200
H       9.316700     2.056300     5.601900
C       4.607300     3.754100     0.633400
H       5.190500     3.376100    -0.086000
C       3.964900     2.516600     1.285100
H       4.659300     1.986300     1.753800
H       3.291600     2.802900     1.953300
C       3.298200     1.658700     0.218800
H       3.985800     1.319800    -0.408200
H       2.866600     0.876500     0.648100
C       2.262700     2.442600    -0.550100
H       1.530100     2.709600     0.061300
H       1.876300     1.869700    -1.259500
C       2.876700     3.693100    -1.180800
H       3.544600     3.426100    -1.861800
H       2.169100     4.216000    -1.634800
C       3.550900     4.562600    -0.124500
H       2.871000     4.899200     0.511700
H       3.978300     5.342500    -0.559300
C       6.589000     5.886700     0.607800
H       5.879200     6.502300     0.267300
C       7.263500     5.230500    -0.602300
H       7.931900     4.569300    -0.289200
H       6.583900     4.749200    -1.136900
C       7.953800     6.278600    -1.480100
H       8.419400     5.822400    -2.225200
H       7.269400     6.878900    -1.870100
C       8.955800     7.107200    -0.694700
H       9.344600     7.802100    -1.283300
H       9.691400     6.525600    -0.379000
C       8.282600     7.772400     0.502500
H       7.606000     8.422000     0.183100
H       8.959300     8.268700     1.028800
C       7.609800     6.728200     1.390400
H       7.151000     7.185500     2.140100
H       8.300500     6.132300     1.773000
C       4.843300     5.744100     2.929100
H       5.536800     6.129000     3.537800
C       4.084800     6.951500     2.367100
H       4.706000     7.515400     1.841700
H       3.369400     6.635600     1.759300
C       3.466700     7.785400     3.491100
H       4.190600     8.185300     4.034800
H       2.939000     8.525300     3.095700
C       2.567700     6.954500     4.390900
H       2.237200     7.515400     5.136000
H       1.784500     6.638900     3.873700
C       3.312400     5.762700     4.951100
H       2.689000     5.205800     5.479300
H       4.028800     6.079000     5.557100
C       3.930300     4.914500     3.833500
H       4.452800     4.176000     4.235300
H       3.206500     4.515900     3.288800
