103
Refcode: VAJVOS_comp_0 | Dataset: tmCAT | Charge: unknown | Potential Spins: [1, 3, 5]
Ru      4.169900     5.305500     7.143600
P       5.027100     3.959000     5.423500
P       4.682200     3.687800     2.281200
P       7.375500     2.867500     1.610400
Cl      2.190800     5.561400     5.765800
Cl      5.254100     7.071000     5.904700
O       8.148500     1.557200     2.107300
O       7.218100     2.661700     0.020300
O       8.221400     4.024000     1.921400
N       5.913300     2.708100     2.158900
C       2.949100     4.394300     8.738500
C       2.958300     5.789900     8.954100
H       2.148000     6.236200     9.051000
C       4.139900     6.514600     9.024400
H       4.111200     7.435500     9.146200
C       5.404000     5.848100     8.907200
C       5.410700     4.459100     8.726000
H       6.221100     4.006700     8.666700
C       4.191900     3.735000     8.633900
H       4.214400     2.815200     8.502600
C       1.638600     3.655900     8.707300
H       0.916600     4.281300     8.794800
H       1.607400     3.027600     9.432100
H       1.556400     3.186100     7.873100
C       6.662100     6.680600     9.032200
H       6.522300     7.501200     8.513600
C       7.910400     6.007900     8.488600
H       8.662600     6.594700     8.597900
H       7.790100     5.813500     7.557600
H       8.068600     5.192000     8.969700
C       6.848600     7.094600    10.503700
H       7.640700     7.633000    10.586500
H       6.937500     6.309500    11.048900
H       6.086400     7.601700    10.792700
C       4.691900     4.704800     3.769400
H       3.827200     5.140500     3.822500
H       5.349500     5.404400     3.631900
C       8.210500     3.072900    -0.893500
C       9.533200     2.719000    -0.735800
H       9.803900     2.226500     0.004700
C      10.455800     3.106200    -1.694900
H      11.352100     2.880900    -1.594900
C      10.048800     3.823000    -2.791500
H      10.664900     4.070200    -3.442900
C       8.730500     4.175400    -2.924300
H       8.458400     4.672400    -3.661600
C       7.798600     3.797900    -1.969800
H       6.904300     4.037300    -2.063600
C       7.615900     0.263800     2.218200
C       6.730100    -0.259300     1.309100
H       6.441900     0.250400     0.587400
C       6.275900    -1.540700     1.473100
H       5.664000    -1.888400     0.865400
C       6.707000    -2.322400     2.521300
H       6.400400    -3.195000     2.613400
C       7.598300    -1.795600     3.428900
H       7.898000    -2.319300     4.136500
C       8.053800    -0.483300     3.296100
H       8.640500    -0.118800     3.919400
C       3.175700     2.710100     2.283800
C       3.241800     1.364000     1.963600
H       4.065400     0.967500     1.790200
C       2.085100     0.607800     1.901100
H       2.128900    -0.294600     1.677700
C       0.878100     1.188400     2.166700
H       0.105200     0.673900     2.129200
C       0.787300     2.530000     2.491600
H      -0.041900     2.916600     2.660300
C       1.928200     3.285000     2.563400
H       1.876100     4.183900     2.797800
C       4.555800     4.884200     0.924800
C       3.540600     4.839200    -0.004700
H       2.856200     4.216100     0.085900
C       3.536500     5.717400    -1.071600
H       2.849500     5.685900    -1.698000
C       4.551400     6.639500    -1.207500
H       4.550200     7.223600    -1.930800
C       5.564100     6.698700    -0.279600
H       6.242500     7.328200    -0.370200
C       5.571400     5.820500     0.787300
H       6.257100     5.857200     1.413700
C       4.339900     2.264500     5.337800
C       5.073800     1.145000     4.900400
H       5.975800     1.232300     4.692600
C       4.455200    -0.084000     4.781700
H       4.947800    -0.826000     4.513000
C       3.115100    -0.220800     5.059700
H       2.706800    -1.051000     4.975400
C       2.377800     0.868300     5.461200
H       1.469700     0.772100     5.636100
C       2.982700     2.109800     5.609600
H       2.479300     2.840500     5.890800
C       6.824800     3.725900     5.539300
C       7.728100     4.544200     4.859800
H       7.407800     5.192600     4.275500
C       9.095600     4.404400     5.041000
H       9.689100     4.949800     4.578600
C       9.565500     3.446100     5.917300
H      10.482400     3.340600     6.031400
C       8.699800     2.646000     6.621800
H       9.032000     2.015200     7.218600
C       7.334500     2.779700     6.443800
H       6.750400     2.241300     6.926500
