63
Refcode: VAKHUL_comp_0 | Dataset: tmCAT | Charge: 0 | Potential Spins: [1, 3, 5]
Ti      2.584600     1.960400     8.673000
S       0.107500     3.768600    10.019100
S       5.176600     3.763400     9.647900
O       1.053100     2.968400     9.299300
O      -1.187200     3.429100     9.910500
O       0.527500     4.065400    11.521900
O       4.010500     2.874200     9.617500
O       6.333200     3.091000     9.660500
O       5.086900     4.812600     8.705800
O       2.708900     2.487000     6.978300
F      -0.345300     6.216800    10.231300
F       1.618100     5.705700     9.569600
F      -0.018500     5.347000     8.261300
F       5.979200     5.374100    11.428400
F       3.903900     5.176600    11.287000
F       4.980700     3.727300    12.143200
C       1.373800    -0.024500     8.683100
C       2.547000    -0.214200     7.877400
C       3.630200    -0.087800     8.763900
C       3.204800     0.131600    10.077200
C       1.765200     0.201300    10.004000
C      -0.050700    -0.125200     8.218400
C       2.530900    -0.576900     6.437800
C       5.057700    -0.254200     8.301700
C       4.001100     0.268400    11.304700
C       0.818300     0.352300    11.135400
C       0.363500     5.001100     9.455900
C       5.010900     4.555800    11.201100
C       2.741600     2.556700     5.611900
C       4.010400     2.614800     4.983000
C       4.015600     2.727000     3.611600
C       2.879000     2.745100     2.889300
C       1.632200     2.688300     3.510600
C       1.591300     2.599300     4.904700
C       5.257500     2.560600     5.753400
C       2.907800     2.836700     1.343600
C       0.245700     2.559300     5.624500
H      -0.068300    -0.283900     7.271300
H      -0.509500     0.694300     8.412800
H      -0.485600    -0.851800     8.673000
H       3.430900    -0.647900     6.117000
H       2.065500     0.102000     5.942800
H       2.083000    -1.418400     6.324100
H       5.651200    -0.131600     9.044200
H       5.252400     0.398800     7.624800
H       5.174400    -1.135700     7.938000
H       4.933200     0.184600    11.092500
H       3.750200    -0.419400    11.926000
H       3.837400     1.129300    11.696100
H       1.308100     0.500800    11.946200
H       0.292500    -0.445300    11.218800
H       0.241000     1.100900    10.968800
H       4.856300     2.794100     3.154500
H       0.824300     2.710300     2.992900
H       5.053500     2.483100     6.687800
H       5.763700     3.362000     5.601800
H       5.772800     1.800400     5.475500
H       3.816700     2.869000     1.043100
H       2.448700     3.630500     1.060800
H       2.473300     2.066300     0.969800
H      -0.465300     2.598000     4.980500
H       0.177900     3.310400     6.220600
H       0.175400     1.746200     6.129700
