102
Refcode: VANGOI_comp_0 | Dataset: tmCAT | Charge: unknown | Potential Spins: [1, 3, 5]
Ru     13.284800    12.805400    13.966000
S      15.080000    13.215900    12.477200
P      14.800100    13.302300    15.737400
P      11.721900    12.253800    12.203500
O      11.798900    12.199400    15.310600
O      12.313800    15.634100    14.021200
N      13.999300    10.825500    13.913000
C      15.570400    11.571700    12.211700
C      16.569300    11.282100    11.261500
H      16.954400    11.991700    10.760300
C      16.999200     9.997600    11.043400
H      17.681300     9.824800    10.404700
C      16.432000     8.952900    11.757700
H      16.744000     8.065300    11.630000
C      15.408900     9.207000    12.660400
H      14.982600     8.481500    13.100000
C      14.995800    10.519200    12.932800
C      13.607500     9.908600    14.753400
H      14.118100     9.107100    14.745900
C      12.524400     9.929800    15.685400
C      11.643900    11.040200    15.824000
C      10.435200    10.891500    16.593800
H       9.839000    11.627500    16.670900
C      10.128000     9.729000    17.209000
H       9.315200     9.663200    17.695500
C      10.995800     8.593900    17.146500
C      10.637700     7.392700    17.781100
H       9.820400     7.346100    18.261300
C      11.444300     6.282500    17.721300
H      11.197600     5.477900    18.160000
C      12.646100     6.365200    16.994300
H      13.211200     5.605800    16.930800
C      13.007700     7.540100    16.375100
H      13.836000     7.572800    15.910100
C      12.209800     8.688100    16.400000
C      15.696600    11.812400    16.287200
C      16.694400    11.279900    15.469400
H      16.981800    11.758200    14.700000
C      17.269800    10.052800    15.777000
H      17.954200     9.699800    15.220000
C      16.851900     9.339000    16.892600
H      17.242100     8.497400    17.095200
C      15.868100     9.858500    17.704300
H      15.583900     9.373800    18.469700
C      15.285000    11.094200    17.407800
H      14.604900    11.444700    17.972600
C      14.110500    13.990500    17.288500
C      14.975500    14.258400    18.363600
H      15.894300    14.026900    18.295700
C      14.505200    14.855000    19.519900
H      15.097500    15.019100    20.243600
C      13.183600    15.208900    19.623900
H      12.861700    15.611600    20.421400
C      12.315700    14.978600    18.561800
H      11.406600    15.243000    18.626400
C      12.781600    14.358700    17.399000
H      12.182800    14.189600    16.680400
C      16.105300    14.558200    15.439800
C      15.748700    15.762100    14.835900
H      14.879300    15.863000    14.466800
C      16.658000    16.822800    14.769000
H      16.405500    17.642700    14.359800
C      17.931200    16.674400    15.303100
H      18.548500    17.395000    15.271600
C      18.296600    15.474000    15.878900
H      19.173200    15.367500    16.231200
C      17.393100    14.420000    15.946400
H      17.657500    13.597600    16.342100
C      11.924200    10.570800    11.528100
C      11.699500     9.485100    12.388200
H      11.378600     9.642900    13.268300
C      11.937900     8.185300    11.969300
H      11.797200     7.458100    12.564800
C      12.384000     7.947400    10.674800
H      12.550100     7.057800    10.385600
C      12.585200     9.005100     9.807500
H      12.876600     8.837300     8.919400
C      12.366000    10.314100    10.227100
H      12.516400    11.035300     9.626700
C      11.640000    13.363400    10.744000
C      10.615300    13.222700     9.811900
H       9.965300    12.538500     9.926800
C      10.533700    14.070900     8.717900
H       9.824600    13.967700     8.093600
C      11.476300    15.066700     8.527000
H      11.426200    15.635000     7.766700
C      12.486300    15.226400     9.449900
H      13.133900    15.910900     9.328500
C      12.563700    14.389600    10.557600
H      13.255300    14.519800    11.196100
C       9.953500    12.268600    12.708000
C       9.031400    11.321000    12.246300
H       9.336600    10.577500    11.740900
C       7.679200    11.457300    12.519700
H       7.066300    10.803000    12.205400
C       7.215000    12.537500    13.245900
H       6.285600    12.639700    13.415400
C       8.117200    13.469700    13.724000
H       7.807600    14.207000    14.235500
C       9.479600    13.333400    13.460600
H      10.089500    13.977800    13.799700
C      12.698600    14.552400    13.983600
