74
Refcode: VANWUD_comp_0 | Dataset: tmCAT | Charge: 1 | Potential Spins: [1, 3, 5]
Rh      9.095600     7.508600    17.239500
P       9.744400     8.817000    19.021800
C       8.674200    10.148200    19.660600
H       8.885700    10.991200    19.230900
H       7.740700     9.942500    19.500100
C       9.094300     8.799300    21.641700
H       8.230300     8.358200    21.628300
H       9.428900     8.787300    22.551900
C      10.082300     8.060700    20.703500
H      10.986000     8.337200    20.964100
C      10.028700     6.553300    20.825800
H      10.099200     6.319300    21.763900
H       9.159800     6.251800    20.516100
C       8.957200    10.221500    21.159300
H       9.775500    10.715100    21.325700
H       8.229300    10.667100    21.620500
P      11.177600     7.987900    16.463000
C       6.881800     7.450500    17.247800
H       6.329600     8.209600    17.531000
C      11.368300     9.303800    15.164600
H      11.462700    10.176500    15.601200
C       8.212400     6.511900    15.488100
C      12.202500     8.677300    17.828100
H      12.520200     7.962100    18.399600
H      12.971100     9.144300    17.464200
C      11.340500     9.634600    18.623800
H      11.178700    10.439100    18.106800
H      11.795300     9.885500    19.443100
C      12.772500     7.419000    14.341000
H      13.691000     7.145900    14.192200
H      12.245200     7.139900    13.575200
C       8.886700     9.856200    14.636000
C      10.219400     9.372100    14.135800
H      10.498400     9.953000    13.412100
H      10.097200     8.485700    13.761900
C      11.084300     5.803600    20.071000
C      12.702000     8.926800    14.492100
H      12.762600     9.348400    13.620400
H      13.443800     9.238800    15.033300
C       6.499400    10.022000    14.287000
H       5.742800     9.786500    13.799200
C      10.734800     4.882000    19.102300
H       9.836100     4.724400    18.922300
C      12.439800     6.018500    20.317400
H      12.702000     6.614800    20.981800
C       7.731800     9.522400    13.918900
H       7.796400     8.955300    13.184100
C       7.473600     5.221000    17.302300
H       7.526300     4.380900    17.806100
C       8.735800    10.715100    15.724500
H       9.483500    10.959700    16.220300
C       8.661300     5.554900    16.362000
H       9.358400     4.906000    16.131800
C       6.745700     6.790400    15.877900
C      12.232300     6.749800    15.618500
H      12.964100     6.481300    16.194700
H      11.711900     5.962200    15.392900
C       7.316700     6.497800    18.104400
H       7.110200     6.506800    19.061900
C       6.378300    10.862200    15.362700
H       5.545100    11.195200    15.605200
C      13.401100     5.345100    19.573200
H      14.303700     5.512100    19.724100
C       7.493500    11.208700    16.080700
H       7.414000    11.778900    16.811800
C      13.028700     4.433400    18.614800
H      13.675200     3.984800    18.118600
C      11.702000     4.190300    18.395100
H      11.447800     3.555700    17.764900
C       6.301800     5.372600    16.314000
H       5.433900     5.362100    16.748900
H       6.327700     4.725900    15.591400
H       6.166800     7.171400    15.251500
H       8.619600     6.626800    14.634400
