149
Refcode: VAPSEM_comp_0 | Dataset: tmCAT | Charge: unknown | Potential Spins: [1, 3, 5]
Pd     15.048000    11.682900     1.544400
Br     15.919400    13.616200     2.799500
Br     12.932900    12.796200     0.915400
N      17.618800    10.419200     1.040900
N      17.067500    10.117200     3.139200
N      15.328100     9.504100    -0.485000
N      13.606200     9.197500     0.783600
O      16.027300     8.328800     6.623200
O      10.803400     9.623700     3.888100
C      16.703300    10.684000     2.002600
C      18.288200     9.499400     2.942900
C      19.131600     8.821200     3.845200
H      18.916900     8.748100     4.747600
C      20.287000     8.270800     3.335500
H      20.865600     7.812100     3.901300
C      20.595700     8.391600     1.989400
H      21.374600     7.994400     1.674300
C      19.804900     9.067400     1.111800
H      20.025800     9.132500     0.211100
C      18.649400     9.658500     1.621600
C      17.419200    10.940600    -0.316700
H      16.927400    11.782500    -0.214400
C      18.694800    11.284400    -1.088700
H      19.274700    11.833600    -0.539400
H      19.170800    10.471400    -1.316400
C      18.325500    12.028700    -2.344100
H      17.887700    12.861400    -2.108200
H      19.129200    12.242400    -2.840600
C      17.414800    11.215800    -3.200200
H      17.895800    10.440100    -3.528500
H      17.143900    11.744200    -3.967300
C      16.181400    10.754800    -2.459600
H      15.628400    11.522400    -2.246800
H      15.667700    10.163700    -3.032000
C      16.534300    10.033600    -1.192700
H      17.080800     9.260200    -1.445100
C      14.598900    10.062700     0.494900
C      14.752300     8.310300    -0.889100
C      15.078100     7.417200    -1.910200
H      15.800600     7.565900    -2.476100
C      14.269900     6.302400    -2.038900
H      14.430000     5.696200    -2.725100
C      13.198700     6.072400    -1.134900
H      12.701700     5.290900    -1.214100
C      12.872900     6.971300    -0.145200
H      12.156000     6.826100     0.430500
C      13.668700     8.108200    -0.051100
C      12.683600     9.370500     1.930000
H      12.908500    10.199700     2.380400
H      12.835200     8.647000     2.556900
C      11.208800     9.401900     1.580300
C      10.767400     9.390300     0.265600
H      11.390600     9.464600    -0.420600
C       9.426500     9.270700    -0.052800
C       8.559900     9.098800     1.017800
H       7.667300     8.916500     0.833100
C       8.966700     9.187000     2.418300
C      10.298500     9.392600     2.598100
C       8.931900     9.259000    -1.474700
C      10.048000     9.557500    -2.471100
H      10.818300     9.023300    -2.253400
H      10.277200    10.484200    -2.429900
H       9.751700     9.334500    -3.358600
C       8.392500     7.920100    -1.870700
H       7.659600     7.686600    -1.298200
H       9.085800     7.260400    -1.789800
H       8.088400     7.954900    -2.781200
C       7.607600     9.987200    -1.672700
H       7.000800     9.739800    -0.970000
H       7.231400     9.734000    -2.520600
H       7.755100    10.931300    -1.654600
C       7.926300     8.894400     3.505400
C       8.481700     7.694800     4.340100
H       7.856200     7.473000     5.034600
H       9.322100     7.939800     4.732700
H       8.604500     6.936400     3.766000
C       7.856900    10.120700     4.440700
H       7.215500     9.958100     5.135200
H       7.594300    10.894200     3.936000
H       8.721000    10.272900     4.831700
C       6.572200     8.429900     2.941200
H       5.966900     8.253400     3.665400
H       6.696700     7.629700     2.426600
H       6.205900     9.118500     2.380400
C      11.064500    11.042800     4.092700
H      10.229800    11.514300     4.239500
H      11.492000    11.417900     3.305800
C      11.944600    11.201900     5.263900
C      11.663800    10.638700     6.502700
H      10.916900    10.096300     6.614900
C      12.508100    10.893000     7.560100
H      12.324900    10.521400     8.393200
C      13.615400    11.688500     7.400100
H      14.184200    11.839500     8.121000
C      13.887800    12.265700     6.174500
H      14.623700    12.826600     6.080400
C      13.105600    12.022900     5.136900
H      13.315500    12.393400     4.310400
C      16.179700     9.894300     4.269200
H      15.976900     8.947800     4.322000
H      15.347600    10.365800     4.107500
C      16.742900    10.343700     5.597100
C      17.365800    11.596700     5.677900
H      17.446200    12.119300     4.912500
C      17.874200    12.075200     6.901900
C      17.763400    11.220500     7.992300
H      18.117400    11.514300     8.800600
C      17.170600     9.969800     7.980800
C      16.629300     9.556300     6.741900
C      14.606800     8.320700     6.385600
H      14.362300     9.123200     5.897300
H      14.143300     8.338100     7.236800
C      14.168700     7.140800     5.621900
C      12.990300     7.159400     4.981800
H      12.449400     7.915400     5.028000
C      12.565000     6.031800     4.231200
H      11.745300     6.063100     3.794100
C      13.298200     4.940200     4.135600
H      13.002300     4.213200     3.637400
C      14.501500     4.898400     4.785500
H      15.025900     4.131900     4.744300
C      14.932700     5.986500     5.493200
H      15.766500     5.952800     5.902300
C      17.115200     9.106900     9.222900
C      17.772100     9.832700    10.435400
H      17.288900    10.639800    10.625100
H      18.684300    10.046400    10.225900
H      17.748100     9.256700    11.204100
C      17.899200     7.798100     8.929300
H      17.505400     7.351000     8.175400
H      17.859400     7.223300     9.698000
H      18.814400     8.009500     8.734700
C      15.702700     8.854900     9.670000
H      15.267500     9.693400     9.841500
H      15.709700     8.327700    10.471700
H      15.228100     8.383400     8.982100
C      18.490000    13.445500     6.979500
C      19.276600    13.694000     8.175400
H      19.986800    13.049500     8.229900
H      18.716700    13.619700     8.949100
H      19.651300    14.577800     8.134200
C      17.372300    14.423300     6.989400
H      16.813000    14.267700     7.754800
H      16.853000    14.329300     6.187700
H      17.728300    15.317500     7.033900
C      19.236400    13.839200     5.770300
H      20.000200    13.267900     5.666400
H      19.526700    14.749700     5.854400
H      18.667100    13.755600     5.001600
