61
Refcode: VAYRAQ_comp_0 | Dataset: tmCAT | Charge: 1 | Potential Spins: [1, 3, 5]
C       0.661900     2.664200     3.296100
C       0.645300     2.992600     4.685000
C      -0.168700     2.312100     5.606700
H      -0.136500     2.519300     6.533400
C      -1.016400     1.337700     5.127000
C      -2.022700     0.478400     5.812100
C      -2.160300     0.072300     3.529100
C      -1.067800     1.069800     3.758200
C      -0.241700     1.690700     2.852800
H      -0.282600     1.460400     1.932300
C       1.482700     4.130600     5.073200
C       1.608400     4.648100     6.360600
H       1.173300     4.216400     7.086900
C       2.364400     5.789800     6.593500
H       2.454400     6.138800     7.472600
C       2.982800     6.412700     5.524000
H       3.493500     7.202400     5.653000
C       2.844600     5.860900     4.264200
H       3.272300     6.289300     3.531600
C      -3.764700    -1.184900     4.985500
H      -4.507200    -0.921000     4.385700
H      -4.089600    -1.102200     5.917300
C      -3.416400    -2.634900     4.720000
C      -2.127500    -3.091400     4.493400
H      -1.408900    -2.470800     4.493400
C      -1.861800    -4.432700     4.266700
H      -0.974100    -4.725700     4.100100
C      -2.902000    -5.339400     4.284200
H      -2.728400    -6.262900     4.146500
C      -4.197600    -4.904100     4.504600
H      -4.909200    -5.533100     4.519700
C      -4.463000    -3.571400     4.701200
H      -5.358900    -3.280200     4.825200
C       2.507000     3.384600    -1.034400
H       2.686300     2.802400    -1.814600
H       1.824900     4.048300    -1.304900
C       3.785700     4.118400    -0.667500
H       3.986700     4.783900    -1.372600
H       4.532800     3.469000    -0.644900
C       3.160100     1.119400     0.500900
H       2.885000     0.276800     0.061400
H       3.981600     1.444100     0.055100
C       3.453800     0.851100     1.959900
H       4.237000     0.248300     2.018800
H       2.680100     0.375300     2.354400
C       5.236800     4.433600     1.764500
H       5.991100     4.630600     1.154600
H       5.367600     4.978400     2.581000
C       5.314700     2.971000     2.155300
H       6.072900     2.848500     2.780200
H       5.503600     2.434200     1.345000
C       0.579200     4.793700     1.586700
N      -2.656700    -0.257100     4.792700
N       2.134600     4.749200     4.027500
O      -2.283400     0.381500     6.985500
O      -2.607500    -0.357200     2.479600
O      -0.323900     5.437100     1.253600
S       1.831700     2.366000     0.312800
S       3.696100     4.979500     0.957200
S       3.787000     2.328000     2.946900
Ru      2.000600     3.751500     2.178200
