147
Refcode: VAZBEF_comp_0 | Dataset: tmCAT | Charge: 0 | Potential Spins: [1, 3, 5]
Ti     13.934700     6.621700    13.469900
Si     13.052500     3.659700    14.662300
Si     16.869000     6.918300    11.935400
Si     12.812600     9.387200    15.025400
O      12.980000     6.578600    12.023400
O      13.614900     5.158200    14.485900
O      11.485600     3.585100    15.029700
O      13.209100     2.995300    13.193900
O      13.868700     2.867900    15.787400
O      15.679000     6.674900    13.004500
O      16.812000     5.904300    10.687400
O      18.302200     6.733500    12.665600
O      16.630800     8.400300    11.341300
O      13.533900     8.064200    14.458400
O      12.861300    10.583200    13.947900
O      13.546700     9.897100    16.361000
O      11.260800     9.002600    15.220200
C      12.324700     6.830300    10.797300
C      12.608900     8.255200    10.413700
H      12.247700     8.854900    11.100100
H      12.189400     8.450000     9.551200
H      13.578100     8.386600    10.343700
C      10.855300     6.605100    11.032400
H      10.710900     5.688100    11.346200
H      10.365300     6.743000    10.194700
H      10.531400     7.237600    11.707500
C      12.898300     5.874100     9.797300
H      13.858600     6.038200     9.700200
H      12.456400     6.001000     8.930200
H      12.754800     4.954900    10.104400
C      10.638600     4.211900    15.986100
C      11.283000     4.256700    17.339100
H      11.532000     3.348500    17.612100
H      10.652500     4.631000    17.989200
H      12.086200     4.819200    17.300500
C      10.295800     5.561100    15.449000
H      11.058600     6.163000    15.566400
H       9.521800     5.917900    15.934400
H      10.078200     5.486700    14.496100
C       9.408200     3.320000    16.033800
H       8.958600     3.337600    15.164500
H       8.794800     3.646100    16.724700
H       9.678800     2.403000    16.243800
C      12.617000     1.846700    12.593100
C      11.250000     2.190700    12.102700
H      10.666000     2.374600    12.865900
H      10.888100     1.437900    11.587900
H      11.298700     2.983000    11.529100
C      12.608900     0.680600    13.534200
H      13.522100     0.496800    13.834500
H      12.249900    -0.107200    13.075800
H      12.045800     0.890700    14.308700
C      13.492900     1.532000    11.407200
H      13.526500     2.308900    10.811100
H      13.122700     0.766000    10.921800
H      14.397100     1.319700    11.716600
C      15.256600     2.890200    16.167400
C      15.562600     1.529100    16.764400
H      14.996100     1.383200    17.551100
H      16.506000     1.492600    17.029500
H      15.382000     0.831700    16.099300
C      16.134300     3.118700    14.951300
H      16.007900     2.383300    14.315500
H      17.073600     3.151500    15.227700
H      15.889000     3.965700    14.525500
C      15.433100     4.013800    17.166100
H      15.220400     4.869500    16.736000
H      16.360200     4.029100    17.481100
H      14.832300     3.873800    17.928200
C      17.250700     4.549400    10.462300
C      16.474600     4.051000     9.275200
H      15.523300     3.987600     9.510500
H      16.806700     3.166800     9.016000
H      16.584500     4.674800     8.526100
C      16.952500     3.692800    11.675000
H      17.437100     4.042300    12.450400
H      17.235200     2.770700    11.502000
H      15.990000     3.709600    11.858800
C      18.739500     4.571900    10.183400
H      18.917900     5.140900     9.404400
H      19.052500     3.661500    10.000500
H      19.211800     4.930800    10.964700
C      18.802300     7.223600    13.933400
C      18.429900     6.224300    15.006000
H      17.452800     6.154200    15.065100
H      18.787700     6.519700    15.868900
H      18.805700     5.346700    14.780600
C      20.309600     7.325100    13.766300
H      20.681300     6.434400    13.599700
H      20.703800     7.697200    14.581900
H      20.515300     7.911600    13.008100
C      18.220300     8.580700    14.249800
H      18.442200     9.207300    13.529700
H      18.594800     8.907400    15.094500
H      17.246400     8.506900    14.329000
C      17.259400     9.078100    10.222200
C      18.763700     8.857100    10.248900
H      19.124300     9.159100    11.109200
H      19.182600     9.367000     9.524100
H      18.956000     7.902900    10.131500
C      16.937000    10.535500    10.392000
H      15.965300    10.653900    10.420500
H      17.307000    11.041300     9.639200
H      17.329400    10.861800    11.228800
C      16.676500     8.544100     8.940200
H      16.885200     7.589900     8.860200
H      17.060200     9.027800     8.180600
H      15.705100     8.666700     8.948300
C      13.889600    11.517500    13.538300
C      15.268900    10.913000    13.698800
H      15.438100    10.730500    14.647400
H      15.942900    11.540300    13.362600
H      15.319200    10.076100    13.191000
C      13.592300    11.789800    12.064100
H      13.741900    10.973400    11.544900
H      14.186200    12.498900    11.736900
H      12.660500    12.074300    11.967200
C      13.745700    12.773100    14.352500
H      12.826500    13.107300    14.279300
H      14.367900    13.453100    14.017400
H      13.948300    12.577700    15.290900
C      14.045000     9.187600    17.524500
C      15.453800     8.717000    17.174000
H      15.411200     8.093300    16.417600
H      15.848600     8.264000    17.948500
H      16.005700     9.489600    16.930200
C      14.060500    10.205300    18.618900
H      14.621400    10.962500    18.352700
H      14.421700     9.800400    19.434300
H      13.147400    10.518200    18.786200
C      13.187800     8.016700    17.851400
H      12.263400     8.314300    17.980100
H      13.513100     7.594300    18.673300
H      13.223700     7.371100    17.115300
C      10.104400     9.859700    15.418500
C      10.482000    11.067500    16.243800
H      10.892600    10.774300    17.083700
H       9.681000    11.595000    16.437900
H      11.121400    11.616900    15.742500
C       9.095500     9.003700    16.144400
H       8.891300     8.209300    15.607000
H       8.274300     9.518000    16.291200
H       9.465700     8.725800    17.009200
C       9.590000    10.244600    14.078400
H      10.255400    10.796200    13.617800
H       8.758900    10.752400    14.182200
H       9.414100     9.434900    13.552300
