68
Refcode: VECXIN_comp_0 | Dataset: tmCAT | Charge: 0 | Potential Spins: [1, 3, 5]
Fe     -1.275800     4.382200     6.767000
P      -1.255100     2.432300     7.764200
P      -0.507700     3.600500     4.872100
C      -0.538000     0.931500     6.945800
H      -0.216200     0.315000     7.650400
H      -1.261800     0.468300     6.453900
C       0.612300     1.196900     5.973800
H       1.281500     1.785200     6.407500
H       1.056400     0.340600     5.747900
C       0.108300     1.859300     4.696400
H      -0.624800     1.305600     4.328300
H       0.844200     1.856200     4.033800
C      -0.314000     2.402300     9.394500
H      -0.628700     3.190100     9.923700
C       1.186200     2.614300     9.134000
H       1.570100     1.796600     8.751300
H       1.638500     2.824000     9.977800
H       1.307400     3.357600     8.507000
C      -0.500800     1.167600    10.287300
H      -1.441800     1.095500    10.551400
H       0.056900     1.257300    11.088300
H      -0.236700     0.363300     9.792400
C      -2.890200     1.654700     8.279600
H      -2.697600     0.720900     8.577500
C      -3.573600     2.379000     9.446600
H      -2.922400     2.531700    10.163200
H      -4.310500     1.827800     9.785600
H      -3.925600     3.238400     9.136600
C      -3.842600     1.570700     7.088600
H      -4.036600     2.474900     6.761000
H      -4.677200     1.138100     7.367400
H      -3.425700     1.047300     6.373700
C      -1.623300     3.589800     3.358400
H      -1.144200     3.088000     2.638300
C      -1.971500     4.968600     2.796700
H      -2.565700     5.435200     3.421500
H      -2.421500     4.864700     1.932400
H      -1.149800     5.489100     2.677000
C      -2.916800     2.828300     3.661900
H      -2.699600     1.915800     3.945900
H      -3.473700     2.795600     2.855600
H      -3.405500     3.286600     4.377600
C       0.987200     4.553300     4.250100
H       0.745500     5.523100     4.284900
C       1.455300     4.266100     2.816500
H       1.699000     3.320700     2.735900
H       2.234200     4.822100     2.609400
H       0.731000     4.470200     2.189300
C       2.153400     4.356600     5.219100
H       1.846100     4.515600     6.136200
H       2.870100     4.989600     5.001400
H       2.492100     3.439900     5.141500
C      -1.842200     5.411900     8.507500
H      -1.975300     5.123000     9.403200
C      -2.943500     5.378100     7.603700
H      -3.792800     5.063300     7.888900
C      -2.751700     5.815800     6.289600
H      -3.465600     5.787100     5.663900
C      -1.485400     6.299400     5.905200
H      -1.369500     6.635700     5.023700
C      -0.393100     6.301100     6.779300
H       0.455000     6.598800     6.471300
C      -0.537300     5.867100     8.110100
C       0.582500     5.893500     9.061300
H       0.378700     5.432300    10.033800
C       1.804600     6.418600     8.849800
H       2.008600     6.825900     8.016400
H       2.461400     6.383100     9.535500
