75
Refcode: VEKJUT_comp_0 | Dataset: tmCAT | Charge: 1 | Potential Spins: [1, 3, 5]
Ir      8.514000     2.498700     5.602500
S       5.116800     2.238200     2.667100
S      11.849700     0.322600     3.496600
N       6.882000     1.361800     6.143500
N      10.143600     3.603400     5.012400
N       7.582800     4.098400     6.654400
N       9.478500     2.482600     7.497800
C       6.051500     7.221300    10.277500
H       5.496400     7.919600    10.632700
H       5.922700     6.419900    10.791600
H       6.971700     7.488400    10.326100
C      12.547400     2.270600    11.455200
H      12.876500     2.558100    12.309500
H      12.285100     1.348700    11.505700
H      13.239200     2.369300    10.795300
C       6.757300     0.682300     7.309000
H       7.469800     0.667800     7.905400
C       5.585400     0.005800     7.628700
H       5.515800    -0.463100     8.428800
C       4.523400     0.037700     6.742600
H       3.729500    -0.402100     6.946400
C       4.645600     0.718600     5.566800
H       3.935800     0.746200     4.966800
C       5.842100     1.373400     5.262100
C       6.159200     2.076100     4.062000
C       7.406100     2.651000     3.921800
C       7.541000     3.247700     2.613300
C       8.618600     3.937300     2.046900
H       9.393700     4.069400     2.542300
C       8.538600     4.420700     0.760800
H       9.258400     4.879500     0.392600
C       7.371000     4.224700     0.003700
H       7.335900     4.548500    -0.867400
C       6.300600     3.572900     0.512200
H       5.531900     3.449500     0.001900
C       6.375600     3.090900     1.822600
C      10.304200     4.926000     5.200400
H       9.610400     5.412300     5.583700
C      11.459200     5.583600     4.847100
H      11.545900     6.498300     4.991100
C      12.482100     4.866400     4.277000
H      13.267600     5.296200     4.022800
C      12.344500     3.530800     4.086300
H      13.039700     3.041500     3.712500
C      11.168800     2.894900     4.449000
C      10.830500     1.504100     4.273300
C       9.610200     1.055500     4.718200
C       9.481300    -0.361500     4.424700
C       8.437400    -1.235500     4.699500
H       7.683300    -0.927700     5.150000
C       8.512300    -2.563900     4.305000
H       7.810100    -3.140200     4.503200
C       9.614800    -3.041500     3.622700
H       9.636800    -3.931500     3.353600
C      10.684800    -2.214000     3.331100
H      11.430100    -2.537700     2.880600
C      10.611200    -0.884100     3.734900
C       6.601800     4.888200     6.163100
H       6.334000     4.773500     5.279000
C       5.985800     5.858000     6.924000
H       5.321900     6.392300     6.552000
C       6.359200     6.030800     8.240000
C       7.385400     5.248300     8.759600
H       7.673300     5.362900     9.636300
C       7.968000     4.293000     7.939000
C       9.082000     3.432100     8.383900
C       9.714600     3.616400     9.600800
H       9.414700     4.261000    10.200900
C      10.820300     2.807800     9.909300
C      11.238300     1.853900     9.002600
H      11.970700     1.311000     9.184000
C      10.541600     1.729100     7.828700
H      10.821800     1.081600     7.221200
O       5.697000     6.974400     8.912900
O      11.415300     3.069100    11.083600
