66
Refcode: VEKWAM_comp_0 | Dataset: tmCAT | Charge: unknown | Potential Spins: [1, 3, 5]
Ir      3.069300     2.375700    -1.064800
H       2.011800     1.242600    -1.292100
H       3.733400     1.118500    -0.356100
H       4.541500     2.265700    -0.518900
H       3.874500     3.749200    -1.037700
P       1.775900     3.416700     0.504200
P       3.984000     1.657300    -3.030700
C       1.821100     3.448200    -2.374600
C       0.952600     4.434600    -1.904600
C       0.117900     5.162700    -2.761200
H      -0.489400     5.804400    -2.412400
C       0.190000     4.933800    -4.125500
C       1.033100     3.950700    -4.620000
H       1.070400     3.785000    -5.555000
C       1.827700     3.205600    -3.752100
C       0.976500     4.784000    -0.422200
H       0.052500     4.918100    -0.093800
H       1.480800     5.624500    -0.283400
C       2.708300     2.091600    -4.282200
H       3.147600     2.383800    -5.120000
H       2.154600     1.296200    -4.485000
O      -0.555900     5.624500    -5.075800
C      -1.306200     6.742300    -4.617900
H      -1.956900     6.445500    -3.947100
H      -1.778600     7.149500    -5.373200
H      -0.700600     7.399500    -4.217100
C       0.350900     2.481300     1.206600
H      -0.146200     3.090300     1.825100
C      -0.599400     2.065400     0.086500
H      -0.135700     1.455900    -0.525300
H      -0.893400     2.860400    -0.404600
H      -1.378600     1.611600     0.470800
C       0.810900     1.259300     2.010400
H       0.028900     0.743900     2.297200
H       1.313300     1.557100     2.797400
H       1.385400     0.697600     1.449300
C       2.584700     4.313700     1.895400
H       3.144600     5.022700     1.465500
C       1.602700     5.059000     2.793800
H       1.049200     4.412400     3.279400
H       1.028500     5.632900     2.244500
H       2.099000     5.610300     3.433900
C       3.559100     3.463000     2.706300
H       4.109300     4.045100     3.270900
H       4.136200     2.956700     2.098000
H       3.055400     2.840900     3.272500
C       5.523800     2.482700    -3.636100
H       5.734300     2.117500    -4.543500
C       5.332000     3.986200    -3.767400
H       5.193400     4.376500    -2.879600
H       4.551300     4.168300    -4.330600
H       6.129800     4.382500    -4.177400
C       6.697000     2.167900    -2.718500
H       7.508900     2.590700    -3.067600
H       6.827300     1.196800    -2.675700
H       6.510400     2.511300    -1.819500
C       4.322700    -0.139500    -3.301400
H       5.143100    -0.371200    -2.778400
C       3.180700    -1.004100    -2.767300
H       2.340700    -0.737000    -3.196400
H       3.104900    -0.883000    -1.797900
H       3.363300    -1.946100    -2.965800
C       4.597400    -0.493900    -4.759300
H       4.747400    -1.459000    -4.838400
H       5.393200    -0.013000    -5.068500
H       3.827000    -0.237200    -5.308500
