38
Refcode: VESQIT_comp_0 | Dataset: tmCAT | Charge: 0 | Potential Spins: [1, 3, 5]
Pd      3.014200     1.522500     6.534100
Cl      3.967600     0.785600     4.585000
Cl      0.938800     1.507600     5.551400
N       2.216500     2.107800     8.295400
C       2.839600     2.001400     9.467100
N       2.140800     2.646700    10.437700
C       2.536300     2.876500    11.820600
C       1.007000     3.149600     9.841300
C       1.050900     2.813400     8.544700
N       4.854600     1.643100     7.386200
C       5.120300     1.466200     8.671100
N       6.457800     1.506500     8.874600
C       7.166100     1.392000    10.149400
C       7.045300     1.749600     7.671000
C       6.051700     1.819300     6.740300
C       4.087200     1.232000     9.677100
N       4.312800     0.374400    10.606000
C       3.306400    -0.086600    11.491200
C       1.988400    -0.352400    11.107300
C       1.084000    -0.856100    12.026700
C       1.484000    -1.112300    13.327200
C       2.802700    -0.880300    13.694400
C       3.713300    -0.400900    12.790500
H       2.306800     3.619500    12.053900
H       2.114300     2.253900    12.414200
H       3.484200     2.731100    11.921000
H       0.380800     3.656200    10.329000
H       0.535100     3.024800     7.842000
H       7.271900     0.543300    10.370300
H       8.051400     1.453700    10.101500
H       6.660800     1.740000    10.851800
H       7.981800     1.820800     7.552500
H       6.125700     1.938200     5.803900
H       1.624900    -0.271600    10.249200
H       0.203300    -1.064600    11.732000
H       0.928600    -1.380300    13.908800
H       3.078700    -1.101300    14.526100
H       4.617800    -0.323000    13.058100
