42
Refcode: VEWJAJ_comp_0 | Dataset: tmCAT;tmPHOTO | Charge: unknown | Potential Spins: [1, 3, 5]
Re     21.503700     4.551100    -3.125500
O      24.338000     4.534900    -4.268000
Si     14.537700     0.758700    -0.837800
Cl     20.400100     5.331000    -5.221400
C      22.407000     7.527300    -2.980700
H      23.229500     7.196000    -3.255300
N      21.428300     6.631200    -2.670900
C      17.436400     4.122100    -1.349200
C      17.951100     6.430300    -1.424900
H      17.715800     7.315500    -1.276300
N      19.545600     4.871600    -2.212500
C      16.558900     2.992500    -1.128900
C      21.316100     2.710100    -3.648400
C      22.195800     3.926600    -1.424900
C      22.264000     8.895900    -2.905000
H      22.978800     9.449900    -3.120400
C      17.073600     5.452700    -1.128900
H      16.233400     5.664500    -0.790300
C      23.231700     4.507700    -3.882500
C      15.815500     2.101800    -0.991300
C      20.238400     7.174300    -2.292300
C      18.705500     3.856000    -1.906800
H      18.965000     2.976200    -2.070000
C      19.204700     6.126100    -1.935000
C      13.334700     0.993900    -2.216600
H      12.925600     1.857400    -2.137400
H      12.659500     0.315000    -2.168400
H      13.794300     0.928700    -3.055000
C      15.344900    -0.890700    -0.950000
H      14.680700    -1.580400    -0.874900
H      15.987100    -0.983000    -0.245100
H      15.789100    -0.972100    -1.800100
C      13.741500     0.934100     0.826100
H      13.321500     1.792200     0.887300
H      14.410100     0.852700     1.507600
H      13.083900     0.244400     0.935500
C      21.052200     9.449900    -2.512600
H      20.915800    10.367700    -2.458200
C      20.018500     8.488600    -2.182200
H      19.187100     8.792800    -1.898600
O      22.609300     3.497600    -0.488700
O      21.175300     1.623900    -3.999500
