34
Refcode: VEXWIG_comp_0 | Dataset: tmCAT | Charge: 0 | Potential Spins: [1, 3, 5]
Ni      3.129200     0.364000     0.983500
Br      1.243700    -1.041500     1.299200
Br      4.185100     1.209800     2.900300
N       4.502200    -0.730700     0.043800
N       2.439300     1.417200    -0.617900
H       1.558400     1.192700    -0.665500
C       5.581400    -1.182100     0.715700
H       5.671900    -0.964200     1.615500
C       6.543800    -1.946400     0.123600
H       7.265300    -2.259300     0.620500
C       6.440200    -2.251900    -1.213900
H       7.092200    -2.761500    -1.638700
C       5.349700    -1.785800    -1.906400
H       5.258100    -1.975900    -2.811400
C       4.386100    -1.035400    -1.260200
C       3.148200    -0.532500    -1.987500
H       3.196100    -0.803600    -2.918200
H       2.361600    -0.947000    -1.598800
C       2.996400     0.965800    -1.920600
H       3.862300     1.380300    -2.055800
H       2.411400     1.259100    -2.636300
C       2.421900     2.922000    -0.429900
C       3.835200     3.438900    -0.212400
H       4.220000     3.005600     0.552200
H       3.808600     4.386700    -0.064400
H       4.367600     3.251300    -0.988600
C       1.789700     3.615000    -1.649000
H       2.332900     3.459400    -2.423900
H       1.728400     4.558700    -1.484200
H       0.910300     3.258700    -1.798300
C       1.559800     3.176000     0.808400
H       2.048900     2.925300     1.594900
H       0.756200     2.654100     0.750500
H       1.334000     4.108200     0.854700
