104
Refcode: VEZNAQ_comp_0 | Dataset: tmCAT | Charge: unknown | Potential Spins: [1, 3, 5]
Ru      2.248800     3.628300    -3.600700
P       1.847300     5.931100    -2.916300
P       0.106900     2.687200    -3.447200
O       1.830000     3.551400    -6.592800
N       5.016700     3.383900    -2.591000
N       5.234200     4.400800    -4.467700
C       1.974300     3.671200    -5.442500
C       4.292900     3.878200    -3.622900
C       6.525100     4.230600    -3.943300
C       6.382100     3.586600    -2.764800
C       4.320400     2.669700    -1.502800
H       4.718900     2.936800    -0.624800
C       2.847500     3.096200    -1.541000
C       4.492000     1.169100    -1.698300
H       4.001300     0.884800    -2.497600
H       4.141700     0.695900    -0.915200
H       5.443600     0.961300    -1.808500
C       4.868800     5.016000    -5.749400
H       3.869000     5.046600    -5.766100
C       5.334000     6.454600    -5.868600
H       5.147600     6.928500    -5.031400
H       4.857800     6.892800    -6.604400
H       6.297200     6.472500    -6.047100
C       5.280400     4.154200    -6.932200
H       6.258300     4.110800    -6.979600
H       4.929900     4.546400    -7.759800
H       4.919100     3.249900    -6.819500
C       7.779700     4.747000    -4.572800
H       7.800400     5.723800    -4.505500
H       7.804400     4.483500    -5.516500
H       8.556200     4.371200    -4.108300
C       7.402800     3.174500    -1.748500
H       8.290800     3.471100    -2.039200
H       7.397900     2.198300    -1.657800
H       7.187900     3.585100    -0.885400
C       3.336200     6.953900    -2.491700
C       3.516900     8.261000    -2.951800
H       2.843200     8.667400    -3.485100
C       4.673600     8.978600    -2.638900
H       4.781500     9.865300    -2.962300
C       5.658900     8.407300    -1.863600
H       6.448000     8.895400    -1.659300
C       5.493100     7.120900    -1.383200
H       6.163800     6.731100    -0.835200
C       4.348900     6.395600    -1.699400
H       4.253300     5.507800    -1.373600
C       1.024500     7.097600    -4.089800
C       0.202600     8.148100    -3.687000
H      -0.004400     8.257400    -2.766100
C      -0.318400     9.039200    -4.621000
H      -0.897700     9.736000    -4.335900
C       0.000900     8.916700    -5.954900
H      -0.356700     9.528400    -6.588700
C       0.840900     7.903600    -6.366500
H       1.081100     7.828600    -7.282600
C       1.338200     6.990100    -5.441300
H       1.899400     6.283600    -5.736300
C       0.817600     6.129700    -1.403500
C       1.379500     6.205500    -0.128600
H       2.324500     6.230900    -0.033000
C       0.572200     6.244500     1.002700
H       0.972200     6.276800     1.863400
C      -0.802400     6.236200     0.887400
H      -1.350700     6.293800     1.662500
C      -1.374400     6.142400    -0.368300
H      -2.320600     6.120300    -0.456800
C      -0.575400     6.081300    -1.498300
H      -0.982000     6.004600    -2.353200
C      -1.363500     3.728200    -3.859800
C      -1.294800     4.578700    -4.962300
H      -0.527400     4.560000    -5.522800
C      -2.336300     5.455200    -5.252900
H      -2.279800     6.025000    -6.011000
C      -3.456900     5.499400    -4.437700
H      -4.156700     6.113500    -4.621700
C      -3.548600     4.647800    -3.360600
H      -4.322000     4.667200    -2.808500
C      -2.517700     3.758300    -3.074400
H      -2.599300     3.164800    -2.337500
C      -0.114400     1.270200    -4.608600
C       0.843600     0.254000    -4.630600
H       1.591400     0.301200    -4.047100
C       0.715400    -0.826200    -5.496500
H       1.377100    -1.509200    -5.505500
C      -0.368800    -0.908600    -6.342500
H      -0.454000    -1.645400    -6.935600
C      -1.322100     0.072300    -6.327000
H      -2.070200     0.010200    -6.908900
C      -1.203400     1.162800    -5.464200
H      -1.872300     1.837600    -5.461500
C      -0.469100     1.948000    -1.872200
C      -0.229900     2.643600    -0.685400
H       0.264000     3.454000    -0.706400
C      -0.707000     2.161200     0.522600
H      -0.535600     2.640700     1.325000
C      -1.435100     0.979900     0.566900
H      -1.754200     0.648300     1.397200
C      -1.693300     0.291300    -0.598400
H      -2.199700    -0.512200    -0.569900
C      -1.215900     0.767700    -1.816800
H      -1.398700     0.287600    -2.615400
H       2.369000     2.400800    -1.251200
H       2.741700     3.775600    -0.970200
H       2.667500     2.096200    -3.795900
