61
Refcode: VEZWUU_comp_0 | Dataset: tmCAT | Charge: 0 | Potential Spins: [1, 3, 5]
V       1.526000    11.754800     3.147700
N       3.124400    16.812800     5.461800
C       4.963000    17.548100     8.590800
O       2.449100    10.888500     4.406000
O       2.626100    11.834200     2.001800
C       3.796500    10.454500     4.320500
H       4.138900    10.463600     5.161900
H       3.814700     9.500700     3.948900
H       4.318600    11.012600     3.665000
N       3.753700    16.630500     6.685100
H       3.795300    15.862200     7.007300
C       5.035400    16.352400     9.285000
H       4.621800    15.591900     9.007600
O       1.536800    13.525600     3.726900
O      -0.119600    11.756500     4.703000
H      -0.228700    12.344500     5.007100
C      -0.436700    10.701200     5.595500
H      -0.401200     9.909800     5.123200
H       0.250600    10.645200     6.336300
H      -1.306900    10.853800     6.013700
C       5.735600    16.276100    10.480000
H       5.779700    15.409100    10.994900
N       0.036600    12.494100     1.838400
O       0.461300    10.206800     2.628800
O       4.106100    18.857700     6.798400
C       6.371600    17.398600    10.984600
H       6.859600    17.316400    11.743400
N      -0.949300    11.590100     1.446500
C       6.312800    18.591000    10.303200
H       6.665600    19.380100    10.646500
C       5.611400    18.671400     9.108200
H       5.552100    19.435100     8.672100
C       4.235400    17.734400     7.300300
C       2.692900    15.751600     4.906400
H       2.758800    14.909000     5.278100
C       2.061800    15.827300     3.583000
C       2.068900    16.996300     2.832600
H       2.429900    17.778500     3.226200
C       1.541300    17.072000     1.554400
C       0.902600    15.944400     1.053000
H       0.454500    16.007000     0.193600
C       0.863800    14.741600     1.771800
C       1.506500    14.663100     3.027100
C       1.659800    18.334900     0.742000
H       1.083100    19.007700     1.111100
H       1.404600    18.158000    -0.165200
H       2.567800    18.645100     0.764000
C       0.027200    13.662700     1.299900
H      -0.649500    13.849100     0.554900
C      -0.644300    10.431400     1.955300
C      -1.608600     9.317000     1.818200
C      -2.821300     9.521100     1.164000
H      -3.024100    10.323300     0.825900
C      -3.727700     8.492400     1.044000
H      -4.595400     8.654400     0.580700
C      -3.440900     7.255100     1.593700
H      -4.039000     6.551400     1.509900
C      -2.261800     7.047400     2.271300
H      -2.052900     6.248500     2.593900
C      -1.344500     8.081600     2.371900
H      -0.564200     7.907500     2.761600
