48
Refcode: VIBQIG_comp_0 | Dataset: tmCAT | Charge: unknown | Potential Spins: [1, 3, 5]
Ag     -0.021000     2.951700     3.229700
Br      2.064200     2.460000     4.356900
C      -3.334500     3.875700     5.265400
C      -0.195300     2.401600    -0.063300
C       0.511900     1.708800    -0.970200
C      -1.514100     2.086400     0.107800
C      -2.620800     6.571100     5.257700
C      -0.118100     0.723900    -1.711400
H       0.364400     0.200300    -2.341600
C      -3.674000     3.005700     0.939100
C      -4.056100     3.660600     2.033700
N      -2.332700     2.754500     1.100200
C      -3.005700     5.962100     6.443400
N      -2.176500     1.181900    -0.587900
N      -2.954300     3.808400     2.847200
C      -3.354700     4.620900     6.427900
C      -2.953100     4.535600     4.104100
C      -2.578300     5.889800     4.069700
C      -1.458600     0.530200    -1.508100
C      -2.188400     6.589100     2.769400
C      -3.665100     2.390100     5.283200
C      -1.851100     3.240400     2.294900
C      -2.497400     1.648100     5.958900
H      -2.690100     0.687800     5.982200
H      -2.384700     1.981300     6.873500
H      -1.674500     1.802400     5.451000
C      -4.987000     2.065100     5.961100
C      -3.312700     7.452600     2.280400
H      -4.132900     6.919100     2.218200
H      -3.088800     7.812100     1.396900
H      -3.452600     8.192900     2.907200
C      -0.954800     7.416500     2.865000
H      -0.215600     6.864900     3.195000
H      -1.108100     8.160100     3.484000
H      -0.728200     7.769400     1.979300
H      -2.989300     6.402000     7.434700
H      -4.712300     4.038200     2.233800
H      -3.657700     4.366500     7.268000
H      -4.302800     2.675700     0.155600
H      -2.366600     7.518300     5.189900
H      -3.720900     2.035500     4.278600
H       0.096200     3.053300     0.333400
H      -1.982900     0.032800    -1.900400
H       1.262000     1.854900    -1.022400
H      -1.945700     5.926000     2.178200
H      -5.088800     2.396600     6.545700
H      -5.950100     2.495100     5.434400
H      -5.451700     1.132700     5.723300
