122
Refcode: VIGXER_comp_0 | Dataset: tmCAT | Charge: 0 | Potential Spins: [1, 3, 5]
Rh      1.809700    -0.080600    13.795600
P       0.036500    -0.303900    12.440700
P       2.472900    -2.032900    12.959600
C       1.588800     4.119600    12.397300
C       2.638000     2.227900    14.107800
C       4.247800     3.685600    12.495200
C       2.998300     4.782300    14.583600
C       1.706800     4.371700    11.022900
H       2.540100     4.271900    10.622800
C       2.401900     0.062900    16.038300
H       2.363700    -0.591200    16.699200
C       5.273300     4.619200    12.694100
H       5.176900     5.256500    13.365700
C       4.203600    -2.015200    12.281800
H       4.773100    -1.676800    13.003200
C       1.187500     0.540200    10.058100
H       1.987800     0.693400    10.584500
H       1.194900    -0.385100     9.767200
C       3.667900     1.285900    14.298100
H       4.456000     1.376700    13.811800
C      -0.048400     0.782000    10.937200
H      -0.006800     1.711400    11.246700
C       0.303300     4.336300    12.925700
H       0.177500     4.232300    13.841400
C       4.357800    -1.025800    11.122100
H       3.811600    -1.320300    10.377100
H       4.035200    -0.153900    11.401800
C       1.341700     0.937100    15.833500
H       0.569600     0.863700    16.345500
C       3.543400     0.199100    15.210000
H       4.224200    -0.432800    15.263300
C       4.468700     2.762700    11.465400
H       3.811500     2.128700    11.288500
C       1.444400     1.941100    14.838500
H       0.686900     2.445100    14.649900
C      -1.651300    -0.103700    13.188100
H      -2.307800    -0.405300    12.525700
C       1.381400    -2.607000    11.581100
H       1.755800    -2.327500    10.730900
H       1.332700    -3.575800    11.584700
C       2.493000    -3.518100    14.072600
H       2.731900    -4.286700    13.513800
C       3.545600    -3.432200    15.179500
H       3.327600    -2.701000    15.779100
H       4.414800    -3.251000    14.787600
C       1.210800     1.450400     8.833200
H       1.293400     2.374200     9.119000
H       1.983600     1.236200     8.287800
C      -0.788200     4.698800    12.142400
H      -1.626900     4.800800    12.532700
C       5.809000    -0.901400    10.662900
H       5.849100    -0.326800     9.882200
H       6.331800    -0.486000    11.366900
C       6.430900     4.626400    11.922800
H       7.083200     5.269600    12.081400
C      -0.021600    -2.019900    11.744900
H      -0.540100    -2.588700    12.335800
H      -0.464700    -2.002100    10.882500
C       3.686000     4.488100    15.759600
H       4.004200     3.624900    15.890700
C       2.549400     6.087500    14.460200
H       2.086300     6.329700    13.691500
C       5.625600     2.750400    10.696500
H       5.732900     2.112500    10.028600
C       3.602400    -4.742700    15.969300
H       3.884100    -5.461500    15.381800
H       4.256600    -4.663200    16.681800
C       4.788200    -3.376100    11.883900
H       4.716800    -3.991100    12.630300
H       4.282700    -3.742300    11.142100
C       0.625800     4.767700    10.224800
H       0.753800     4.935100     9.319400
C       6.624600     3.693100    10.926400
H       7.404900     3.692900    10.418900
C      -0.628200     4.908700    10.779800
H      -1.356100     5.141100    10.249900
C      -1.292100     1.542500     8.856000
H      -2.084400     1.382900     8.320900
H      -1.303700     2.471000     9.136400
C      -1.944500     1.371000    13.493000
H      -1.269000     1.710800    14.101000
H      -1.891700     1.883200    12.670400
C      -1.827700    -0.967700    14.444100
H      -1.131000    -0.751300    15.083900
H      -1.734100    -1.902700    14.205600
C      -1.329500     0.639900    10.096700
H      -1.430400    -0.283900     9.819500
H      -2.097300     0.873500    10.640200
C       1.117700    -3.819600    14.677000
H       0.461800    -3.904200    13.966900
H       0.846200    -3.085400    15.251100
C      -3.200800    -0.745200    15.095000
H      -3.892800    -1.081100    14.503600
H      -3.246700    -1.247900    15.923800
C       6.414300    -2.255400    10.320100
H       7.356700    -2.146300    10.117500
H       5.976500    -2.615000     9.533700
C       2.239700    -5.078100    16.566100
H       2.286100    -5.938900    17.011200
H       2.006400    -4.409700    17.229000
C      -0.051400     1.288800     8.006000
H      -0.086200     0.390300     7.641300
H      -0.034400     1.913400     7.264900
C      -3.325600     1.564200    14.118100
H      -3.456100     2.501000    14.332800
H      -4.008200     1.302700    13.480700
B       2.854200     3.687300    13.351700
C       3.912400     5.448300    16.744000
H       4.384000     5.218200    17.511300
C      -3.462400     0.727000    15.386500
H      -2.831500     1.041500    16.052700
H      -4.357500     0.830600    15.747800
C       1.162100    -5.122000    15.493500
H       0.299100    -5.267100    15.913300
H       1.333500    -5.867500    14.897400
C       3.446800     6.731400    16.592600
H       3.590700     7.370100    17.253400
C       6.256000    -3.230400    11.480400
H       6.768100    -2.912900    12.239900
H       6.606600    -4.096900    11.222300
C       2.764100     7.052100    15.445800
H       2.443600     7.917000    15.324300
