65
Refcode: VIGYUG_comp_0 | Dataset: tmCAT | Charge: 0 | Potential Spins: [1, 3, 5]
C      -2.134200     6.988100     9.502000
C      -3.987800     8.105400     8.974500
H      -4.525100     8.222400     8.152000
H      -4.124700     8.887500     9.564500
C      -4.352300     6.801400     9.691000
H      -4.942700     6.990100    10.475100
C      -4.995700     5.780000     8.782900
C      -4.279500     4.855500     8.038300
H      -3.335200     4.807100     8.132900
C      -4.927900     3.998700     7.154600
H      -4.423400     3.383000     6.634800
C      -6.293500     4.040100     7.030700
H      -6.737500     3.457700     6.426600
C      -7.021300     4.941300     7.797000
H      -7.968100     4.958500     7.729300
C      -6.378800     5.812300     8.659000
H      -6.886200     6.435000     9.167300
C      -0.646900     6.839800     9.473900
C       0.030800     8.196200     9.669300
H      -0.222400     8.565600    10.541500
H      -0.254600     8.808800     8.959200
H       1.004000     8.084200     9.632200
C      -0.115300     5.867800    10.500700
C       1.567500     4.634500    11.295100
H       2.375400     4.836400    11.831500
H       1.728700     3.813000    10.767600
C       0.333900     4.480100    12.194200
H       0.105300     3.511200    12.290000
C       0.526500     5.094700    13.555500
C       0.075400     6.367400    13.894100
H      -0.404200     6.885200    13.258000
C       0.325400     6.885200    15.161000
H       0.013900     7.754100    15.385800
C       1.020200     6.145400    16.089500
H       1.171900     6.495600    16.960500
C       1.502200     4.876700    15.751000
H       1.991400     4.366100    16.385800
C       1.261200     4.375100    14.490500
H       1.603300     3.520300    14.256800
C      -0.331700     6.245300     8.100900
C      -0.274900     4.529600     6.673100
H      -1.046700     4.088500     6.237600
H       0.500600     3.915900     6.651400
C       0.062000     5.874900     5.970600
H       0.982400     5.826500     5.582400
C      -0.923000     6.232200     4.885100
C      -0.502200     6.369400     3.574700
H       0.423400     6.333100     3.362700
C      -1.446700     6.563200     2.563200
H      -1.163600     6.639900     1.660300
C      -2.766600     6.641900     2.865900
H      -3.403100     6.761000     2.171100
C      -3.190600     6.549100     4.176300
H      -4.113800     6.629800     4.387000
C      -2.263000     6.340200     5.185200
H      -2.553300     6.269500     6.088100
Cl     -4.980200     4.961000    12.117500
Cl     -2.435800     3.541100    13.351600
N      -3.015100     6.337100    10.150600
N      -0.714200     5.165400    11.392300
N       0.044100     6.862000     7.082000
O      -2.568900     7.928700     8.656100
O       1.222700     5.750800    10.432200
O      -0.596900     4.912100     8.038900
Pd     -2.730600     5.044700    11.689500
