60
Refcode: VIKPOW_comp_0 | Dataset: tmCAT | Charge: unknown | Potential Spins: [1, 3, 5]
Pd      8.210100     5.145200     1.918500
Cl      7.796900     7.461200     2.233900
Cl     10.482100     5.353400     2.318000
S       8.327200     1.048300    -1.244600
O       9.132400     0.015700    -1.829600
O       7.346000     0.744500    -0.252500
N       8.827200     2.244600     2.094900
H       9.129700     1.551300     1.719100
N       8.883500     3.211900     0.033300
H       8.902100     3.886300    -0.468700
N       9.433800     2.044500    -0.520400
H      10.122900     2.196900    -0.985500
N       5.212200     4.491200     1.824300
C       8.655500     3.301400     1.357200
C       8.515100     2.097200     3.517100
H       7.872500     2.815700     3.782700
C       9.775300     2.222100     4.368900
H      10.468500     1.603900     4.026500
H      10.128000     3.144500     4.304200
C       9.476100     1.892600     5.828800
H      10.314900     1.932500     6.353800
H       8.852400     2.568400     6.196800
C       8.861300     0.513200     5.967400
H       8.666600     0.332200     6.921000
H       9.503800    -0.169200     5.649500
C       7.576000     0.417200     5.158500
H       6.907900     1.050700     5.522900
H       7.204800    -0.497800     5.235800
C       7.838400     0.739100     3.692700
H       6.979200     0.736600     3.200300
H       8.414400     0.035100     3.302300
C       7.534800     1.918900    -2.555900
C       6.188100     2.252100    -2.445200
H       5.708100     2.069800    -1.646500
C       5.561100     2.856800    -3.527500
H       4.640300     3.085100    -3.473400
C       6.270600     3.125700    -4.680600
H       5.831800     3.531600    -5.418600
C       7.621400     2.808600    -4.772800
H       8.104400     3.009700    -5.565100
C       8.260300     2.199700    -3.707700
H       9.182500     1.976000    -3.762800
C       6.323000     4.760200     1.781300
C       3.832200     4.040200     1.992100
H       3.211200     4.749400     1.657000
C       3.635700     2.769100     1.169500
H       2.674900     2.531300     1.160100
H       3.916800     2.938500     0.234400
C       4.436600     1.601800     1.730800
H       4.239300     0.785400     1.207000
H       5.403900     1.794900     1.644100
C       4.099000     1.359700     3.193300
H       4.653100     0.617400     3.541300
H       3.147600     1.095800     3.273000
C       4.349400     2.611300     4.020700
H       5.317300     2.819700     4.015900
H       4.077500     2.444700     4.958100
C       3.572800     3.804300     3.474000
H       2.604900     3.652400     3.612800
H       3.827400     4.616000     3.980800
