126
Refcode: VILFII_comp_0 | Dataset: tmCAT | Charge: unknown | Potential Spins: [1, 3, 5]
Ru      4.076000     2.168900     4.454500
Cl      1.807000     1.603600     4.895900
Cl      6.288100     2.108100     3.593200
O       3.415600    -1.299000     0.135100
O       2.831900     2.605100    10.262000
N       3.543000     1.622700     1.620900
N       3.435000     3.776600     1.774200
N       4.559800     1.636100     7.498400
N       5.589100     0.177600     6.266300
C       3.576900     2.656300     2.486100
C       3.588700     2.047400     0.217200
H       2.950800     1.557100    -0.323100
H       4.477100     1.938000    -0.157000
C       3.212700     3.508100     0.328600
H       3.782000     4.063400    -0.226300
H       2.285900     3.653400     0.080300
C       3.180700     5.104500     2.252500
C       1.850700     5.555300     2.329100
C       1.622700     6.880900     2.646700
H       0.751100     7.203500     2.675900
C       2.677200     7.728300     2.920500
H       2.508100     8.616300     3.135900
C       3.987000     7.271100     2.876700
H       4.682800     7.854100     3.077500
C       4.270200     5.959700     2.537200
C       5.713000     5.440300     2.517100
H       5.739800     4.620100     3.053800
C       6.194800     5.087300     1.109800
H       5.727100     4.309600     0.797700
H       7.137800     4.906300     1.131700
H       6.022400     5.823400     0.518400
C       6.690700     6.436300     3.148700
H       6.755100     7.216400     2.592000
H       7.556200     6.027400     3.227200
H       6.374400     6.688400     4.019400
C       0.657000     4.640600     2.049800
H       0.999200     3.750500     1.821700
C      -0.133700     5.173000     0.843300
H      -0.536900     6.013300     1.071500
H      -0.817300     4.543100     0.606000
H       0.461500     5.294300     0.100400
C      -0.276800     4.499200     3.261900
H       0.200100     4.086900     3.986500
H      -1.029800     3.954800     3.022700
H      -0.582200     5.368500     3.533800
C       3.777300     0.233000     1.984100
H       3.624600     0.112300     2.933300
H       4.697600    -0.004000     1.792500
C       2.865000    -0.655300     1.217500
C       1.535800    -0.865000     1.248500
H       0.935000    -0.533400     1.876400
C       1.228500    -1.698000     0.127800
H       0.388000    -2.016100    -0.116800
C       2.387200    -1.930900    -0.503800
H       2.478600    -2.450700    -1.270400
C       4.760900     1.232500     6.235300
C       5.177300     0.737500     8.485900
H       4.519200     0.152200     8.893000
H       5.634000     1.236100     9.181400
C       6.162600    -0.045000     7.624400
H       7.060900     0.313100     7.693700
H       6.172200    -0.985700     7.858000
C       5.673700    -0.836000     5.249600
C       4.524000    -1.610400     4.974000
C       4.608100    -2.574500     3.961000
H       3.862900    -3.091200     3.756500
C       5.781900    -2.765300     3.261900
H       5.811100    -3.383500     2.566400
C       6.914800    -2.043100     3.590400
H       7.706200    -2.201600     3.128600
C       6.899600    -1.086300     4.594300
C       8.166200    -0.349200     5.003200
H       7.915500     0.491700     5.437600
C       8.942400    -1.228500     6.021700
H       9.279000    -2.010800     5.578200
H       8.352900    -1.491500     6.731800
H       9.676800    -0.725400     6.383200
C       9.082500    -0.038100     3.816800
H       9.453600    -0.854600     3.475400
H       9.793700     0.539200     4.105200
H       8.576900     0.397100     3.126800
C       3.261700    -1.514700     5.822800
H       3.119600    -0.570200     6.040000
C       3.451900    -2.270300     7.137000
H       3.570900    -3.205700     6.954500
H       2.677500    -2.148400     7.691900
H       4.226400    -1.931500     7.593300
C       2.004900    -2.024500     5.127300
H       1.915900    -1.596300     4.273100
H       1.236500    -1.824200     5.667600
H       2.070400    -2.974500     5.003200
C       3.510900     2.570400     7.932900
H       2.940300     2.779900     7.175400
H       3.923400     3.394500     8.232200
C       2.675000     2.016400     9.033500
C       1.751100     1.044200     9.104700
H       1.466700     0.490500     8.412900
C       1.291500     1.032200    10.468200
H       0.649800     0.465300    10.831500
C       1.956200     1.981600    11.107100
H       1.844100     2.194800    12.005200
C       4.067300     3.831600     5.205800
C       2.855600     4.678100     5.395700
H       2.032800     4.513500     4.995900
C       3.105600     5.726000     6.229800
C       4.550000     5.739500     6.532800
C       5.338100     6.649000     7.219200
H       4.956600     7.395900     7.622600
C       6.720800     6.424700     7.294000
H       7.258700     7.037400     7.741200
C       7.302900     5.299200     6.709900
H       8.219900     5.161600     6.773800
C       6.499200     4.376200     6.029000
H       6.879200     3.617700     5.647600
C       5.134700     4.600400     5.925000
C       2.083300     6.587100     6.850400
C       1.000300     7.062300     6.118500
H       0.951600     6.881900     5.207700
C      -0.019800     7.807100     6.722700
H      -0.715600     8.155200     6.213400
C       0.021500     8.018100     8.091700
H      -0.667700     8.482500     8.509700
C       1.084000     7.542300     8.840000
H       1.105700     7.684800     9.758200
C       2.116200     6.853100     8.224900
H       2.840500     6.563000     8.732400
