63
Refcode: VIRFEI_comp_0 | Dataset: tmCAT | Charge: unknown | Potential Spins: [1, 3, 5]
Ru      4.317600     7.430800    17.911000
Cl      2.840900     6.551100    16.311600
Cl      5.352100     7.913300    19.986200
O       2.763400     8.955700    18.495900
N       6.654300     6.574800    16.355000
N       5.919600     4.984200    17.668100
C       5.007500     8.905100    17.050600
C       4.551000    10.203900    17.628400
C       3.352200    10.185100    18.370100
C       2.850800    11.355300    18.945800
H       2.050700    11.345200    19.419100
C       3.571900    12.538600    18.796200
H       3.233400    13.328800    19.148600
C       4.774200    12.550100    18.138600
H       5.265400    13.337500    18.077100
C       5.252700    11.394300    17.564900
H       6.070600    11.413100    17.124400
C       5.698100     6.277200    17.276000
C       6.662000     7.734900    15.548800
C       5.888200     8.879100    15.884800
C       5.926400     9.972800    15.001800
H       5.413000    10.724000    15.190200
C       6.712000     9.958300    13.852300
H       6.729000    10.695100    13.286900
C       7.457800     8.853100    13.565500
H       7.966900     8.845900    12.786900
C       7.483200     7.732000    14.397300
C       8.352900     6.554600    14.022400
H       9.261600     6.719300    14.319500
H       8.366500     6.459300    13.057400
C       7.848100     5.268800    14.645300
H       8.496300     4.560900    14.508000
H       7.014900     5.004400    14.225200
C       7.630000     5.488400    16.130700
H       8.482700     5.732600    16.546600
C       6.997900     4.311000    16.923600
H       7.658000     3.967100    17.560800
C       6.419300     3.150900    16.140900
H       5.735500     3.473100    15.532400
H       7.115900     2.726100    15.616400
C       5.820300     2.155500    17.103900
H       5.271400     1.527000    16.610100
H       6.536400     1.655600    17.528000
C       4.980300     2.805600    18.171300
C       4.124300     2.032700    18.956100
H       4.103900     1.112400    18.818800
C       3.303000     2.578800    19.927200
H       2.748900     2.037000    20.439400
C       3.325000     3.946900    20.121900
H       2.758300     4.334100    20.750900
C       4.186200     4.743000    19.386300
H       4.210000     5.660300    19.540000
C       5.012600     4.192500    18.423300
C       1.459300     8.796800    19.171200
H       1.436400     9.377500    19.960000
C       1.383800     7.359300    19.615800
H       2.106700     7.172900    20.220200
H       1.447400     6.784300    18.851600
H       0.547200     7.207600    20.062400
C       0.358000     9.195500    18.241000
H       0.456500    10.121600    18.007400
H      -0.488700     9.062600    18.673300
H       0.399600     8.658100    17.448100
