55
Refcode: VISDOS_comp_1 | Dataset: tmCAT | Charge: 0 | Potential Spins: [2, 4, 6]
Cu      4.164800    17.291000    12.417000
O       2.245100    16.834700    12.388800
N       6.169600    17.434100    12.631300
O       0.168900    17.524600    12.504200
O       3.984600    17.784900    14.285600
O       3.778800    19.235300    11.379400
N       4.375200    16.225200    10.774600
C       1.332900    17.526600    12.921000
O       2.894800    18.155400    16.150500
C       2.922100    18.080400    14.903800
N       8.062800    17.364000    13.788900
H       8.593400    17.346000    14.465600
C       7.247500    17.398200    11.723800
C       6.729200    17.407400    13.834900
H       6.243600    17.418000    14.626600
N       4.502700    15.690800     8.634600
H       4.413600    15.747900     7.781200
C       6.134400    12.972900    11.274700
C       8.437500    17.354200    12.464600
C       5.036000    15.008900    10.667000
C       9.728600    17.330600    10.467300
C       7.307500    17.435700    10.342600
H       6.521400    17.484800     9.847500
C       1.673400    18.414600    14.117000
H       1.134300    19.134300    14.353000
C       9.684900    17.310300    11.841200
H      10.467500    17.268900    12.343600
C       5.549300    14.177900    11.648700
H       5.503400    14.422000    12.545700
C       8.535800    17.401300     9.691300
C       4.067000    16.577500     9.540000
H       3.600500    17.353700     9.323300
C       5.125400    14.657700     9.330600
C       6.202900    12.619900     9.914100
C       5.712800    13.467800     8.937200
H       5.776200    13.242700     8.036600
C       8.562000    17.437200     8.186700
H       7.663900    17.484800     7.851400
H       8.987000    16.642000     7.855000
H       9.052700    18.209300     7.892500
C      11.090400    17.301800     9.764000
H      11.789500    17.253500    10.420100
H      11.196500    18.098900     9.239800
H      11.138200    16.534100     9.190200
C       6.648200    12.040200    12.360500
H       6.625600    12.492400    13.206700
H       7.552200    11.783300    12.158400
H       6.094200    11.256500    12.399200
C       6.796000    11.278400     9.500100
H       7.100500    10.809500    10.279600
H       7.536300    11.426100     8.906900
H       6.126400    10.755500     9.052200
H       4.434100    19.635400    10.993800
H       3.348300    19.971900    11.668100
H       1.089700    17.764000    14.766500
