68
Refcode: VISXUR_comp_0 | Dataset: tmCAT | Charge: unknown | Potential Spins: [1, 3, 5]
Zn      3.063900    11.369200     6.656100
N       2.119300    12.745000     7.687500
H       2.275600    12.600900     8.542100
N       0.582900    13.984100     6.477100
N       1.258900    14.747700     8.558800
O       3.738900    10.681600     8.302300
C       4.591200     9.670100     8.494300
C       4.108800     8.351800     8.699000
C       5.036500     7.326400     8.874000
H       4.716300     6.439100     8.984100
C       6.410600     7.544900     8.894400
C       6.845900     8.846500     8.761800
H       7.781200     9.012200     8.795600
C       5.991100     9.930700     8.580300
C       2.604800     8.038400     8.786300
C       2.334000     6.572400     9.095200
H       1.370700     6.435500     9.211600
H       2.800900     6.320300     9.917800
H       2.655500     6.017700     8.353700
C       1.881500     8.337400     7.469300
H       1.902100     9.301500     7.296500
H       0.951600     8.036000     7.532600
H       2.329200     7.864300     6.737500
C       1.963500     8.859700     9.909600
H       2.147500     9.810600     9.766200
H       2.337100     8.581100    10.771400
H       0.994600     8.710800     9.909100
C       6.546200    11.366600     8.530700
C       8.063100    11.387100     8.710700
H       8.486100    10.896000     7.974500
H       8.296600    10.962000     9.562500
H       8.380100    12.314000     8.711100
C       5.955200    12.202300     9.671900
H       6.248600    13.132800     9.582000
H       6.262300    11.844500    10.530900
H       4.976900    12.163900     9.631800
C       6.251700    12.064200     7.197400
H       5.298200    12.286400     7.149100
H       6.486800    11.466300     6.458100
H       6.782000    12.885500     7.134000
C       7.359800     6.399500     9.088100
H       6.903300     5.673100     9.560300
H       8.129800     6.699700     9.614500
H       7.667800     6.078900     8.215000
C       1.344600    13.796800     7.587200
C       0.426500    12.919100     5.517000
H       1.184300    12.926300     4.896100
H      -0.407000    13.050000     5.017400
H       0.395800    12.059400     5.985800
C       0.327600    15.318000     5.937900
H       0.692500    15.992800     6.549000
H      -0.638500    15.452500     5.842800
H       0.757400    15.403300     5.060700
C      -0.033200    15.294000     8.969100
H      -0.732600    14.965000     8.366700
H      -0.001000    16.272500     8.929900
H      -0.230800    15.010700     9.885300
C       2.290000    14.808900     9.578800
H       2.128600    14.111400    10.249300
H       2.268900    15.687800    10.011000
H       3.166900    14.668500     9.166100
C       3.233700    10.756700     4.796600
H       2.331600    10.519000     4.467100
H       3.553900    11.519100     4.250500
C       4.098000     9.649700     4.560300
H       5.018500     9.970300     4.456300
H       3.818800     9.186200     3.743500
H       4.051400     9.031400     5.318500
