70
Refcode: VITQUK_comp_0 | Dataset: tmCAT | Charge: unknown | Potential Spins: [1, 3, 5]
Zr      1.903300     8.398200     9.125000
Cl      2.602700     9.958400    10.845500
Cl     -0.261000     7.802000    10.007900
C       2.491400     5.880800     9.985300
C       1.671000     5.106700    10.831100
H       1.826500     5.074000    11.747400
C       0.660700     4.420700    10.280600
H       0.123400     3.890800    10.824400
C       0.394800     4.478600     8.911200
H      -0.331300     4.002800     8.575600
C       1.159900     5.207400     8.045300
H       0.950600     5.235100     7.139100
C       2.290600     5.928700     8.555500
C       3.284600     6.806000     7.971400
C       4.139300     7.230200     9.048800
C       5.267000     8.115100     9.142800
H       5.599700     8.528000     8.379200
C       5.843600     8.346700    10.351100
H       6.574400     8.920700    10.399800
C       5.364700     7.736200    11.537600
H       5.810100     7.888500    12.339800
C       4.271100     6.936900    11.529200
H       3.944800     6.564300    12.314600
C       3.638800     6.685200    10.280600
C       3.284400     7.367400     6.524800
C       4.660000     7.723600     6.006300
H       5.089600     8.320300     6.623800
H       4.578300     8.151600     5.152100
H       5.185300     6.924300     5.915600
C       2.650500     6.413300     5.492700
H       1.771800     6.162800     5.786400
H       3.195200     5.626600     5.407200
H       2.590000     6.855100     4.641900
C       2.398300     8.608500     6.769900
C       0.984500     8.608500     6.880600
H       0.387600     7.956500     6.454300
C       0.561600     9.830800     7.481400
C       1.745100    10.554500     7.778400
H       1.780600    11.462100     8.147700
C       2.843000     9.806800     7.358900
H       3.766400    10.134100     7.335400
C      -0.878100    10.268800     7.639200
H      -1.420400     9.453100     7.622400
C      -1.193700    10.978700     8.975000
H      -0.787300    10.472700     9.695000
H      -2.152400    10.964900     9.110900
C      -0.703400    12.447700     9.069000
H       0.276600    12.450200     9.060600
C      -1.182900    13.029200    10.416600
H      -0.840400    12.493000    11.136500
H      -2.142500    13.024200    10.443400
H      -0.865500    13.930500    10.508900
C      -1.188400    13.216800     7.889200
H      -0.816200    14.111700     7.921100
H      -2.153800    13.294800     7.939600
C      -0.816000    12.578600     6.576900
H       0.150700    12.558400     6.496300
H      -1.164300    13.118600     5.850200
C      -1.363900    11.148700     6.449300
H      -2.336200    11.217900     6.539900
C      -1.104100    10.540700     5.069800
H      -0.139000    10.409800     4.964100
C      -1.805700     9.181200     4.868500
H      -1.532700     8.574500     5.559900
H      -1.563600     8.821200     4.012600
H      -2.757000     9.303300     4.907100
C      -1.598200    11.421800     3.928700
H      -1.410700    10.995100     3.089600
H      -1.151300    12.270200     3.963900
H      -2.544700    11.556500     4.015900
