66
Refcode: VOFCUR_comp_0 | Dataset: tmCAT | Charge: unknown | Potential Spins: [1, 3, 5]
Ni      6.424200     3.965600     7.934400
P       6.256900     6.107800     8.200600
O       4.984700     6.349800     9.225900
O       7.648300     3.965600     6.490500
C       5.034900     3.965600     9.203200
C       4.476800     5.144000     9.705800
C       3.461500     5.178100    10.648200
H       3.114300     6.004100    10.964000
C       2.966000     3.965600    11.118200
H       2.276100     3.965600    11.771700
C       5.776200     7.125300     6.769800
H       5.474000     8.020200     7.098200
C       4.606500     6.442600     6.050400
H       4.295600     7.014000     5.317400
H       3.873500     6.296700     6.684400
H       4.902900     5.581000     5.689800
C       6.974200     7.321700     5.834400
H       6.690000     7.820100     5.039900
H       7.324100     6.447300     5.563600
H       7.674600     7.823500     6.301400
C       7.609500     6.979100     9.070800
H       8.438700     6.891900     8.518700
C       7.332500     8.469500     9.275500
H       8.088000     8.880800     9.744800
H       6.517500     8.580000     9.808400
H       7.214200     8.902300     8.404200
C       7.861000     6.285100    10.416000
H       8.648500     6.679700    10.845100
H       8.014500     5.328900    10.266600
H       7.079300     6.403600    10.995500
C       8.963300     3.965600     6.628600
C       9.795500     3.965600     5.492300
H       9.404800     3.965600     4.626200
C      11.179600     3.965600     5.619900
H      11.721200     3.965600     4.839200
C      11.781400     3.965600     6.861000
H      12.727700     3.965600     6.939500
C      10.981700     3.965600     7.994500
H      11.383800     3.965600     8.855100
C       9.596800     3.965600     7.881700
H       9.066500     3.965600     8.670000
P       6.256900     1.823400     8.200600
O       4.984700     1.581300     9.225900
C       4.476800     2.787200     9.705800
C       3.461500     2.753100    10.648200
H       3.114300     1.927000    10.964000
C       5.776200     0.805800     6.769800
H       5.474000    -0.089100     7.098200
C       4.606500     1.488500     6.050400
H       4.295600     0.917200     5.317400
H       3.873500     1.634500     6.684400
H       4.902900     2.350200     5.689800
C       6.974200     0.609400     5.834400
H       6.690000     0.111000     5.039900
H       7.324100     1.483800     5.563600
H       7.674600     0.107700     6.301400
C       7.609500     0.952100     9.070800
H       8.438700     1.039200     8.518700
C       7.332500    -0.538400     9.275500
H       8.088000    -0.949700     9.744800
H       6.517500    -0.648900     9.808400
H       7.214200    -0.971200     8.404200
C       7.861000     1.646000    10.416000
H       8.648500     1.251500    10.845100
H       8.014500     2.602300    10.266600
H       7.079300     1.527600    10.995500
