78
Refcode: VOFMEL_comp_0 | Dataset: tmCAT | Charge: unknown | Potential Spins: [1, 3, 5]
Br      4.649800     3.097300     3.604300
Mn      4.632300     5.601000     4.215900
P       6.862800     5.570600     4.067100
O       4.633100     8.434100     4.730300
O       4.010000     6.309800     1.418600
N       5.062600     5.045800     6.130500
N       2.736500     5.191800     5.051100
H       2.725400     4.214600     5.116000
C       4.602900     7.332300     4.551500
C       4.258300     6.002700     2.522100
C       7.252300     4.385600     5.430400
H       7.185300     3.473100     5.108200
H       8.155900     4.531800     5.751300
C       6.274100     4.612100     6.535000
C       6.529400     4.387900     7.878000
H       7.379300     4.112400     8.137100
C       5.557700     4.563800     8.841700
C       4.293900     4.964100     8.385700
H       3.596900     5.081500     8.989900
C       4.086000     5.184900     7.043800
C       2.780600     5.625400     6.462800
H       2.045200     5.229800     6.955600
H       2.701100     6.591200     6.516800
C       1.402800     5.511600     4.425400
H       0.708900     5.257400     5.068400
C       1.243900     6.983800     4.145800
H       1.344200     7.477300     4.963300
H       0.371400     7.147000     3.779200
H       1.912600     7.264900     3.517800
C       1.217400     4.659300     3.199300
H       1.879800     4.890500     2.545300
H       0.341300     4.810400     2.835400
H       1.309400     3.733800     3.436400
C       5.796400     4.366000    10.331400
C       5.667700     5.722000    11.009700
H       6.310900     6.329300    10.636500
H       5.828600     5.625500    11.951700
H       4.783000     6.067900    10.870600
C       7.151800     3.767900    10.621300
H       7.220300     2.909700    10.196800
H       7.259900     3.665000    11.570000
H       7.837100     4.348400    10.282600
C       4.722600     3.448200    10.918100
H       3.856000     3.832900    10.768700
H       4.869500     3.346300    11.861200
H       4.769200     2.589100    10.492100
C       7.920200     7.095300     4.466700
H       7.378800     7.883400     4.252100
C       9.071400     7.056200     3.460600
H       8.850800     7.604500     2.690800
H       9.874500     7.416000     3.867900
C       9.317500     5.630000     3.017100
H       9.783800     5.145800     3.716900
H       9.875600     5.625600     2.223300
C       7.968100     4.935300     2.711200
H       8.091200     3.974200     2.857800
C       7.445000     5.118200     1.292600
C       7.489000     6.290200     0.613100
H       7.790600     7.061200     1.037700
C       7.077600     6.345400    -0.727600
H       7.069500     7.164500    -1.168500
C       6.712900     5.279200    -1.360200
H       6.528300     5.328100    -2.270800
C       6.593800     4.078500    -0.695600
H       6.247400     3.331000    -1.127100
C       7.004600     4.006000     0.639400
H       6.977600     3.190500     1.085200
C       8.271200     7.189700     5.925400
C       7.390600     7.763600     6.824900
H       6.603000     8.147700     6.514500
C       7.666300     7.772800     8.174800
H       7.054700     8.145400     8.767600
C       8.807000     7.250600     8.638900
H       8.977800     7.263900     9.553300
C       9.711100     6.705400     7.804700
H      10.502400     6.350400     8.140900
C       9.455800     6.675500     6.422700
H      10.082800     6.309400     5.841500
