59
Refcode: VOGPAK_comp_0 | Dataset: tmCAT | Charge: 0 | Potential Spins: [1, 3, 5]
C      10.091600     7.131200     5.846500
C      11.073800     6.446000     5.672500
C      12.294200     5.717700     5.451300
C      13.340200     5.775000     6.352700
H      13.245100     6.288400     7.146200
C      14.525400     5.097300     6.114800
H      15.234900     5.153600     6.742600
C      14.676500     4.345500     4.981800
H      15.485700     3.868700     4.830800
C      13.661500     4.283600     4.066700
H      13.777500     3.780500     3.269100
C      12.476100     4.943400     4.293100
H      11.773400     4.875800     3.658000
C       9.748300    11.543300     6.155700
H       8.804000    11.841800     6.187100
H      10.294600    12.212500     6.638900
C      10.200000    11.479500     4.716600
H      11.141700    11.209200     4.680900
H      10.098300    12.362700     4.302600
H       9.655800    10.827200     4.230300
C      11.671400     9.573300     7.079100
H      11.804200     8.797100     7.678600
H      11.972200     9.303000     6.175600
C      12.573100    10.711800     7.562300
H      12.473800    11.482300     6.964800
H      13.505400    10.413300     7.559100
H      12.315200    10.968000     8.472000
C       9.383700    10.297900     8.706800
H      10.060400    10.886400     9.124000
H       8.527200    10.794400     8.684800
C       9.211000     9.062700     9.568400
H       8.503500     8.496800     9.191100
H       8.962600     9.331200    10.478200
H      10.050900     8.561500     9.594600
C       6.295100     7.203400     3.653800
H       5.714000     6.461000     3.349800
H       5.711600     7.974900     3.868600
C       7.240300     7.593000     2.519700
H       7.763000     8.378500     2.785900
H       6.719600     7.805100     1.717900
H       7.845800     6.846800     2.327900
C       5.857400     6.325900     6.347500
H       5.281000     7.124600     6.450200
H       5.295200     5.589100     5.998400
C       6.409600     5.929800     7.712100
H       6.979800     5.138600     7.615700
H       5.666700     5.725200     8.318000
H       6.934900     6.669400     8.079000
C       7.926200     5.081400     4.733400
H       8.612400     5.231500     4.036300
H       8.390000     4.738800     5.537300
C       6.972700     4.004800     4.238600
H       6.293700     3.829300     4.924100
H       7.472000     3.182700     4.055200
H       6.532600     4.309900     3.416900
Cl      6.714800     9.772500     6.138100
P       9.892900     9.931800     7.001500
P       7.172700     6.691900     5.151000
Pd      8.557900     8.317400     6.019700
