77
Refcode: VORRUS_comp_0 | Dataset: tmCAT | Charge: 0 | Potential Spins: [1, 3, 5]
Rh      1.813000     0.779600     2.965500
Cl      0.403300    -1.061000     2.639600
Cl      3.180100     2.658000     3.389600
Cl      2.005800    -0.029400    -0.212300
P       0.243600     2.211800     2.000900
P       3.103900    -0.443200     4.508100
O       0.697200     1.347500     4.837500
C       1.123200     0.881600     6.074500
C       2.191200    -0.012600     6.044300
C       2.621900    -0.561300     7.276600
H       3.340000    -1.183000     7.286700
C       2.013400    -0.204700     8.465900
H       2.320700    -0.567300     9.288500
C       0.954200     0.683100     8.445000
H       0.533600     0.923000     9.263100
C       0.487900     1.235700     7.253300
C      -0.709000     2.191300     7.295200
C      -1.968500     1.446700     7.805600
H      -2.718600     2.074700     7.861300
H      -1.788800     1.072000     8.692700
H      -2.193600     0.723000     7.184300
C      -0.385300     3.351700     8.253200
H       0.371500     3.865500     7.900200
H      -0.153000     2.992300     9.134500
H      -1.167300     3.936400     8.333900
C      -1.013000     2.741400     5.915200
C      -0.335700     2.309400     4.773600
C      -0.636600     2.795400     3.490100
C      -1.661100     3.718400     3.379600
H      -1.899300     4.051200     2.522300
C      -2.348100     4.169200     4.498000
H      -3.062100     4.787800     4.404800
C      -1.986100     3.713300     5.737300
H      -2.417600     4.075500     6.501800
C       0.689200     3.793700     1.111400
H      -0.142200     4.093500     0.642900
C       1.119200     4.954100     1.992700
H       1.951600     4.722800     2.454900
H       0.419500     5.140200     2.653600
H       1.263700     5.749600     1.438300
C       1.704500     3.493600     0.023300
H       1.815800     4.283700    -0.545800
H       1.388800     2.741700    -0.519100
H       2.563900     3.263200     0.433900
C      -1.074100     1.388900     0.937000
H      -0.646100     0.567900     0.559600
C      -2.260200     0.891600     1.785700
H      -2.771700     1.659300     2.114000
H      -1.922500     0.373400     2.546000
H      -2.839400     0.323500     1.235300
C      -1.565600     2.186300    -0.259300
H      -2.191800     1.640900    -0.780000
H      -0.803000     2.434900    -0.821400
H      -2.020000     2.996500     0.053000
C       3.243900    -2.294300     4.578200
H       3.951700    -2.521100     5.248000
C       1.968200    -2.992500     5.002600
H       1.242100    -2.745300     4.392900
H       1.735400    -2.722100     5.915100
H       2.101900    -3.963500     4.974100
C       3.705100    -2.838100     3.204100
H       3.844000    -3.806600     3.266200
H       4.545000    -2.403900     2.946500
H       3.019000    -2.648900     2.531300
C       4.821600     0.200900     4.786300
H       4.701800     1.147200     5.085800
C       5.647500    -0.467200     5.889600
H       5.761300    -1.418100     5.682500
H       5.184500    -0.372400     6.747800
H       6.527300    -0.037600     5.944100
C       5.628600     0.287600     3.498200
H       6.473900     0.753000     3.672300
H       5.116900     0.782500     2.824500
H       5.815800    -0.615700     3.167500
C       2.890900     0.273800     1.337000
H       3.548200     0.996500     1.173000
H       3.405400    -0.543100     1.556200
