47
Refcode: VOSLOE_comp_0 | Dataset: tmCAT | Charge: unknown | Potential Spins: [1, 3, 5]
Ti     -0.283900     2.745800     3.687300
Si      0.924800     3.029700     0.178300
C       0.969500     3.072700     2.012400
C       1.639000     3.315600     3.086200
C       2.972900     3.707500     3.520500
C       3.999100     3.964200     2.613600
C       5.271700     4.315000     3.045400
C       5.538800     4.420000     4.399300
C       4.541800     4.174000     5.312600
C       3.261800     3.826200     4.878200
C       0.372000     0.482500     3.272100
C       0.877500     0.853500     4.512700
C      -0.209800     1.073700     5.375000
C      -1.375100     0.834800     4.664300
C      -1.042100     0.490200     3.351100
C      -2.207400     3.759900     4.674500
C      -2.269200     4.009900     3.347300
C      -1.205000     4.830300     3.014800
C      -0.488800     5.055400     4.184100
C      -1.119400     4.377700     5.191600
C       2.325100     2.026800    -0.529900
C       1.005600     4.788900    -0.471300
C      -0.671900     2.222300    -0.363000
H       3.802300     3.887700     1.553900
H       6.051800     4.506900     2.325800
H       6.527000     4.693900     4.736900
H       4.750900     4.249700     6.368500
H       2.484400     3.646200     5.605500
H       0.955000     0.229900     2.399600
H       1.922800     0.955800     4.767400
H      -0.148900     1.376000     6.410500
H      -2.377400     0.902900     5.060400
H      -1.732500     0.272200     2.549900
H      -2.914200     3.162100     5.232300
H      -3.017900     3.633900     2.664600
H      -0.973900     5.219700     2.034100
H       0.404000     5.656300     4.279600
H      -0.802600     4.341300     6.223300
H       3.266800     2.465600    -0.235600
H       2.251300     2.017400    -1.607400
H       2.267600     1.014700    -0.156700
H       0.979700     4.774500    -1.550100
H       1.922800     5.252400    -0.138800
H       0.162100     5.349100    -0.096800
H      -1.509200     2.778700     0.030600
H      -0.707600     1.209000     0.008900
H      -0.722700     2.211700    -1.441800
