91
Refcode: VUBXAT_comp_0 | Dataset: tmCAT | Charge: 0 | Potential Spins: [1, 3, 5]
Pd      4.331900     7.019900    11.818100
C       3.096300     7.913800    13.156300
C       3.054100     7.772000    14.572700
H       3.664200     7.179900    14.995700
C       2.159000     8.464400    15.338200
H       2.169400     8.354800    16.281900
C       1.219900     9.338100    14.755900
C       0.298700    10.096800    15.533400
H       0.302800    10.004800    16.478800
C      -0.585600    10.951300    14.952900
H      -1.193700    11.443900    15.490600
C      -0.599200    11.104100    13.550200
H      -1.221100    11.697100    13.144300
C       0.282400    10.399800    12.771000
H       0.265800    10.520400    11.829000
C       1.213800     9.497400    13.334400
C       2.162900     8.755300    12.563800
C       2.257500     8.957000    11.066900
H       1.339200     9.098800    10.695300
C       3.108800    10.196300    10.782600
H       3.025900    10.439400     9.837300
H       4.046800    10.002900    10.989900
H       2.798600    10.940200    11.339200
C       1.826700     6.632100    10.464100
H       2.236100     5.800700    10.147300
H       1.084400     6.877900     9.873200
H       1.488000     6.502300    11.375200
C       3.222300     7.946900     9.042600
H       2.454600     8.312400     8.554500
H       3.492100     7.096100     8.636700
H       3.968100     8.580400     8.999800
C       7.308200     5.496800    12.699100
H       7.563900     6.060300    11.913000
C       8.455900     5.552100    13.697500
C      10.327100     6.656000    14.730200
H       9.922700     6.397300    15.596800
H      10.647300     7.588700    14.815900
C      11.516300     5.758300    14.464800
H      11.910500     5.987600    13.596500
H      11.222800     4.822800    14.452800
H      12.183600     5.883500    15.170400
C       9.284500     7.701100    12.704200
H       9.439800     8.556400    13.176900
H       8.393500     7.749900    12.276000
C      10.333000     7.538100    11.632100
H      10.234000     6.659700    11.209100
H      11.223900     7.608100    12.032900
H      10.221900     8.240600    10.957300
C       7.103700     4.065100    12.192100
H       7.067200     3.447300    12.964500
H       6.240200     4.007100    11.712600
C       8.219600     3.643400    11.267300
C       8.104100     2.334100    10.563600
C       7.053300     1.452900    10.786100
H       6.373300     1.685900    11.407700
C       6.978700     0.242200    10.121600
H       6.258500    -0.353600    10.292800
C       7.964300    -0.099400     9.201900
H       7.921100    -0.929900     8.742900
C       9.006500     0.774300     8.958700
H       9.672500     0.546900     8.319900
C       9.089000     1.972200     9.630000
H       9.818000     2.557800     9.462200
C       4.918100     4.817300    14.310600
C       5.584400     4.056800    15.274800
H       6.482100     4.265800    15.506000
C       4.935000     2.993300    15.901700
H       5.391000     2.486900    16.562700
C       3.627200     2.670100    15.560800
H       3.187000     1.944600    15.989000
C       2.968300     3.414100    14.594900
H       2.077500     3.193100    14.353400
C       3.605300     4.478500    13.976700
H       3.142700     4.984000    13.319000
C       6.287800     7.451500    14.570900
C       6.612800     7.201100    15.901700
H       6.454100     6.342100    16.276700
C       7.168900     8.208400    16.682600
H       7.389000     8.034400    17.590300
C       7.406100     9.462400    16.148300
H       7.792800    10.142000    16.687700
C       7.078200     9.727600    14.831300
H       7.249400    10.584800    14.457900
C       6.495500     8.727700    14.053700
H       6.238400     8.919200    13.159800
Cl      5.646500     6.132900    10.034600
N       2.844300     7.720400    10.463600
N       9.281800     6.608200    13.686700
O       8.587600     4.640500    14.524200
O       9.194200     4.352300    11.099100
P       5.707400     6.187700    13.394900
