37
Refcode: VUCGEG_comp_0 | Dataset: tmCAT | Charge: -2 | Potential Spins: [1, 3, 5]
C      -3.372200     4.221100    14.082900
H      -2.742400     3.983800    13.441400
C      -4.606000     4.622500    13.662200
H      -4.834400     4.633600    12.760300
C      -5.516100     5.020000    14.657100
H      -6.358000     5.334200    14.419200
C      -5.163600     4.945800    15.962500
H      -5.764300     5.195400    16.626300
C      -3.916700     4.500000    16.291800
C      -4.081500     4.780200    18.752500
H      -4.922300     5.168600    18.826600
C      -3.232400     4.496700    19.742300
H      -3.378100     4.656400    20.645800
C      -2.220000     3.833300    17.878200
C      -0.913400     3.416900    20.018200
C      -1.229900     3.693200    21.502900
H      -0.525200     3.340000    22.051200
H      -2.059500     3.271500    21.735600
H      -1.300300     4.640100    21.642500
C      -0.786300     1.908800    19.794000
H      -0.732300     1.729600    18.852500
H      -1.555300     1.465700    20.159600
H       0.005500     1.586200    20.228500
C       0.261900     4.252300    19.600900
H       0.478400     4.064000    18.685200
H       1.015600     4.045800    20.157800
H       0.041300     5.182300    19.692300
C       0.270600     2.394300    16.819500
C      -0.304000     4.875400    16.122800
Cl     -2.502000     1.193900    16.125100
Cl     -0.362900     2.797400    13.945500
N      -3.025600     4.151300    15.369800
N      -3.454300     4.378800    17.602700
N      -2.097400     3.925800    19.196200
O       1.204100     1.894500    17.162800
O       0.308100     5.815100    16.028800
Ru     -1.247000     3.281400    16.157400
