87
Refcode: VUCZUP_comp_0 | Dataset: tmCAT | Charge: 0 | Potential Spins: [1, 3, 5]
Pd      6.663400    31.112600     0.283300
P       5.961500    32.466500     2.021500
P       7.430300    29.336000    -0.975000
C       6.741700    31.708200     3.501600
H       7.517200    32.233100     3.756400
H       6.112000    31.730200     4.239400
C       7.644500    30.084300     1.857200
H       8.511800    30.540200     1.876700
C       6.058800    28.088200    -1.416200
C       5.925400    32.271000    -1.352800
C       6.655500    34.238400     2.051700
C       8.067200    28.650000     1.588100
H       7.241400    28.128300     1.667900
C       8.525400    28.419400     0.202600
H       8.500000    27.469500     0.003100
H       9.440200    28.726800     0.104400
C       8.993200    28.084000     2.671800
H       9.099000    27.133000     2.520300
H       9.866800    28.493100     2.575600
C       8.079500    29.737300     4.326400
H       7.622600    29.764500     5.181800
H       8.865900    30.302900     4.393900
C       7.158700    30.305300     3.261200
H       6.334500    29.778700     3.330700
C       5.197200    33.659300    -3.704200
H       4.957900    34.120800    -4.475800
C       6.755200    33.229400    -1.948300
H       7.575800    33.419600    -1.555400
C       6.392100    33.897000    -3.098500
H       6.974300    34.521000    -3.466800
C       4.113100    32.376200     2.366800
C       3.767100    30.895400     2.517200
H       4.171500    30.550800     3.317400
H       4.098800    30.412700     1.757000
H       2.814000    30.791600     2.570400
C       4.729400    32.042900    -1.993300
H       4.145800    31.411400    -1.640300
C       8.121600    34.080800     1.603500
H       8.149600    33.660400     0.740800
H       8.593800    33.540000     2.239900
H       8.534800    34.946100     1.551300
C       8.604400    29.652300    -2.415900
C       8.527800    28.290500     4.050100
H       9.243900    28.061000     4.662000
H       7.784700    27.692600     4.225100
C       6.595700    34.898200     3.436100
H       7.052400    35.742900     3.407500
H       7.019200    34.326300     4.080800
H       5.679000    35.038100     3.684800
C       5.903900    35.121400     1.065200
H       5.023200    35.300200     1.401900
H       5.837000    34.669800     0.219000
H       6.376900    35.948400     0.950600
C       4.356600    32.731100    -3.160900
H       3.536700    32.555400    -3.564000
C       7.877800    30.260400    -3.624400
H       8.519900    30.667700    -4.211800
H       7.254300    30.922700    -3.322600
H       7.407100    29.569700    -4.096100
C       3.662900    33.130900     3.628500
H       3.706800    34.074800     3.467900
H       4.240600    32.902500     4.360100
H       2.760200    32.884800     3.844400
C       9.590400    30.743100    -1.899200
H      10.170600    31.014800    -2.614400
H      10.115000    30.384300    -1.179800
H       9.092700    31.503500    -1.586100
C       5.053700    28.144200    -0.318200
H       4.685500    29.027900    -0.267100
H       5.476900    27.926400     0.514700
H       4.351500    27.515500    -0.496300
C       9.367000    28.395700    -2.862100
H       8.750500    27.767000    -3.241700
H       9.802300    28.000800    -2.102800
H      10.023800    28.634700    -3.519000
C       3.348200    32.977600     1.147100
H       2.402900    32.888300     1.285200
H       3.601300    32.509400     0.347900
H       3.570500    33.908300     1.057000
C       5.387300    28.478900    -2.690200
H       4.643500    27.894500    -2.852900
H       6.012900    28.411600    -3.415700
H       5.073900    29.382000    -2.622600
C       6.562300    26.674000    -1.552300
H       5.824700    26.088200    -1.736500
H       6.987400    26.407000    -0.734700
H       7.195100    26.626600    -2.272700
