46
Refcode: VUDKIO_comp_0 | Dataset: tmCAT | Charge: unknown | Potential Spins: [1, 3, 5]
Ru      0.491500     1.951100     3.646800
O       2.518400     2.592100     1.707800
O       0.542400     3.336200     1.063500
O      -0.851700     4.556700     4.105300
N      -1.031900     1.112500     2.511100
N       1.347800     0.090900     3.050100
N      -0.109300     0.998300     5.542500
N       2.127600     2.350200     4.918900
C      -0.735100    -0.078600     1.934900
C      -1.702900    -0.773600     1.226600
C      -2.969500    -0.277500     1.108900
C      -3.260200     0.960200     1.697500
C      -2.247100     1.623300     2.370700
C       0.600900    -0.617600     2.174500
C       1.074300    -1.765700     1.567400
C       2.337300    -2.220000     1.949400
C       3.108700    -1.537300     2.870400
C       2.578900    -0.357300     3.370100
C       0.880300     0.975000     6.480100
C       0.660800     0.381900     7.729400
C      -0.588200    -0.116700     8.008200
C      -1.603200    -0.067500     7.072700
C      -1.316600     0.493600     5.854400
C       2.119900     1.681000     6.160000
C       3.255000     1.742400     6.957100
C       4.322400     2.475400     6.593600
C       4.327700     3.160600     5.377300
C       3.173700     3.050100     4.592600
C       1.294800     2.737000     1.916300
C      -0.324000     3.547400     3.940100
H      -1.433600    -1.743600     0.764100
H      -3.748600    -0.847300     0.557600
H      -4.262800     1.387500     1.590100
H      -2.479400     2.603100     2.829100
H       0.431600    -2.296200     0.826000
H       2.757500    -3.131100     1.486800
H       4.074900    -1.952400     3.180100
H       3.215100     0.245600     4.068100
H       1.505300     0.343800     8.466600
H      -0.818400    -0.552600     9.003500
H      -2.604100    -0.466600     7.310200
H      -2.120800     0.503400     5.100600
H       3.268000     1.178800     7.909100
H       5.200000     2.541800     7.248300
H       5.227100     3.745100     5.080000
H       3.178000     3.597700     3.613800
