80
Refcode: VUFWEA_comp_0 | Dataset: tmCAT | Charge: unknown | Potential Spins: [1, 3, 5]
Ni      7.744000     3.498400    10.161400
P       8.994000     3.498000    12.035900
P       8.997500     2.784800     8.429200
O      10.477300     4.895000     9.984700
O      11.207100     2.023000    13.649500
O      10.076800     3.176600     5.570400
O       6.802900     6.034400     9.462900
O       5.694800     1.576100    10.415700
C       8.957100     4.927400    13.175100
C       8.082900     5.997800    12.947400
C       8.092000     7.127100    13.775500
C       9.010800     7.204300    14.806900
C       9.839700     6.142000    15.054900
C       9.835200     5.018800    14.268800
C       8.525100     2.067700    13.058500
C       7.960200     2.203700    14.350200
C       7.483500     1.078500    15.012900
C       7.530400    -0.152300    14.424700
C       8.057600    -0.325000    13.148000
C       8.545900     0.804300    12.474400
C      10.812900     3.343200    11.743900
C      11.362100     3.997200    10.628400
C      12.668300     3.926100    10.261200
C      13.515000     3.160400    11.024200
C      13.069500     2.490100    12.174900
C      11.733100     2.597800    12.524500
C      10.647800     5.049300     8.594100
C      10.137000     4.066300     7.752400
C      10.406500     4.232800     6.361900
C      10.995200     5.386500     5.899700
C      11.422500     6.359400     6.787500
C      11.264300     6.194900     8.148200
C       7.873600     2.345900     7.026000
C       6.983100     3.337100     6.586900
C       6.075800     3.030400     5.575800
C       6.057500     1.777200     5.010600
C       6.940900     0.786000     5.443000
C       7.856600     1.092700     6.460800
C      10.017200     1.287700     8.647000
C      11.371300     1.228800     8.350100
C      12.105500     0.081200     8.553400
C      11.464000    -1.058200     9.035900
C      10.111400    -1.011500     9.324600
C       9.377900     0.132000     9.136200
C      12.123300     1.352700    14.561600
C       9.795500     3.454900     4.186600
C       7.173200     5.163100     9.701400
C       6.436300     2.199700    10.372300
H       7.474500     5.958400    12.218800
H       7.473500     7.833700    13.631000
H       9.066600     7.988100    15.340600
H      10.436500     6.185900    15.793400
H      10.425500     4.300400    14.464600
H       7.908100     3.057800    14.761800
H       7.119700     1.168300    15.885700
H       7.197400    -0.907100    14.896100
H       8.086900    -1.184100    12.743700
H       8.898200     0.704400    11.597400
H      12.987500     4.393300     9.497700
H      14.426000     3.080000    10.766700
H      13.669400     1.975900    12.701300
H      11.109100     5.517100     4.966000
H      11.830600     7.149500     6.455400
H      11.572000     6.853300     8.758400
H       6.999500     4.204000     6.973500
H       5.465900     3.692700     5.273800
H       5.436200     1.584300     4.318700
H       6.921400    -0.080600     5.055400
H       8.467700     0.430200     6.760900
H      11.803400     1.999400     7.999000
H      13.037100     0.066000     8.367400
H      11.953200    -1.862900     9.166200
H       9.681900    -1.790200     9.661000
H       8.449200     0.143200     9.334800
H      11.620900     0.987100    15.319100
H      12.579100     0.625000    14.089800
H      12.786000     1.996200    14.888600
H       9.572100     2.620700     3.723900
H       9.038200     4.075000     4.125100
H      10.583400     3.860300     3.767800
