63
Refcode: VUVZUJ_comp_0 | Dataset: tmCAT | Charge: 0 | Potential Spins: [1, 3, 5]
Cu      0.377500    20.944300     7.493200
Cl     -1.144900    21.406500     6.125800
N       2.349600    19.511300     9.130400
N       3.425500    19.634800     9.914300
N       3.590000    20.937800     9.973900
C       1.804200    20.683200     8.682800
C       2.658500    21.615600     9.246900
C       2.646900    23.089200     9.167500
C       3.738800    23.817700     8.727800
C       3.712200    25.197500     8.685500
C       2.573400    25.915100     9.057600
C       1.470300    25.167200     9.454800
C       1.496700    23.799800     9.522400
C       2.497500    27.438800     9.021800
C       3.819100    28.082600     8.596700
C       2.153000    27.966100    10.429400
C       1.410200    27.860500     8.045900
C       1.889600    18.153400     8.874800
C       2.317300    17.540600     7.700300
C       1.852800    16.244100     7.468500
C       1.039200    15.609900     8.386200
C       0.664400    16.237200     9.559400
C       1.090100    17.532200     9.836200
C       0.737200    18.212900    11.160400
C       1.764200    17.869100    12.223700
C      -0.670200    17.843400    11.663600
C       3.274800    18.214300     6.719000
C       4.672300    17.633400     6.851400
C       2.764700    18.125500     5.287600
C       4.669100    21.436000    10.821400
H       4.522800    23.359100     8.448400
H       4.484900    25.669400     8.396800
H       0.668700    25.620300     9.687900
H       0.725100    23.327400     9.812400
H       4.056700    27.777700     7.696300
H       4.525400    27.823900     9.225700
H       3.722300    29.058300     8.595400
H       2.847400    27.685400    11.061100
H       1.287700    27.601800    10.711500
H       2.105100    28.945800    10.408300
H       0.551000    27.489300     8.333200
H       1.627700    27.526800     7.150700
H       1.351900    28.839100     8.024700
H       2.099800    15.793900     6.670000
H       0.731900    14.729600     8.207400
H       0.111000    15.779500    10.181800
H       0.763300    19.203000    11.014700
H       2.649700    18.173300    11.932400
H       1.779900    16.898500    12.361500
H       1.526700    18.314700    13.063300
H      -0.865300    18.343500    12.483300
H      -0.709000    16.881200    11.849000
H      -1.332600    18.072400    10.977700
H       3.325500    19.182800     6.962700
H       4.645600    16.670700     6.662100
H       5.000100    17.778200     7.763800
H       5.271700    18.075300     6.214500
H       1.895700    18.574200     5.221300
H       2.666900    17.184100     5.033300
H       3.403500    18.562700     4.685000
H       5.524700    21.077700    10.504900
H       4.516900    21.149800    11.745700
H       4.690300    22.416000    10.781700
