66
Refcode: VUWTIR_comp_0 | Dataset: tmCAT | Charge: unknown | Potential Spins: [1, 3, 5]
Zn      0.547800    13.611800     3.183300
N       0.620800    15.601300     2.866900
N       1.824400    13.165100     1.744900
N       2.357400    12.357400     4.272500
C       1.368100    17.621500     1.690700
H       0.496600    17.964600     1.479700
H       1.978500    17.839600     0.983600
H       1.676200    18.013800     2.511300
C       1.294700    16.127000     1.846300
C       1.992400    15.384600     0.894200
H       2.297100    15.871300     0.161500
C       2.300400    14.033100     0.871800
C       3.268600    13.574700    -0.200800
H       4.078900    13.264600     0.211000
H       3.468000    14.308400    -0.787100
H       2.872000    12.861100    -0.705700
C       2.444000    11.849700     1.850700
H       3.392100    11.915800     1.654300
H       2.042100    11.245200     1.207600
C       2.244300    11.306500     3.273700
H       1.368200    10.894700     3.340600
H       2.909200    10.623800     3.452600
C       3.694500    12.980400     4.290700
H       3.731100    13.639700     4.987600
H       3.864300    13.399100     3.443900
H       4.359400    12.306000     4.453600
C       2.088500    11.788900     5.591400
H       2.762800    11.139100     5.803800
H       1.226800    11.364500     5.587100
H       2.098600    12.487900     6.249100
C      -0.120200    16.460800     3.736500
C      -1.376700    16.945600     3.374100
C      -2.085100    17.725500     4.279000
H      -2.920200    18.057400     4.040400
C      -1.569500    18.016300     5.523000
H      -2.058700    18.536700     6.119600
C      -0.343100    17.542300     5.879500
H       0.001400    17.754300     6.717600
C       0.405100    16.749000     5.016700
C      -2.012000    16.629200     2.029700
H      -1.306300    16.278600     1.447700
C      -3.072900    15.556800     2.150400
H      -2.661100    14.725200     2.396300
H      -3.521900    15.454500     1.308000
H      -3.708900    15.810700     2.822600
C      -2.615000    17.843400     1.337100
H      -3.333500    18.191900     1.869600
H      -2.951800    17.585700     0.475800
H      -1.940700    18.517800     1.228000
C       1.755300    16.218000     5.454700
H       2.074200    15.608000     4.757700
C       2.778900    17.337500     5.590000
H       2.497300    17.947500     6.275300
H       2.853500    17.805500     4.756300
H       3.632100    16.964400     5.825700
C       1.670400    15.446900     6.727800
H       1.001800    14.761200     6.643400
H       1.434000    16.038000     7.446500
H       2.521100    15.041500     6.914000
C      -1.031800    12.753300     4.018600
H      -0.812000    12.571200     4.946900
H      -1.753500    13.401000     4.020100
C      -1.556600    11.497100     3.425000
H      -1.994100    11.692200     2.594200
H      -2.184400    11.093600     4.030200
H      -0.829400    10.889000     3.267800
