65
Refcode: WAGGOB_comp_0 | Dataset: tmCAT | Charge: 0 | Potential Spins: [1, 3, 5]
Ti     -3.883200    -2.361100     2.304600
Cl     -1.699200    -1.997200     1.722500
Cl     -4.150100    -0.237500     3.035900
Cl     -3.721800    -4.575100     1.604100
Cl     -4.739400    -1.792400     0.229900
O      -2.278800    -4.310100     5.847700
O      -8.144600    -2.608200     3.199700
N      -3.259900    -2.964400     4.257800
N      -1.560200    -4.545500     3.797700
H      -1.348100    -4.291400     2.982200
N      -5.870300    -2.835200     2.990200
N      -7.100200    -0.995800     2.156100
H      -6.430600    -0.462500     1.953200
C      -7.319200    -2.766500     7.074300
H      -7.740400    -2.141500     7.701500
H      -7.297800    -3.662200     7.470800
H      -7.833300    -2.789400     6.240200
C      -5.920600    -2.314400     6.785200
C      -5.346900    -1.281200     7.481400
H      -5.813200    -0.895800     8.213400
C      -4.093500    -0.783300     7.132700
H      -3.710000    -0.072900     7.633900
C      -3.409100    -1.316600     6.067900
H      -2.576700    -0.947900     5.796000
C      -3.948300    -2.393600     5.402200
C      -5.178200    -2.922700     5.757600
C      -5.690100    -4.126800     5.048200
C      -6.084700    -4.068500     3.723500
C      -6.663200    -5.153800     3.075000
H      -6.938300    -5.089200     2.169400
C      -6.827700    -6.326600     3.780500
H      -7.258600    -7.068300     3.370700
C      -6.376600    -6.428700     5.062700
H      -6.452900    -7.262000     5.513600
C      -5.810300    -5.353800     5.728400
C      -5.276300    -5.547500     7.118100
H      -5.874500    -6.141200     7.618000
H      -5.224700    -4.680900     7.572900
H      -4.382200    -5.945400     7.073000
C      -2.399400    -3.901800     4.589400
C      -1.210700    -5.295500     5.884900
H      -1.461600    -6.062100     6.457700
H      -0.375500    -4.895500     6.234900
C      -1.031800    -5.732900     4.462100
C      -1.978000    -6.912000     4.170300
H      -1.958000    -7.118300     3.212900
H      -2.891300    -6.672500     4.434200
H      -1.687500    -7.697400     4.680800
C       0.388400    -6.016300     4.118600
H       0.911800    -5.189200     4.188900
H       0.441000    -6.357900     3.202300
H       0.747500    -6.682900     4.739200
C      -6.961600    -2.143600     2.776700
C      -9.146800    -1.593600     2.915900
H      -9.353300    -1.066600     3.728800
H      -9.981100    -2.006100     2.581800
C      -8.510400    -0.706200     1.839200
C      -8.838200     0.764500     2.075200
H      -8.388200     1.312400     1.398900
H      -8.529600     1.029100     2.967600
H      -9.807600     0.897900     2.012900
C      -8.832100    -1.131200     0.444200
H      -8.269400    -0.635400    -0.187000
H      -9.775500    -0.945800     0.255900
H      -8.661800    -2.091500     0.348700
