89
Refcode: WAPVIU_comp_0 | Dataset: tmCAT | Charge: 0 | Potential Spins: [1, 3, 5]
C       1.780900     1.026400     3.405700
H       2.386800     1.732900     3.597000
C       0.458500     1.118900     3.822700
H       0.163300     1.885600     4.299400
C      -0.425300     0.095600     3.542800
H      -1.329900     0.156900     3.828100
C       0.004000    -1.009800     2.851200
H      -0.608900    -1.707900     2.654400
C       1.315200    -1.115800     2.440800
H       1.602800    -1.890800     1.971800
C       2.224100    -0.091400     2.711300
C       3.647300    -0.215100     2.292500
C       4.017800    -0.876800     1.138000
H       3.352700    -1.252900     0.574200
C       5.362600    -0.997300     0.796300
H       5.604100    -1.488700     0.019900
C       6.363300    -0.406200     1.572900
C       5.996500     0.272200     2.743000
C       4.643600     0.335600     3.091400
H       4.397900     0.767700     3.900300
C      12.823200    -0.572400    -0.016300
H      12.699100     0.194300     0.530900
C      14.103800    -0.881000    -0.502500
H      14.840800    -0.322100    -0.283500
C      14.296800    -1.993600    -1.296300
H      15.162800    -2.200400    -1.625100
C      13.212600    -2.812300    -1.611800
H      13.338300    -3.580000    -2.156000
C      11.949900    -2.502700    -1.128400
H      11.215200    -3.065800    -1.345200
C      11.737800    -1.377600    -0.327700
C      10.380700    -1.087700     0.185600
C       9.550300    -2.126600     0.597500
H       9.864300    -3.022100     0.567000
C       8.274600    -1.863800     1.048600
H       7.720200    -2.588900     1.310900
C       7.778600    -0.569300     1.128700
C       8.595100     0.498700     0.720100
C       9.891400     0.215100     0.255900
H      10.450000     0.932900    -0.018100
C       8.574100     0.060300     4.187400
C       9.791300     0.626500     4.502300
H       9.911000     1.566600     4.436600
C      10.844000    -0.184900     4.918700
H      11.684200     0.201500     5.139000
C      10.668100    -1.544800     5.009000
H      11.383200    -2.094400     5.305100
C       9.448400    -2.122500     4.667900
H       9.339400    -3.065800     4.712900
C       8.389100    -1.317300     4.263100
H       7.549900    -1.701700     4.041200
C       6.269000     1.351600     5.335100
C       6.313400     0.349100     6.294700
H       6.936300    -0.362600     6.208000
C       5.446900     0.387500     7.381000
H       5.489800    -0.288800     8.046200
C       4.529500     1.399400     7.492400
H       3.914900     1.397300     8.217700
C       4.485200     2.430000     6.558500
H       3.861300     3.139500     6.652200
C       5.367300     2.405000     5.489900
H       5.359100     3.113600     4.855500
C       6.373800     2.149500    -0.097000
C       5.259300     2.728100     0.493900
H       5.349800     3.190400     1.318200
C       4.024100     2.636700    -0.106500
H       3.264000     3.029400     0.305200
C       3.892500     1.967700    -1.320000
H       3.040000     1.894900    -1.731700
C       4.987700     1.415000    -1.917700
H       4.892500     0.979700    -2.757300
C       6.241700     1.478300    -1.318900
H       6.994600     1.073200    -1.731700
C       9.174400     3.113600    -0.248800
C       8.976100     3.355600    -1.603800
H       8.161200     3.096900    -2.018800
C       9.973800     3.977900    -2.350500
H       9.831700     4.151400    -3.273700
C      11.155500     4.342600    -1.765400
H      11.835800     4.746700    -2.291400
C      11.370400     4.125400    -0.407400
H      12.185800     4.393500     0.000000
C      10.373900     3.511400     0.348000
H      10.510600     3.361800     1.276600
Cl      7.970100     4.172700     4.912200
Cl      7.885400     5.225600     1.784000
P       7.205500     1.174500     3.781700
P       7.970100     2.212800     0.771600
Pd      7.785500     3.131600     2.828900
