75
Refcode: WAPVEQ_comp_0 | Dataset: tmCAT | Charge: 0 | Potential Spins: [1, 3, 5]
Pd      4.393300    11.392500    25.600700
P       6.419400    12.377800    25.399500
P       5.166700     9.741700    26.936700
Cl      3.421400    12.855700    24.028600
Cl      2.249000    10.654800    26.152200
C       4.155800     8.242500    26.709000
C       9.448100     8.369200    25.948800
H      10.328700     8.113400    25.698600
C       7.878300    11.367400    27.577100
C       6.870300     9.183600    26.630400
C       3.831900     7.837800    25.417700
H       4.166900     8.320700    24.672300
C       8.390500     7.515000    25.696400
C       7.298400    12.496000    26.998700
C       5.321700    14.907100    25.529800
H       4.823800    14.548200    26.254200
C       8.948200    12.032900    24.304300
H       9.202200    12.761700    24.857500
C       7.624300    11.604600    24.297000
C       4.264100    11.207300    29.101900
H       3.714500    11.660400    28.473700
C       3.018100     6.729100    25.219500
H       2.810700     6.444800    24.338300
C       5.893600     9.515100    29.632900
H       6.465400     8.807400    29.360200
C       8.560500    11.511500    28.787600
H       8.958300    10.745400    29.184100
C       9.235600     9.599500    26.565100
H       9.978500    10.160700    26.755200
C       9.520000    10.340700    22.710900
H      10.170800     9.904900    22.173500
C       7.418800    13.733800    27.663000
H       7.019100    14.503600    27.274400
C       7.105100     7.930900    26.054400
H       6.371300     7.347400    25.902000
C       8.674900    12.728200    29.423700
H       9.144500    12.787800    30.246800
C       5.100100    10.174300    28.689200
C       7.247800    10.535600    23.488500
H       6.347000    10.235200    23.482100
C       5.830800    16.735800    24.066900
H       5.691200    17.635900    23.797900
C       4.244800    11.567300    30.445100
H       3.678000    12.273800    30.732600
C       9.895500    11.414600    23.519500
H      10.796300    11.716300    23.527700
C       6.946200    14.621500    23.780000
H       7.576700    14.081400    23.318200
C       6.234700    14.105000    24.860600
C       8.613100     6.161700    25.077100
H       9.568600     6.035100    24.903100
H       8.116200     6.102100    24.235100
H       8.298400     5.465200    25.692500
C       8.202200     9.907400    22.688500
H       7.949200     9.182400    22.128000
C       5.848000     9.893800    30.968800
H       6.382400     9.441800    31.610100
C       2.826900     6.432400    27.573400
H       2.488800     5.944400    28.315800
C       3.640600     7.537300    27.784800
H       3.844000     7.811700    28.671000
C       8.108100    13.866600    28.871100
C       2.511100     6.042500    26.303100
H       1.940200     5.296400    26.166100
C       6.724500    15.948700    23.378000
H       7.191100    16.302500    22.632000
C       5.027200    10.924200    31.357200
H       5.003900    11.189900    32.268900
C       5.130400    16.225600    25.151100
H       4.524200    16.778000    25.631800
C       8.264000    15.223600    29.519300
H       8.774100    15.131800    30.350100
H       7.378400    15.594900    29.718500
H       8.739700    15.824500    28.907900
C       7.957300    10.019100    26.909100
