100
Refcode: WAVDED_comp_0 | Dataset: tmCAT | Charge: 1 | Potential Spins: [1, 3, 5]
Ru      2.652500     3.228300     3.318500
P       3.408400     2.810400     5.526500
P       0.513400     2.274800     3.458700
N       1.834900     4.983300     4.008800
C       4.134300     2.058500     2.098900
C       4.762300     3.305300     2.462100
C       3.999800     4.363900     1.907500
C       2.905900     3.797700     1.169800
C       3.015800     2.368500     1.256300
C       4.792900     0.709600     2.240600
H       4.150300     0.006300     2.009700
H       5.092700     0.588000     3.165900
H       5.564200     0.658400     1.638800
C       6.130700     3.422600     3.080100
H       6.808400     3.144500     2.429100
H       6.182500     2.848300     3.871900
H       6.292500     4.354100     3.340800
C       4.334000     5.836400     1.906800
H       5.085400     6.000400     2.513300
H       3.554000     6.348100     2.207200
H       4.578100     6.114900     0.999200
C       1.984700     4.568800     0.262800
H       2.477500     4.861800    -0.531200
H       1.637500     5.351900     0.738400
H       1.237600     3.993700    -0.009700
C       2.255100     1.392100     0.404700
H       1.379000     1.769900     0.178100
H       2.130400     0.555000     0.898800
H       2.757600     1.214600    -0.417800
C       4.349300     1.252500     5.741200
C       3.651200     0.042500     5.636600
H       2.707600     0.054900     5.526900
C       4.319600    -1.177400     5.690200
H       3.835100    -1.991600     5.616000
C       5.697600    -1.201500     5.852300
H       6.160000    -2.031000     5.868600
C       6.398700    -0.012400     5.990600
H       7.339400    -0.032700     6.121300
C       5.731600     1.216300     5.938100
H       6.218300     2.025400     6.037100
C       4.518200     4.135300     6.186200
C       4.746100     5.308700     5.449900
H       4.429800     5.366400     4.556900
C       5.424500     6.383700     5.998500
H       5.580800     7.164600     5.480000
C       5.874200     6.313500     7.311000
H       6.325900     7.054800     7.696900
C       5.664300     5.157000     8.064800
H       5.975400     5.110600     8.961700
C       5.003100     4.082000     7.503900
H       4.873200     3.294200     8.017600
C       2.327300     2.816900     7.029100
C       2.376000     1.842900     8.033400
H       2.874400     1.046100     7.892900
C       1.700100     2.032900     9.238700
H       1.739100     1.362200     9.910600
C       0.973400     3.183300     9.462500
H       0.511300     3.305100    10.283100
C       0.921900     4.166700     8.477500
H       0.432100     4.965600     8.629700
C       1.587100     3.979400     7.275400
H       1.539300     4.652100     6.607100
C      -0.526000     2.623100     4.947700
C      -0.456300     1.725700     6.029400
H       0.111500     0.966200     5.973900
C      -1.211000     1.937000     7.182100
H      -1.161900     1.315700     7.899300
C      -2.031800     3.048200     7.286900
H      -2.548700     3.190600     8.071000
C      -2.091600     3.953500     6.229600
H      -2.646700     4.722400     6.299400
C      -1.346300     3.743800     5.071100
H      -1.398400     4.369000     4.357800
C      -0.564700     2.879500     2.081600
C      -0.776500     4.260000     1.961100
H      -0.353600     4.853400     2.571600
C      -1.599000     4.775700     0.956600
H      -1.769800     5.708900     0.915000
C      -2.166000     3.929000     0.022200
H      -2.700200     4.281900    -0.680100
C      -1.950300     2.561700     0.115600
H      -2.343300     1.980300    -0.523100
C      -1.162300     2.034800     1.136800
H      -1.029200     1.095200     1.193500
C       0.271100     0.450600     3.364400
C      -1.014800    -0.098100     3.437900
H      -1.767100     0.471300     3.549700
C      -1.194700    -1.485400     3.346300
H      -2.069300    -1.854700     3.378000
C      -0.093800    -2.318000     3.208800
H      -0.216800    -3.256700     3.138400
C       1.178100    -1.791900     3.174800
H       1.930100    -2.367600     3.104400
C       1.361500    -0.406200     3.244300
H       2.240100    -0.045700     3.209600
C       1.461800     5.998700     4.396300
C       1.009900     7.259000     4.994200
H       0.035900     7.237300     5.105900
H       1.253300     8.005100     4.406300
H       1.436800     7.378400     5.868600
