47
Refcode: WAVGUY_comp_0 | Dataset: tmCAT | Charge: 1 | Potential Spins: [1, 3, 5]
Au      5.999000     1.846200     0.000000
C       4.742500     0.985100     3.136400
C       3.887800     0.503600     2.176900
H       4.216400     0.128500     1.368600
N       4.379900     1.455500     4.322300
N       6.162900     0.995400     2.936800
C       7.072600     0.754700     3.944800
H       6.875200     0.524300     4.843800
C       6.803300     1.314500     1.776400
C       8.287300     0.906800     3.414800
H       9.117800     0.793100     3.862500
C       2.528600     0.582600     2.428600
H       1.897100     0.295400     1.781200
C      10.064200     0.370700     0.992200
C      10.712800    -0.601800     0.861600
H      11.235900    -1.388300     0.757500
C       3.058200     1.496100     4.569100
H       2.764300     1.816600     5.413800
N       8.108600     1.259100     2.097000
C       2.112700     1.092900     3.648300
H       1.186300     1.163100     3.849200
C       9.215700     1.545600     1.181000
H       8.849200     1.831400     0.306100
H       9.757300     2.290000     1.544000
C       7.255500     2.707200    -3.136400
C       8.110200     3.188700    -2.176900
H       7.781600     3.563800    -1.368600
N       7.618100     2.236800    -4.322300
N       5.835100     2.696900    -2.936800
C       4.925400     2.937600    -3.944800
H       5.122800     3.168000    -4.843800
C       5.194700     2.377800    -1.776400
C       3.710700     2.785500    -3.414800
H       2.880200     2.899200    -3.862500
C       9.469400     3.109700    -2.428600
H      10.100900     3.396900    -1.781200
C       1.933800     3.321600    -0.992200
C       1.285200     4.294100    -0.861600
H       0.762100     5.080600    -0.757500
C       8.939800     2.196200    -4.569100
H       9.233700     1.875700    -5.413800
N       3.889400     2.433200    -2.097000
C       9.885300     2.599400    -3.648300
H      10.811700     2.529200    -3.849200
C       2.782300     2.146700    -1.181000
H       3.148800     1.860900    -0.306100
H       2.240700     1.402300    -1.544000
