81
Refcode: WAVMEM_comp_0 | Dataset: tmCAT | Charge: 1 | Potential Spins: [1, 3, 5]
Pd     13.170900     3.129900     9.659900
N      15.136300     3.172700    10.512500
N      12.814600     3.904500    11.508900
N      13.658800     2.353200     7.873400
C      11.227400     3.170700     9.052000
H      10.962800     4.079000     8.886400
H      10.669800     2.794600     9.736600
H      11.133700     2.658800     8.245800
C      14.485200     1.391900     5.629100
H      15.400500     1.120600     5.728800
H      14.422600     2.064000     4.946000
H      13.951200     0.632600     5.379900
C      13.999300     1.934400     6.892700
C      11.095400     1.826300    12.620000
H      11.835800     1.694900    11.991200
C       9.975100     0.878900    12.212500
H      10.319900    -0.014400    12.140700
H       9.617100     1.152100    11.365200
H       9.279700     0.900300    12.875100
C      11.608300     1.476100    14.009700
H      12.341800     2.052900    14.235500
H      11.903700     0.562700    14.020000
H      10.901600     1.591200    14.648900
C      11.988200     6.705100    11.281700
H      12.887700     6.336200    11.164400
C      11.439200     7.087800     9.903700
H      11.531300     6.343900     9.304100
H      11.930500     7.837400     9.560700
H      10.511800     7.322600     9.981400
C      12.085600     7.938700    12.168500
H      11.213500     8.323000    12.281400
H      12.668800     8.582400    11.759600
H      12.437200     7.689100    13.026100
C      11.500900     4.288600    12.000000
C      10.678100     3.295600    12.537900
C       9.433000     3.685300    13.034900
H       8.877500     3.057000    13.436600
C       9.026200     4.999000    12.935200
H       8.191400     5.244700    13.265000
C       9.830100     5.946500    12.356200
H       9.520700     6.820600    12.279900
C      11.105600     5.631500    11.875400
C      13.806600     4.651200    13.641800
H      12.897600     4.845800    13.879300
H      14.320600     5.462000    13.652000
H      14.177500     4.029800    14.273600
C      13.846600     4.053900    12.274100
C      15.170300     3.610600    11.720000
C      16.381700     3.674300    12.562900
H      17.145200     3.403900    12.048300
H      16.279700     3.086000    13.314900
H      16.507800     4.573800    12.875100
C      16.323700     2.695400     9.848000
C      16.484200     1.306700     9.742500
C      17.608800     0.849800     9.046100
H      17.760000    -0.065800     8.972900
C      18.494000     1.727500     8.467100
H      19.227800     1.401700     7.998000
C      18.303000     3.064200     8.575600
H      18.917100     3.639500     8.179800
C      17.204800     3.610900     9.270400
C      17.008200     5.108400     9.380400
H      16.724600     5.297200    10.299500
C      15.898200     5.589200     8.456800
H      16.137700     5.406200     7.545100
H      15.773100     6.533500     8.571200
H      15.082500     5.130100     8.670900
C      18.265700     5.922200     9.118000
H      18.967300     5.620000     9.698500
H      18.087200     6.850200     9.288000
H      18.535500     5.809000     8.204700
C      15.537100     0.326100    10.416800
H      14.702500     0.802400    10.613200
C      15.193000    -0.865000     9.500600
H      15.965000    -1.426400     9.402400
H      14.922700    -0.538900     8.640100
H      14.476400    -1.371700     9.890500
C      16.119000    -0.142700    11.722900
H      16.994900    -0.506900    11.571900
H      15.552700    -0.819300    12.101100
H      16.181500     0.598100    12.329800
