88
Refcode: WAWMOZ_comp_0 | Dataset: tmCAT | Charge: unknown | Potential Spins: [1, 3, 5]
Ti      2.788100     4.357000     3.434100
Cl      4.767900     3.753900     2.354800
Cl      2.114600     2.269300     4.153300
Si      1.309400     7.235800     3.913000
O       2.974900     8.004200     1.079100
O       0.086300     5.513800     6.513900
C       1.156000     3.782600     1.718200
C       0.615400     4.701400     2.641200
C       1.296800     5.972700     2.502000
C       2.199200     5.792400     1.383000
C       2.092800     4.442600     0.891500
C       2.855700     3.984700    -0.224400
C       3.673600     4.910500    -0.823100
C       3.762600     6.256600    -0.401600
C       3.028800     6.704000     0.665300
C      -0.542800     4.333700     3.533300
C       3.784300     8.929200     0.345700
C       2.800000     2.592000    -0.731500
C       1.591300     1.915700    -0.922900
C       1.558800     0.634500    -1.463500
C       2.762300    -0.000400    -1.768100
C       3.986300     0.643100    -1.586700
C       3.980100     1.939300    -1.086200
C       0.238300    -0.031000    -1.772900
C       5.292000    -0.050100    -1.894400
C       1.997600     8.956900     3.709900
C      -0.409800     7.573700     4.557000
C       4.487900     4.957000     5.142300
C       3.917400     6.091000     4.534900
C       2.523400     6.186900     4.911300
C       2.304300     5.085100     5.821100
C       3.525600     4.334700     5.971300
C       3.623300     3.223200     6.855200
C       2.490400     2.891500     7.554500
C       1.278900     3.620400     7.445500
C       1.177200     4.702500     6.618600
C       4.754000     7.034300     3.711900
C      -1.082000     5.132800     7.251500
C       4.898600     2.484800     7.063800
C       5.343200     2.251600     8.369800
C       6.519700     1.560300     8.623900
C       7.254500     1.088800     7.546000
C       6.833800     1.285000     6.233400
C       5.659900     1.998700     5.999100
C       6.968500     1.315100    10.041500
C       7.633500     0.711300     5.090500
H       0.800400     2.862000     1.555400
H       4.207000     4.631800    -1.558500
H       4.337000     6.857200    -0.862800
H      -1.366000     4.729700     3.179200
H      -0.379300     4.673900     4.438400
H      -0.635600     3.358600     3.562000
H       4.712500     8.613200     0.334200
H       3.743400     9.809300     0.773200
H       3.451300     8.997200    -0.574200
H       0.776900     2.339800    -0.679000
H       2.749100    -0.888300    -2.105300
H       4.806600     2.395400    -0.982800
H      -0.092800     0.287900    -2.638400
H      -0.410400     0.190200    -1.072400
H       0.363100    -1.002300    -1.809100
H       5.122200    -0.825800    -2.468300
H       5.708700    -0.346800    -1.058700
H       5.891200     0.573300    -2.355900
H       2.920400     8.903300     3.384200
H       1.983000     9.418700     4.573600
H       1.451500     9.452500     3.065300
H      -0.839100     8.256300     3.999400
H      -0.354800     7.894800     5.481900
H      -0.937500     6.748800     4.528000
H       5.456000     4.709500     5.100700
H       2.518600     2.141400     8.137100
H       0.524200     3.351700     7.956300
H       5.570300     6.577700     3.420700
H       4.992300     7.815700     4.253100
H       4.243600     7.323800     2.927000
H      -1.802000     5.774100     7.076800
H      -0.875800     5.125400     8.210000
H      -1.367100     4.237400     6.972000
H       4.827500     2.574200     9.100100
H       8.064700     0.620400     7.707200
H       5.375300     2.156700     5.106700
H       6.912800     0.357600    10.240800
H       6.390700     1.811400    10.657000
H       7.895200     1.617100    10.148200
H       7.425500     1.201500     4.268300
H       7.405200    -0.235000     4.974600
H       8.590600     0.795000     5.287500
