74
Refcode: WELDOJ_comp_0 | Dataset: tmCAT | Charge: 0 | Potential Spins: [1, 3, 5]
Pt     25.730600     9.516800     4.155600
Cl     24.393100     9.285200     2.199900
Cl     26.966800    11.146700     3.021100
P      23.909600     8.062400     6.500100
P      26.795300     9.966800     6.043900
O      26.175700     6.444300     6.126400
O      25.278300     5.193200     0.310400
C      25.666700     6.698600     5.035800
C      24.712700     7.853200     4.912000
H      24.010500     7.597400     4.247200
C      25.032100     8.588000     7.811900
H      24.526000     8.658300     8.659800
H      25.731200     7.897700     7.933400
C      25.701700     9.926900     7.521100
H      26.237200    10.186200     8.312500
H      24.995100    10.610400     7.404400
C      26.011600     5.832000     3.864800
C      25.420200     5.992000     2.605200
H      24.777300     6.675400     2.457400
C      25.791100     5.130500     1.572300
C      26.723700     4.128200     1.794300
H      26.973100     3.548300     1.084800
C      27.288100     3.973300     3.037700
H      27.920900     3.280000     3.182400
C      26.943500     4.819500     4.085400
H      27.339000     4.708500     4.942100
C      22.572800     9.276700     6.412300
C      21.452300     9.077000     7.221800
H      21.400100     8.312600     7.784700
C      20.415400     9.999900     7.202000
H      19.648300     9.858800     7.744800
C      20.489200    11.118700     6.402700
H      19.771800    11.741700     6.391900
C      21.613800    11.340100     5.610000
H      21.667800    12.118600     5.068500
C      22.654100    10.422300     5.611800
H      23.420600    10.572000     5.070900
C      23.160400     6.484800     6.926600
C      23.607300     5.707800     7.984900
H      24.267400     6.041500     8.581100
C      23.072700     4.429000     8.162500
H      23.376900     3.885400     8.879900
C      22.111700     3.952900     7.307300
H      21.770400     3.074500     7.425300
C      21.632900     4.742700     6.269500
H      20.943100     4.421500     5.701500
C      22.167300     5.994600     6.073800
H      21.858400     6.531300     5.353700
C      27.454600    11.661400     6.159300
C      26.562900    12.739300     6.123100
H      25.627500    12.580800     6.074700
C      27.050600    14.042400     6.157700
H      26.444200    14.774900     6.142800
C      28.404700    14.275300     6.211900
H      28.733100    15.166800     6.209800
C      29.285200    13.225700     6.271200
H      30.218300    13.394200     6.329100
C      28.818900    11.913600     6.246500
H      29.433600    11.190500     6.288900
C      28.186600     8.865800     6.411800
C      28.684800     8.727500     7.705300
H      28.282200     9.203300     8.421400
C      29.770800     7.894200     7.948700
H      30.120600     7.810300     8.827700
C      30.337600     7.188900     6.907600
H      31.078100     6.618600     7.076100
C      29.842300     7.302800     5.626400
H      30.236500     6.807100     4.918300
C      28.764700     8.145100     5.371500
H      28.424400     8.228500     4.488400
C      24.185100     6.067500     0.097000
H      23.497800     5.903000     0.776300
H      23.808600     5.908900    -0.793600
H      24.492000     6.996100     0.161400
