71
Refcode: WELZAR_comp_0 | Dataset: tmCAT | Charge: 0 | Potential Spins: [1, 3, 5]
Pd      6.062200    12.638400    12.914200
Cl      5.222100    13.739200    14.843300
Cl      6.256200    10.609500    14.049300
P       5.373100    14.096500    10.260500
P       6.506000    11.527900    11.049000
O       8.168900    14.456000    10.629900
O       7.754400    17.222700    15.872500
C       6.118000    14.458400    11.837900
H       5.628000    15.184700    12.319800
C       7.574500    14.811400    11.633500
C       8.305200    15.603200    12.672100
C       7.700200    16.086500    13.827000
H       6.780000    15.912400    13.988200
C       8.442800    16.826600    14.750900
C       9.778200    17.076700    14.531500
H      10.289700    17.559800    15.169600
C      10.370700    16.611900    13.355100
H      11.284500    16.811000    13.185600
C       9.659200    15.874400    12.439500
H      10.083400    15.550800    11.653500
C       8.498100    17.946400    16.861200
H       8.836700    18.778500    16.470700
H       9.250800    17.398900    17.167000
H       7.915300    18.154300    17.620600
C       5.506200    15.462200     9.101100
C       5.890100    15.276400     7.781700
H       6.099000    14.407000     7.461000
C       5.968600    16.370200     6.935900
H       6.227800    16.247000     6.030300
C       5.668900    17.647300     7.402900
H       5.730600    18.393500     6.817900
C       5.279900    17.832700     8.718900
H       5.066300    18.703300     9.036300
C       5.202900    16.744400     9.569700
H       4.943900    16.869300    10.475300
C       3.604800    13.783300    10.463700
C       2.977600    13.746500    11.710000
H       3.488100    13.857400    12.502600
C       1.616500    13.552200    11.786400
H       1.187400    13.549200    12.633900
C       0.862300    13.358400    10.626600
H      -0.077600    13.233300    10.683100
C       1.494100    13.353100     9.395200
H       0.988800    13.188900     8.607600
C       2.847800    13.581000     9.300500
H       3.268800    13.601500     8.449700
C       6.192200    12.631000     9.594600
H       7.043500    12.878200     9.154300
H       5.611600    12.177600     8.933300
C       8.207600    10.957800    10.897400
C       8.657000    10.346100     9.719300
H       8.060500    10.239500     8.988100
C       9.962800     9.897300     9.609600
H      10.262400     9.499000     8.800400
C      10.836500    10.031900    10.686400
H      11.731900     9.721600    10.616600
C      10.390700    10.621000    11.866200
H      10.986100    10.710100    12.600700
C       9.095700    11.079800    11.977500
H       8.803300    11.478300    12.788400
C       5.462300    10.086100    10.742900
C       4.253200    10.191700    10.066600
H       3.980600    11.034300     9.720900
C       3.441500     9.084400     9.892100
H       2.613700     9.164500     9.431800
C       3.844500     7.845800    10.397200
H       3.297200     7.081300    10.266000
C       5.025600     7.729600    11.080200
H       5.282100     6.886500    11.434100
C       5.859500     8.839800    11.264700
H       6.680700     8.752800    11.734900
