59
Refcode: WEQDOM_comp_0 | Dataset: tmCAT | Charge: unknown | Potential Spins: [1, 3, 5]
I      14.052100     3.430700     3.628000
Pd     14.473900     0.827100     3.743300
P      12.325500     0.112000     3.754300
P      16.740500     0.776600     3.762700
O      12.404600    -1.537600     3.766700
O      17.142800    -0.816600     3.848400
C      14.772500    -1.140900     3.818900
C      13.695500    -2.031100     3.851500
C      13.884300    -3.405000     3.980600
C      15.185900    -3.886400     4.097700
C      16.284600    -3.030200     4.065100
C      16.033700    -1.676100     3.902000
C      11.275300     0.430800     2.331400
C      11.093600    -0.524300     1.331800
C      10.343400    -0.191200     0.204700
C       9.788300     1.057300     0.077100
C       9.972600     2.008100     1.058900
C      10.721100     1.700300     2.186100
C      11.298800     0.501200     5.189300
C       9.979500     0.062600     5.230800
C       9.191400     0.318700     6.347600
C       9.737900     1.016700     7.409400
C      11.038200     1.458500     7.372400
C      11.827600     1.198000     6.266000
C      17.684500     1.467300     5.131400
C      17.104600     2.379600     6.013900
C      17.853600     2.874100     7.072800
C      19.152500     2.482900     7.265600
C      19.732100     1.567300     6.396500
C      18.999400     1.069400     5.331700
C      17.601000     1.310100     2.270600
C      17.902300     0.419900     1.256200
C      18.463000     0.876000     0.065300
C      18.709600     2.208100    -0.124600
C      18.428300     3.091800     0.889800
C      17.869200     2.663100     2.080800
H      13.140500    -3.995200     3.995400
H      15.332200    -4.820700     4.180800
H      17.169400    -3.358800     4.168900
H      11.485000    -1.386000     1.416300
H      10.209400    -0.835300    -0.480500
H       9.276900     1.273900    -0.694100
H       9.586800     2.871900     0.969900
H      10.862200     2.354300     2.860900
H       9.620700    -0.419900     4.495200
H       8.291200     0.019800     6.378700
H       9.202200     1.192500     8.174700
H      11.396800     1.949800     8.102000
H      12.730400     1.488200     6.239300
H      16.203900     2.654300     5.889300
H      17.460000     3.492900     7.673400
H      19.657000     2.835700     7.989300
H      20.633000     1.292500     6.527000
H      19.394900     0.442900     4.736900
H      17.727000    -0.505600     1.379300
H      18.653400     0.259400    -0.630300
H      19.091900     2.513600    -0.940300
H      18.616100     4.016100     0.768200
H      17.662000     3.284100     2.770400
