98
Refcode: WEVNUJ_comp_0 | Dataset: tmCAT | Charge: 1 | Potential Spins: [1, 3, 5]
Zn     20.927200     9.704600     3.589300
Si     22.233600     8.722800     6.141700
Si     22.425000     7.110900     3.441100
Si     23.938300     9.812000     3.723600
N      19.675000     9.335800     5.086800
N      19.428300     8.779400     7.219300
N      20.774900     8.707200     1.874600
N      21.694000     7.244700     0.490000
N      21.724700    11.528300     3.387400
N      23.564500    12.775800     3.400200
C      22.623700     8.697800     4.339000
C      22.711000     7.182500     7.093900
H      22.815500     7.404400     8.042600
H      23.557100     6.833500     6.744900
H      22.011700     6.505500     6.991400
C      22.923500    10.192900     7.065400
H      22.426800    10.315900     7.901600
H      22.835700    10.996400     6.512700
H      23.868600    10.036500     7.269100
C      20.312400     8.955600     6.203600
C      18.322300     9.402500     5.386000
C      17.235000     9.740900     4.572600
H      17.353500     9.993000     3.665200
C      15.969500     9.690800     5.158000
H      15.206300     9.915800     4.639500
C      15.803700     9.314100     6.501300
H      14.923700     9.272400     6.857500
C      16.865400     9.000900     7.321800
H      16.742800     8.764800     8.233500
C      18.145400     9.054200     6.729300
C      19.825700     8.577700     8.635200
H      20.818500     8.466700     8.643800
C      19.515900     9.801300     9.460000
H      19.870100     9.684000    10.366000
H      18.544700     9.929700     9.502700
H      19.931600    10.586800     9.046900
C      19.232700     7.282000     9.199300
H      19.527100     7.164200    10.125200
H      19.535300     6.521900     8.659400
H      18.254100     7.331300     9.170800
C      23.995200     6.124600     3.172300
H      23.764600     5.213800     2.894500
H      24.507500     6.092300     4.007100
H      24.534000     6.552700     2.474300
C      21.139600     5.955500     4.141000
H      20.915400     5.274300     3.472900
H      20.334000     6.464500     4.371700
H      21.493400     5.521900     4.944400
C      21.621100     7.672700     1.787700
C      20.284400     8.959900     0.599700
C      19.377400     9.937300     0.170900
H      18.966000    10.539500     0.779200
C      19.108900     9.980600    -1.192300
H      18.501800    10.632200    -1.525600
C      19.713900     9.084300    -2.089700
H      19.511500     9.145500    -3.015600
C      20.593800     8.115700    -1.656700
H      20.995000     7.508200    -2.266400
C      20.873300     8.059800    -0.287700
C      22.519700     6.120400     0.011400
H      22.957300     5.710100     0.812000
C      21.666600     5.043500    -0.641000
H      22.233600     4.281800    -0.886000
H      21.241000     5.406700    -1.445800
H      20.976400     4.746500    -0.011400
C      23.632600     6.638700    -0.903100
H      24.176900     5.886400    -1.216500
H      24.199200     7.266200    -0.406000
H      23.236800     7.097000    -1.673800
C      25.464700     9.925100     4.783400
H      26.234700    10.157300     4.223600
H      25.624500     9.062400     5.217900
H      25.337400    10.617000     5.465700
C      24.517100     9.480100     1.967200
H      25.073400    10.227500     1.659500
H      23.738500     9.388000     1.378900
H      25.042100     8.653000     1.947300
C      23.061700    11.515600     3.534100
C      21.357800    12.855100     3.141000
C      20.098900    13.399500     2.883200
H      19.320800    12.855300     2.846100
C      20.035100    14.771700     2.683700
H      19.193500    15.178900     2.514200
C      21.198300    15.576000     2.727900
H      21.119900    16.513600     2.594000
C      22.445200    15.033200     2.961500
H      23.223700    15.577000     2.982900
C      22.518400    13.638800     3.165200
C      25.010900    13.101600     3.404500
H      25.508200    12.245400     3.541300
C      25.356400    14.014500     4.556900
H      26.313400    14.215600     4.538400
H      25.131700    13.570600     5.403100
H      24.844100    14.846400     4.480000
C      25.420200    13.655000     2.044100
H      26.392700    13.770100     2.018500
H      24.984800    14.518900     1.898800
H      25.148400    13.028700     1.341900
