99
Refcode: WEVPIZ_comp_0 | Dataset: tmCAT | Charge: unknown | Potential Spins: [1, 3, 5]
Zn      6.936400    -0.584700     5.525300
Si      4.577700    -0.086200     3.617300
Si      7.505400     0.351500     2.622500
Si      6.180600     2.388400     4.591000
N       5.051800    -1.243100     6.071000
N       2.841200    -0.961300     5.974900
N       7.753100    -1.968200     4.185200
N       8.907500    -2.291100     2.296600
N       5.427200     3.250000     1.977300
N       5.711800     5.036900     3.326900
C       6.238100     0.675300     3.914200
C       3.260600     1.001300     2.838900
H       2.488900     0.451100     2.589000
H       3.626000     1.434800     2.039000
H       2.979600     1.685100     3.482700
C       4.604000    -1.686700     2.623700
H       3.715500    -2.098800     2.645600
H       5.259600    -2.301900     3.013200
H       4.850000    -1.490600     1.695400
C       4.041700    -0.743700     5.348000
C       4.496300    -1.816000     7.210600
C       5.109800    -2.492700     8.264700
H       6.051900    -2.617300     8.288900
C       4.291900    -2.977300     9.276600
H       4.678700    -3.453200    10.002600
C       2.897600    -2.776300     9.245400
H       2.366500    -3.112700     9.958800
C       2.277900    -2.102600     8.205700
H       1.338300    -1.962600     8.194100
C       3.100500    -1.635300     7.170100
C       1.523200    -0.503100     5.492300
H       1.670300    -0.063300     4.606800
C       0.574300    -1.680100     5.259900
H      -0.258100    -1.354900     4.859900
H       0.377000    -2.114700     6.115600
H       0.996900    -2.325500     4.654900
C       0.932000     0.549000     6.424500
H       0.082700     0.870200     6.057600
H       1.557100     1.298800     6.508600
H       0.776300     0.153300     7.307600
C       6.958800     0.437200     0.826600
H       7.730200     0.646200     0.260200
H       6.280100     1.137000     0.725400
H       6.580400    -0.425400     0.558500
C       9.079600     1.373700     2.772300
H       9.737500     1.057400     2.118200
H       9.446200     1.278400     3.676400
H       8.874400     2.316600     2.600300
C       8.096000    -1.435600     3.002600
C       8.372700    -3.207000     4.260100
C       8.391100    -4.132800     5.308900
H       7.904100    -3.978500     6.109900
C       9.147700    -5.284700     5.136400
H       9.181600    -5.932100     5.829900
C       9.865700    -5.503400     3.944400
H      10.370400    -6.302900     3.854600
C       9.864000    -4.595300     2.896400
H      10.354000    -4.753600     2.098400
C       9.101200    -3.432600     3.077300
C       9.606200    -1.936500     1.042800
H       9.257500    -1.045200     0.752200
C       9.302700    -2.927400    -0.082000
H       9.734600    -2.625700    -0.907800
H       8.333900    -2.979300    -0.219200
H       9.645200    -3.812700     0.161200
C      11.103600    -1.770000     1.307800
H      11.551100    -1.480800     0.485000
H      11.480700    -2.626600     1.600600
H      11.238400    -1.097300     2.007900
C       7.788200     2.950000     5.407600
H       7.590400     3.633600     6.081600
H       8.386600     3.324100     4.728400
H       8.221000     2.183800     5.837000
C       4.839600     2.562400     5.904300
H       4.809300     3.490000     6.218800
H       5.040900     1.968000     6.657100
H       3.972100     2.320000     5.518800
C       5.756500     3.650400     3.207200
C       5.144300     4.410500     1.268400
C       4.721000     4.551700    -0.064100
H       4.582800     3.793500    -0.619300
C       4.510700     5.839600    -0.540400
H       4.216000     5.964500    -1.435200
C       4.725300     6.956900     0.275200
H       4.589700     7.823500    -0.089100
C       5.129600     6.840500     1.596300
H       5.264400     7.604800     2.143600
C       5.331200     5.538600     2.089500
C       5.998600     5.814700     4.543800
H       6.198300     5.155800     5.268600
C       4.783300     6.621000     4.998800
H       4.986100     7.066000     5.848300
H       4.019100     6.019600     5.120100
H       4.564900     7.293900     4.321200
C       7.255500     6.669400     4.362200
H       7.435100     7.165500     5.188000
H       7.117900     7.299900     3.625500
H       8.018700     6.089400     4.157200
H       7.940900    -0.198000     6.758900
