68
Refcode: WEXMUI_comp_0 | Dataset: tmCAT | Charge: unknown | Potential Spins: [1, 3, 5]
Cr     13.364000     3.489800     4.373600
P      13.534300     1.908100     2.588700
O      15.323600     1.714700     5.860300
N      11.256400     1.828100     6.039700
C      14.545300     2.357700     5.306200
N       9.947100     1.374600     6.040000
O      13.205200     5.321800     6.753700
C      13.254400     4.606500     5.841700
O      11.556800     5.503900     2.959300
C      12.228400     4.706500     3.453300
C      14.811600     4.462700     3.732000
O      15.702500     5.097300     3.350900
C      11.563000     2.485700     4.890300
C      10.360300     2.418400     4.146400
H      10.238000     2.783800     3.277600
C       9.392700     1.747600     4.862400
C      12.066300     1.623200     7.233200
H      12.372000     0.693800     7.265300
H      11.529600     1.818300     8.029700
H      12.842600     2.221600     7.208200
C       9.423800     0.518900     7.091000
H       8.576600     0.122900     6.798100
H       9.272300     1.050800     7.901100
H      10.068700    -0.193700     7.283900
C       7.989100     1.476600     4.502300
C       7.701700     1.010000     3.219000
H       8.408500     0.849900     2.604700
C       6.385800     0.779100     2.837500
H       6.196400     0.446600     1.968800
C       5.348300     1.032700     3.722000
H       4.450000     0.865800     3.461900
C       5.624100     1.530200     4.985000
H       4.911700     1.721500     5.583600
C       6.937600     1.751500     5.382200
H       7.121000     2.090000     6.250900
C      13.744100     0.148200     3.102900
C      12.784100    -0.442600     3.945000
H      12.023500     0.059300     4.213500
C      12.934700    -1.751100     4.387600
H      12.270600    -2.143500     4.942100
C      14.056900    -2.490000     4.020400
H      14.163200    -3.380800     4.330600
C      15.017400    -1.918300     3.199000
H      15.787800    -2.416700     2.951800
C      14.854800    -0.607200     2.734500
H      15.509800    -0.228400     2.160300
C      14.965100     2.166700     1.472200
C      16.240600     2.344900     2.033600
H      16.349000     2.304000     2.976100
C      17.344100     2.579500     1.223900
H      18.203500     2.687000     1.613100
C      17.192900     2.657200    -0.153600
H      17.946000     2.825800    -0.707200
C      15.933700     2.487700    -0.719100
H      15.825400     2.546800    -1.661700
C      14.836100     2.232600     0.088000
H      13.982700     2.101600    -0.310000
C      12.129800     1.869900     1.410200
C      11.808500     3.061500     0.747800
H      12.331800     3.840400     0.900100
C      10.731500     3.116300    -0.128600
H      10.527200     3.927200    -0.580100
C       9.951800     1.983100    -0.348600
H       9.213800     2.017800    -0.945800
C      10.258300     0.813800     0.302900
H       9.726900     0.040500     0.152900
C      11.337600     0.746800     1.180900
H      11.534700    -0.069400     1.625900
