77
Refcode: WEYVON_comp_0 | Dataset: tmCAT | Charge: unknown | Potential Spins: [1, 3, 5]
Pd     -0.238300     3.080600     3.151400
Br     -0.991300     2.767800     5.441400
Br      0.422900     3.395500     0.817900
N      -2.831500     1.951200     2.172700
N      -3.041300     4.080100     2.546800
N       2.442000     1.863700     3.769500
N       2.421000     3.928600     4.413600
C      -2.170900     3.053800     2.586300
C      -4.142500     2.275900     1.831300
C      -5.189700     1.529200     1.305500
H      -5.093600     0.613600     1.113800
C      -6.378800     2.195200     1.073600
H      -7.104400     1.721500     0.708400
C      -6.533600     3.538500     1.365000
H      -7.363400     3.951200     1.208300
C      -5.489800     4.287500     1.880500
H      -5.593300     5.200400     2.078600
C      -4.288600     3.636300     2.091600
C      -2.653200     5.475800     2.846600
H      -1.682600     5.470800     3.044800
C      -3.355200     5.990800     4.088600
H      -4.313300     5.994900     3.939700
H      -3.052800     6.892400     4.280300
H      -3.147000     5.413100     4.839800
C      -2.853400     6.357700     1.634400
H      -2.440400     5.942300     0.861200
H      -2.446000     7.223300     1.793700
H      -3.802300     6.471800     1.471200
C      -2.174800     0.626800     2.059200
H      -1.272900     0.715400     2.458100
C      -1.979600     0.283300     0.585400
H      -2.838400     0.296800     0.133400
H      -1.587800    -0.601000     0.509000
H      -1.390000     0.935600     0.176100
C      -2.913000    -0.427200     2.859600
H      -2.969000    -0.149400     3.786900
H      -2.433800    -1.270300     2.803900
H      -3.806600    -0.540100     2.500800
C       1.684100     2.982400     3.784300
C       3.663200     2.081700     4.411100
C       4.743400     1.239900     4.655900
H       4.746000     0.342200     4.378700
C       5.810800     1.798400     5.329300
H       6.561100     1.265000     5.519700
C       5.806600     3.130100     5.734700
H       6.555200     3.470400     6.190600
C       4.735600     3.964900     5.487300
H       4.736600     4.865900     5.755400
C       3.658400     3.401400     4.819100
C       2.061900     0.630400     3.092700
H       2.870600     0.224700     2.713200
H       1.469800     0.857600     2.345400
C       1.371000    -0.400400     3.953900
C       0.785200    -1.485400     3.315500
H       0.801900    -1.539700     2.377800
C       0.179600    -2.482700     4.049800
H      -0.200000    -3.221800     3.609400
C       0.127500    -2.407700     5.405800
H      -0.304400    -3.081500     5.899200
C       0.705600    -1.342100     6.057200
H       0.683000    -1.294200     6.994800
C       1.327400    -0.330300     5.320300
H       1.716900     0.400300     5.764500
C       1.981700     5.310700     4.644200
H       2.134600     5.538600     5.584500
H       1.019200     5.370300     4.474600
C       2.690800     6.314400     3.779100
C       2.468800     6.363700     2.424400
H       1.873600     5.753600     2.026800
C       3.110300     7.301500     1.643500
H       2.956200     7.318600     0.716200
C       3.972400     8.210400     2.205600
H       4.411700     8.843200     1.668100
C       4.186200     8.184600     3.562800
H       4.768800     8.809900     3.955200
C       3.550500     7.243700     4.358000
H       3.700700     7.232900     5.285300
