86
Refcode: WIDKOK_comp_0 | Dataset: tmCAT | Charge: 0 | Potential Spins: [1, 3, 5]
W       2.824300     5.343200    21.577600
Si      2.386500     2.235800    23.106600
S       2.611800     4.133500    19.512700
S       3.981800     6.607600    23.186000
S       0.458500     5.355200    21.863700
S       2.203600     7.411100    20.510600
O       2.586000     3.802700    22.593300
S       5.055100     5.458600    20.804700
C       3.957500     1.305800    22.769900
C       0.958600     1.418100    22.218800
C       4.194900     3.845200    18.851600
C       1.996200     2.316200    24.917200
C       2.988300     7.734400    24.273100
C       5.257900     4.453000    19.388800
C       4.632300     1.469700    21.572700
H       4.320400     2.118800    20.954400
C       0.507000     7.626000    20.538000
C       1.224200     1.357400    25.553000
H       0.886100     0.623200    25.054900
C       2.477300     3.373000    25.680800
H       3.014300     4.038800    25.269500
C      -0.273600     6.699500    21.105100
C       5.750000     0.713600    21.250800
H       6.187400     0.834900    20.415400
C      -1.418900     1.282600    21.746400
H      -2.297700     1.624600    21.863900
C       1.126100     0.304500    21.419400
H       1.997300    -0.051600    21.294200
C      -0.331200     1.896800    22.367200
H      -0.479800     2.664600    22.906300
C       4.267600     2.936800    17.656200
H       4.987500     3.236200    17.060900
H       3.414800     2.962600    17.175900
H       4.448400     2.020700    17.952500
C       1.408100     2.511000    27.637800
H       1.200000     2.583300    28.562600
C       0.932700     1.455500    26.919900
H       0.406400     0.788400    27.346500
C       0.040600    -0.305800    20.793500
H       0.181700    -1.068400    20.244200
C       4.470200     0.381900    23.660700
H       4.041500     0.259400    24.500500
C       2.186000     3.471000    27.039900
H       2.522800     4.198800    27.548300
C       5.594200    -0.372900    23.358500
H       5.931000    -0.998700    23.989500
C       6.655900     4.370400    18.877400
H       6.648200     4.023300    17.960200
H       7.178700     3.770400    19.449600
H       7.059600     5.263300    18.882500
C      -1.776700     6.786000    21.128100
H      -2.056200     7.419500    21.820500
H      -2.152300     5.902100    21.322300
H      -2.100500     7.093100    20.254400
C      -0.045300     8.886600    19.904400
H      -0.797800     8.655700    19.319300
H       0.656900     9.321500    19.375600
H      -0.352300     9.497000    20.607000
C       1.263200     9.677600    24.653800
H       0.636600    10.308600    24.196400
C       3.236800     9.463400    26.173900
H       3.897100     9.991200    26.707800
C       3.898100     8.209200    25.302700
H       4.741800     8.512400    24.881100
H       4.114800     7.463400    25.918400
C       2.383300    10.290500    25.243900
H       2.065700    11.081500    25.744700
H       2.965400    10.622200    24.513200
C       6.215500    -0.211600    22.150100
H       6.972400    -0.743200    21.932900
C      -1.200300     0.172900    20.962100
H      -1.933600    -0.256800    20.535400
C       2.410300     8.515000    26.978600
H       3.006800     7.816900    27.346500
H       2.022400     9.009200    27.742500
C       1.378500     7.890500    26.291400
H       0.805100     7.335600    26.894300
C       0.629100     8.657000    25.410000
H      -0.098100     9.081500    25.931200
H       0.199500     8.036300    24.768700
C       2.442900     8.866000    23.560300
H       1.990300     8.565300    22.732600
H       3.166400     9.494400    23.312500
C       1.910200     7.029800    24.950100
H       2.229100     6.138200    25.236300
H       1.155300     6.899500    24.321600
