60
Refcode: WIDPIK_comp_0 | Dataset: tmCAT | Charge: 1 | Potential Spins: [1, 3, 5]
Ni      4.429700     3.186300     5.127300
Cl      4.251200     5.006400     6.323700
N       2.599500     3.355800     2.914400
N       3.791000     5.133200     3.004900
N       4.213100     1.478600     4.253400
N       5.662100     2.406100     6.471900
P       5.480600     0.478200     4.122100
C       3.571800     3.972700     3.653500
C       2.246400     4.146500     1.820500
H       1.609200     3.944800     1.174700
C       2.984000     5.226800     1.876200
H       2.970900     5.931200     1.267900
C       2.109800     2.049300     3.158000
C       2.928700     1.096400     3.803800
C       2.415600    -0.187400     3.937400
H       2.915400    -0.821300     4.398100
C       1.200700    -0.557500     3.415500
H       0.912400    -1.439600     3.480900
C       0.406500     0.396900     2.790600
H      -0.425000     0.157700     2.448200
C       0.839900     1.672300     2.679200
H       0.292600     2.310400     2.281200
C       6.886500     1.513400     4.565100
H       7.716900     1.055500     4.363300
H       6.862600     2.343500     4.064100
C       6.795400     1.795100     6.044600
C       7.768600     1.356600     6.927000
H       8.544600     0.948600     6.613900
C       7.562500     1.541500     8.281200
H       8.212400     1.275800     8.892200
C       6.399600     2.115400     8.723800
H       6.232200     2.214700     9.632700
C       5.485100     2.541300     7.788500
H       4.702600     2.943500     8.089200
C       5.542800    -0.902900     5.294400
C       4.722200    -0.909000     6.421800
H       4.132800    -0.207200     6.583200
C       4.800900    -1.977800     7.298600
H       4.244700    -1.998400     8.041800
C       5.685800    -3.006300     7.089900
H       5.720100    -3.722400     7.682800
C       6.528200    -2.969200     5.984800
H       7.143900    -3.652900     5.852500
C       6.458600    -1.927500     5.084300
H       7.020300    -1.909700     4.342400
C       5.698600    -0.250500     2.496900
C       5.062000    -1.469200     2.192100
H       4.552400    -1.898700     2.840700
C       5.190700    -2.036300     0.925500
H       4.769300    -2.839200     0.718200
C       5.956500    -1.378000    -0.013900
H       6.035100    -1.739600    -0.867100
C       6.607600    -0.204400     0.278400
H       7.149900     0.199300    -0.360500
C       6.450600     0.382800     1.540700
H       6.855800     1.198200     1.730000
C       4.767500     6.186600     3.351500
H       4.301100     6.963700     3.667400
H       5.280400     6.415200     2.573400
H       5.355600     5.864300     4.039000
