25
Refcode: WIGVAK_comp_0 | Dataset: tmCAT | Charge: 0 | Potential Spins: [1, 3, 5]
Ni      0.505100     7.685000     6.775700
O      -0.947500     6.636900     6.058200
N      -0.236400     9.105600     5.619100
C      -1.736200     7.272800     5.266800
O      -2.804600     6.844700     4.832400
C      -1.304500     8.675900     4.941500
N      -1.613600    10.785400     3.906900
C      -1.962600     9.509900     4.066100
H      -2.674000     9.172800     3.570800
C      -0.589200    11.209000     4.632600
H      -0.348400    12.105400     4.577000
C       0.140600    10.380400     5.469400
H       0.884200    10.706700     5.922700
O       1.957700     8.733100     7.493300
N       1.246600     6.264400     7.932300
C       2.746500     8.097200     8.284700
O       3.814900     8.525300     8.719000
C       2.314700     6.694100     8.609900
N       2.623900     4.584600     9.644600
C       2.972800     5.860100     9.485300
H       3.684200     6.197200     9.980600
C       1.599400     4.161000     8.918900
H       1.358600     3.264600     8.974400
C       0.869700     4.989600     8.082100
H       0.126100     4.663300     7.628800
