58
Refcode: WIHVOA_comp_0 | Dataset: tmCAT | Charge: unknown | Potential Spins: [1, 3, 5]
Ti      0.841100    12.539700     3.548000
Cl      2.326100    14.374300     3.405200
Cl      0.775200    12.176300     1.252200
Cl     -0.268400    10.499400     4.035000
N      -2.430000    14.954100     3.353800
H      -3.185000    15.214700     3.671600
N      -0.602800    13.540200     3.785600
O       1.383600    12.487100     5.619500
O       2.707100    11.173200     3.434500
C      -2.092100    15.469100     1.991200
C      -2.134100    14.329500     0.987400
H      -3.006700    13.930300     0.994700
H      -1.479200    13.669700     1.226900
H      -1.942500    14.667700     0.109700
C      -0.735400    16.148600     2.026000
H      -0.750900    16.861700     2.669600
H      -0.533400    16.505200     1.157400
H      -0.063500    15.508700     2.274700
C      -3.188400    16.483800     1.673100
H      -3.149900    17.206000     2.305700
H      -4.046200    16.055700     1.727900
H      -3.059300    16.828200     0.786300
C      -1.722300    14.143600     4.143400
C      -2.256000    13.950100     5.533100
C      -2.924900    14.969400     6.195000
H      -3.079700    15.775400     5.758000
C      -3.363900    14.803300     7.491400
H      -3.798500    15.501100     7.928400
C      -3.158400    13.607300     8.140500
H      -3.462000    13.491500     9.012700
C      -2.504100    12.581900     7.498700
H      -2.363400    11.774400     7.937500
C      -2.056000    12.752500     6.200500
H      -1.615100    12.054700     5.772600
C       2.037300    11.436100     6.372300
H       3.000500    11.489500     6.271800
H       1.739200    10.563100     6.074300
C       1.639700    11.675300     7.789400
H       2.359400    11.428500     8.391000
H       0.853100    11.155800     8.014300
C       1.349000    13.141100     7.893700
H       2.015200    13.582900     8.442200
H       0.474300    13.287300     8.288600
C       1.389100    13.668200     6.478400
H       0.615900    14.225900     6.299200
H       2.192100    14.193900     6.332100
C       4.061500    11.605300     3.210900
H       4.574300    11.521500     4.030000
H       4.070500    12.536200     2.938400
C       4.648600    10.785600     2.177700
H       5.589500    10.628600     2.353300
H       4.556800    11.206100     1.309200
C       3.901500     9.546900     2.230800
H       4.432100     8.856700     2.660500
H       3.684300     9.249800     1.333000
C       2.667800     9.783000     2.996900
H       1.889700     9.624600     2.439200
H       2.626100     9.187300     3.761200
