47
Refcode: WILHOR_comp_0 | Dataset: tmCAT | Charge: 0 | Potential Spins: [1, 3, 5]
Zn      3.420100     8.581400     4.234000
O       3.005900     5.938700     3.577300
C       4.020900    11.200400     4.758700
O       4.648100    10.104100     4.515600
O       2.797800    11.325500     4.822300
N       3.781400    13.937000     2.652200
C       2.358700    16.233700     3.529300
O       4.822600     7.201100     3.799700
N       4.422300     3.634000     3.326800
N       2.463400     1.465100     6.070700
N       3.307300     1.873200     2.467800
O       2.466700     8.041400     5.916100
H       1.982300     8.554200     6.394000
H       2.486200     7.265200     6.266600
N       4.247800    13.651900     5.021600
N       1.640500    17.302500     3.850100
H       1.266400    17.770200     3.232500
H       1.549200    17.528900     4.675200
N       3.816800     3.420700     5.670600
N       3.145600    15.432700     5.848300
C       3.684700    14.290200     3.946000
N       2.478000    15.912100     2.219800
C       3.118000     1.942100     3.844300
N       1.673100     0.070700     4.418900
H       1.256100    -0.372200     5.025700
H       1.615900    -0.168900     3.594600
C       4.959200    12.388800     4.983600
H       5.433400    12.266100     5.820200
H       5.615600    12.414300     4.270100
C       3.010900    15.388300     4.464400
C       5.159300     4.887800     3.387100
H       5.649500     5.011200     2.559600
H       5.801400     4.849200     4.112200
C       3.792500     3.029500     4.384200
C       4.082300     2.904000     2.221400
H       4.376100     3.119100     1.365800
C       2.404300     1.125300     4.752900
C       4.224700     6.077900     3.604600
C       3.140200     2.553500     6.430300
H       3.142400     2.736500     7.341400
C       3.879500    14.389500     6.126900
H       4.130600    14.165100     6.993300
O       2.121700     8.768600     2.724100
H       2.457600     8.430100     2.019700
H       1.957400     9.591600     2.591800
C       3.159100    14.815800     1.867600
H       3.203900    14.644200     0.954100
