48
Refcode: WIQGAG_comp_0 | Dataset: tmCAT | Charge: 0 | Potential Spins: [1, 3, 5]
Mo      5.767800     2.695400     8.199800
N       5.923700     1.189400     6.548100
N       6.561600     1.636800     5.376500
O       5.364500     1.120000     9.199900
O       3.947400     0.061200    11.108300
O       6.600800     3.575600     6.609600
O       7.991900     1.881700     8.335800
O       4.181400     3.191600     7.889500
O       6.369400     3.754900     9.403800
O       9.672400     5.654400     1.508900
H      10.138500     6.236400     1.848400
C       4.736400    -0.037600     8.911900
C       4.017200    -0.655500     9.951300
C       3.446400    -1.900800     9.723300
H       2.970100    -2.318800    10.403700
C       3.576500    -2.528900     8.497100
H       3.202400    -3.371100     8.371000
C       4.250600    -1.924200     7.461300
H       4.329500    -2.353100     6.640200
C       4.821200    -0.647300     7.654200
C       5.492000    -0.030500     6.537200
H       5.622100    -0.536600     5.767000
C       6.849400     2.904300     5.495300
C       7.516600     3.644900     4.418300
C       8.000300     4.921000     4.674200
H       7.840200     5.313700     5.501400
C       8.715000     5.615900     3.721000
H       9.044000     6.466000     3.909000
C       8.942200     5.038800     2.474200
C       8.404800     3.793100     2.181900
H       8.513300     3.427000     1.334100
C       7.714600     3.100400     3.144900
H       7.373400     2.258000     2.948400
C       3.379000    -0.521800    12.284800
H       2.537500    -0.943500    12.051900
H       3.189300     0.181900    12.923900
C       4.263400    -1.534100    12.930000
H       4.440000    -2.246000    12.310200
H       3.828600    -1.889100    13.708600
H       5.090200    -1.120200    13.185900
C       8.929500     2.018400     9.471000
H       9.217900     2.941600     9.390900
H       9.689900     1.494400     9.175100
C       8.956900     1.785800    11.093800
H       8.576500     0.929300    11.301200
H       8.445800     2.474800    11.524300
H       9.863700     1.816600    11.406700
H       8.204600     1.224700     7.834900
