30
Refcode: WIRRUN_comp_0 | Dataset: tmCAT | Charge: 0 | Potential Spins: [1, 3, 5]
W       7.318500     4.259900     6.015800
Cl      5.594700     4.238300     7.584600
Cl      7.374300     6.585800     6.113000
Cl      9.336800     4.288400     4.856100
Cl      7.544100     1.952300     6.320100
F       6.637700     5.765000     2.445000
F       2.679200     4.140100     0.536600
F       4.140600     2.498500     4.673500
O       8.633100     4.406600     7.819000
N       6.287700     4.176900     4.638000
C       5.413100     4.141500     3.587300
C       5.567200     4.963400     2.471300
C       4.660700     4.988800     1.440300
H       4.764700     5.576300     0.701400
C       3.593100     4.123500     1.528300
C       3.388400     3.255900     2.579200
H       2.647600     2.661700     2.592100
C       4.300800     3.285700     3.609000
C       9.788800     3.542900     8.107000
H      10.391200     3.491800     7.322400
H       9.493000     2.627700     8.340400
C      10.486800     4.190400     9.271700
H      11.160500     4.848200     8.963200
H      10.932000     3.514500     9.841700
C       9.352500     4.878800    10.022400
H       8.871500     4.240300    10.606500
H       9.690400     5.629600    10.571300
C       8.472400     5.368700     8.918700
H       7.528200     5.403900     9.216600
H       8.747800     6.276000     8.631300
