89
Refcode: WIRVUQ_comp_0 | Dataset: tmCAT | Charge: 1 | Potential Spins: [1, 3, 5]
Ni     12.972600     7.024400     7.324000
P      11.842000     6.191000     8.975700
P      14.515600     7.775600     8.673300
O      14.009400     7.700000     5.872800
O      12.462500     9.304000     5.746600
O       9.878600     5.853700    11.193600
O      16.870100     8.038100    10.405300
O      13.097700     3.707300     8.084200
O      13.290300    10.465000     8.541600
N      11.665900     6.376400     6.016500
H      10.855600     6.640400     6.083200
H      11.701800     5.525100     5.925800
H      11.933500     6.685300     5.266100
C      12.835800     5.752300    10.452500
H      12.252500     5.243300    11.070300
H      13.558300     5.140600    10.161800
C      13.487200     6.910700    11.257600
C      13.905300     8.119900    10.372700
H      14.614500     8.616800    10.853900
H      13.125200     8.724100    10.297200
C      12.520100     7.468200    12.319500
H      12.216300     6.738400    12.899000
H      11.747700     7.876200    11.875900
H      12.981300     8.143700    12.858500
C      14.685000     6.302000    12.011900
H      15.132000     7.001400    12.534400
H      15.317400     5.920800    11.367800
H      14.368200     5.596900    12.614300
C      13.531400     8.789000     5.382200
C      14.384100     9.428900     4.311700
H      13.826300    10.008600     3.752200
H      14.789800     8.731000     3.756900
H      15.090500     9.962600     4.732500
C      10.531100     7.333600     9.493800
C      10.395000     8.550900     8.818400
H      10.963900     8.747200     8.083100
C       9.433500     9.479300     9.213300
H       9.337900    10.300600     8.745200
C       8.617700     9.191500    10.297400
H       7.966300     9.826900    10.570400
C       8.732200     7.992900    10.995100
H       8.170600     7.814900    11.740500
C       9.680400     7.057200    10.586900
C       9.019900     5.499300    12.282400
H       9.098200     6.170900    12.991600
H       9.281900     4.622700    12.632800
H       8.092200     5.462100    11.968500
C      15.918700     6.628800     8.796900
C      15.972000     5.491800     7.991500
H      15.280000     5.326500     7.362100
C      17.038400     4.593500     8.104100
H      17.074700     3.821300     7.551900
C      18.039700     4.840100     9.026900
H      18.752400     4.219000     9.115500
C      18.025100     5.973400     9.824000
H      18.724000     6.129700    10.448800
C      16.973400     6.883300     9.699800
C      17.839300     8.311400    11.421400
H      17.850700     7.575500    12.069200
H      17.606000     9.146300    11.879400
H      18.726000     8.399200    11.012500
C      10.987700     4.663600     8.462300
C       9.592000     4.593400     8.391400
H       9.072400     5.330600     8.689600
C       8.954000     3.463600     7.892500
H       8.005200     3.419400     7.872500
C       9.710000     2.405200     7.426000
H       9.276500     1.631600     7.084300
C      11.097900     2.461100     7.450900
H      11.608600     1.739700     7.102800
C      11.740900     3.574500     7.986800
C      13.908900     2.607700     7.624800
H      13.662300     1.793800     8.112100
H      14.853800     2.810100     7.785700
H      13.761900     2.471500     6.665400
C      15.278600     9.310800     8.058600
C      16.569500     9.292100     7.524400
H      17.057300     8.477600     7.519500
C      17.157700    10.439000     6.999300
H      18.041500    10.413700     6.652600
C      16.434300    11.615300     6.990900
H      16.831500    12.407100     6.649100
C      15.133700    11.655500     7.476000
H      14.639100    12.464900     7.439600
C      14.554100    10.509200     8.015600
C      12.410400    11.548600     8.216500
H      12.770100    12.382600     8.585400
H      11.524400    11.377200     8.599300
H      12.336000    11.628100     7.242900
