65
Refcode: WIRWOM_comp_0 | Dataset: tmCAT | Charge: 0 | Potential Spins: [1, 3, 5]
W       2.670400     8.788300     4.278600
Cl      0.920500    10.212700     3.553300
Cl      4.925900     8.061800     4.581600
O       3.518600     9.379700     2.249800
O       3.742100    10.832500     4.478400
O       4.029700     5.522300     2.604400
O       4.383100     4.165800     4.265600
O      -0.915400     7.558000     2.866800
O      -1.217800     7.453500     5.019100
N       2.042800     7.240400     3.645100
N       2.264700     8.742400     5.974700
N       3.646800     4.844000     3.538700
N      -0.739500     7.057000     3.964200
C       2.853000     8.916600     1.042500
H       2.628800     7.967400     1.136100
H       3.448400     9.037600     0.273400
H       2.031800     9.434000     0.903500
C       3.934400    10.753600     2.143400
H       3.145100    11.336700     2.015200
H       4.536300    10.866500     1.365800
C       4.642700    11.125500     3.393300
H       5.478000    10.600700     3.486300
H       4.874300    12.087900     3.386200
C       4.312400    11.212600     5.765500
H       3.699500    10.948100     6.484400
H       4.445900    12.182500     5.791400
H       5.173200    10.760300     5.888700
C       1.484000     5.999700     3.806400
C       2.213700     4.798900     3.840100
C       1.638500     3.578700     4.095400
H       2.179800     2.799000     4.128800
C       0.269500     3.478300     4.302900
H      -0.130500     2.633300     4.470900
C      -0.507800     4.625800     4.260300
H      -1.447000     4.577100     4.399200
C       0.101900     5.843000     4.015600
C       2.039500     8.597900     7.338100
C       2.486500     7.407400     7.979900
C       2.284400     7.321400     9.359200
H       2.577100     6.543400     9.820200
C       1.669700     8.339800    10.077200
H       1.554400     8.258900    11.017300
C       1.217800     9.487200     9.410600
H       0.786800    10.174600     9.903800
C       1.390400     9.638900     8.043700
C       3.158700     6.287600     7.224600
H       3.103800     6.503600     6.249100
C       4.639400     6.182100     7.593400
H       5.074300     7.049000     7.453300
H       5.070300     5.506100     7.028700
H       4.723700     5.922500     8.534600
C       2.450400     4.950600     7.444400
H       2.487400     4.714100     8.394500
H       2.896000     4.254300     6.917200
H       1.515400     5.026000     7.162100
C       0.816800    10.831400     7.293800
H       1.374300    10.980900     6.477700
C      -0.608100    10.498500     6.841700
H      -0.589900     9.713600     6.255000
H      -0.982600    11.261800     6.352700
H      -1.164500    10.308400     7.625000
C       0.831600    12.123400     8.121700
H       0.227200    12.027300     8.887500
H       0.533700    12.871900     7.563100
H       1.740800    12.295900     8.442300
