81
Refcode: WISYUV_comp_0 | Dataset: tmCAT | Charge: 0 | Potential Spins: [1, 3, 5]
I       1.580200    -1.484300     4.976800
Ni     -0.850100    -1.859200     5.449400
N      -0.379000    -5.813200     6.470800
N       0.123600    -5.252800     7.559000
N       0.042500    -3.946900     7.293200
C      -0.501400    -3.627900     6.077900
C      -0.413500    -7.281000     6.419300
H       0.258600    -7.645200     7.032600
H      -0.219300    -7.580500     5.506700
H      -1.302700    -7.596300     6.684400
C      -0.770900    -4.893600     5.540700
C      -1.343900    -5.225600     4.228500
C      -2.236100    -6.283300     4.037500
H      -2.469100    -6.840300     4.771300
C       2.063000    -3.255500     8.551300
H       2.543900    -3.264900     7.686300
H       2.188300    -4.138500     8.981100
C      -2.787000    -6.530000     2.784200
H      -3.401200    -7.245900     2.668000
C      -2.440300    -5.731600     1.703600
H      -2.815100    -5.900100     0.846900
C      -1.545200    -4.686300     1.878500
H      -1.302800    -4.143800     1.137300
C      -1.001200    -4.426900     3.132200
H      -0.393000    -3.705700     3.244200
C       0.580800    -3.021900     8.302100
H       0.084400    -3.139700     9.150600
H       0.444200    -2.090200     7.996200
C       2.650600    -2.167300     9.446900
H       2.572700    -1.293400     8.988600
H       2.125600    -2.118600    10.284800
C       4.114300    -2.422600     9.789400
H       4.179000    -3.260200    10.313100
H       4.621500    -2.552600     8.949300
C       4.756700    -1.297400    10.581600
H       4.275200    -1.192000    11.440200
H       4.661900    -0.451900    10.075600
C       6.229800    -1.541600    10.866700
H       6.592500    -0.788500    11.377900
H       6.329500    -2.367100    11.385400
H       6.716400    -1.626800    10.020300
I      -3.280500    -2.234100     5.921900
N      -1.321300     2.094800     4.427900
N      -1.823900     1.534500     3.339700
N      -1.742700     0.228500     3.605500
C      -1.198800    -0.090500     4.820800
C      -1.286700     3.562700     4.479400
H      -1.958800     3.926800     3.866100
H      -1.481000     3.862100     5.392000
H      -0.397600     3.877900     4.214300
C      -0.929400     1.175200     5.358000
C      -0.356400     1.507200     6.670200
C       0.535800     2.564900     6.861200
H       0.768800     3.122000     6.127400
C      -3.763200    -0.462800     2.347400
H      -4.244200    -0.453500     3.212400
H      -3.888600     0.420100     1.917600
C       1.086700     2.811700     8.114500
H       1.700900     3.527500     8.230700
C       0.740100     2.013200     9.195100
H       1.114800     2.181700    10.051800
C      -0.155100     0.967900     9.020200
H      -0.397400     0.425500     9.761400
C      -0.699100     0.708500     7.766500
H      -1.307300    -0.012700     7.654600
C      -2.281100    -0.696500     2.596600
H      -1.784700    -0.578700     1.748100
H      -2.144400    -1.628200     2.902500
C      -4.350800    -1.551000     1.451800
H      -4.273000    -2.425000     1.910100
H      -3.825900    -1.599800     0.613900
C      -5.814500    -1.295700     1.109300
H      -5.879300    -0.458200     0.585700
H      -6.321700    -1.165800     1.949400
C      -6.456900    -2.420900     0.317200
H      -5.975500    -2.526400    -0.541500
H      -6.362100    -3.266400     0.823100
C      -7.930100    -2.176700     0.032000
H      -8.292800    -2.929800    -0.479200
H      -8.029800    -1.351300    -0.486700
H      -8.416600    -2.091600     0.878400
