86
Refcode: WIVVAY_comp_0 | Dataset: tmCAT | Charge: unknown | Potential Spins: [1, 3, 5]
Rh     -0.562500     3.449600     3.786400
Cl     -0.562500     5.787700     3.786400
C      -0.562500     1.607300     3.786400
O      -0.562500     0.466600     3.786400
P       1.709700     3.476600     3.613800
N       2.433600     4.369600     2.403600
C       3.698900     4.941300     2.423300
O       4.229700     5.350300     1.429800
C       1.801800     4.278800     1.045100
C       1.205000     5.603800     0.595200
N       4.326000     5.029200     3.674400
C       3.815500     4.659000     4.898100
O       4.447700     4.826100     5.925300
C       5.708800     5.577900     3.662200
C       6.733400     4.489100     3.522900
N       2.548400     4.094500     4.931500
C       2.029000     3.727200     6.273400
C       1.542100     4.905300     7.057900
O       2.233600     1.954800     3.441300
C       3.599200     1.638900     3.271500
C       4.090300     1.535300     2.015900
C       5.403500     1.130600     1.832600
C       6.188300     0.833900     2.927700
C       5.678900     0.943300     4.180200
C       4.358100     1.340800     4.389200
H       2.484000     4.003800     0.363500
H       1.083300     3.586100     1.060200
H       0.475700     5.861600     1.226800
H       1.983900     6.264900     0.439200
H       0.838700     5.487200    -0.330200
H       5.774000     6.207300     2.894400
H       5.793800     6.063200     4.533100
H       1.284500     3.096400     6.058300
H       2.725700     3.226000     6.785300
H       2.320500     5.501600     7.285100
H       1.011800     5.444000     6.603600
H       1.294300     4.651800     7.992400
H       3.546200     1.685000     1.185900
H       5.769300     1.080100     0.901200
H       7.122900     0.576100     2.711100
H       6.171800     0.777700     5.025400
H       3.933500     1.425800     5.285900
H       6.644100     3.975000     4.377100
H       6.621700     3.859700     2.756500
H       7.591200     4.954300     3.316900
P      -2.834800     3.476600     3.959100
N      -3.558600     4.369600     5.169300
C      -4.823900     4.941300     5.149600
O      -5.354700     5.350300     6.143100
N      -5.451000     5.029200     3.898500
C      -4.940600     4.659000     2.674700
O      -5.572700     4.826100     1.647600
N      -3.673400     4.094500     2.641400
O      -3.358600     1.954800     4.131600
C      -4.724300     1.638900     4.301400
C      -5.215300     1.535300     5.557000
C      -6.528500     1.130600     5.740300
C      -7.313300     0.833900     4.645200
C      -6.803900     0.943300     3.392700
C      -5.483200     1.340800     3.183600
H      -5.058600     1.425800     2.287000
H      -7.296900     0.777700     2.547500
H      -8.247900     0.576100     4.861800
H      -6.894300     1.080200     6.671700
H      -4.671200     1.685000     6.387000
C      -3.154100     3.727200     1.299500
C      -2.667100     4.905300     0.515000
H      -3.445600     5.501600     0.287800
H      -2.136800     5.444000     0.969300
H      -2.419300     4.651800    -0.419500
H      -2.409600     3.096400     1.514600
H      -3.850700     3.226000     0.787600
C      -6.833800     5.577900     3.910600
C      -7.858500     4.489100     4.050000
H      -7.769200     3.975000     3.195800
H      -7.746700     3.859700     4.816400
H      -8.716300     4.954300     4.256000
H      -6.899000     6.207300     4.678500
H      -6.918800     6.063200     3.039800
C      -2.926800     4.278800     6.527800
C      -2.330000     5.603800     6.977700
H      -1.600800     5.861600     6.346100
H      -3.109000     6.264900     7.133700
H      -1.963700     5.487200     7.903100
H      -3.609000     4.003800     7.209400
H      -2.208300     3.586100     6.512700
