63
Refcode: WIYJEW_comp_0 | Dataset: tmCAT | Charge: 1 | Potential Spins: [1, 3, 5]
Au      2.334500     6.298800    12.065400
Cl      3.420900     7.616500    13.589700
Cl      1.153900     5.004500    10.635600
S       5.590700     5.745800    10.497000
S      -1.369800     6.591800    12.556600
N       3.701500     4.883900    12.353800
N       5.647100     3.811200    12.173400
N       1.027900     7.770600    11.755800
N      -0.870800     8.863700    11.474800
C       4.879400     4.801000    11.755800
C       7.054000     4.779200    10.654600
C       8.281100     4.991500     9.993900
H       8.402900     5.715900     9.391200
C       9.255000     4.133900    10.250200
H      10.082800     4.243700     9.796900
C       9.129100     3.093100    11.136800
H       9.862300     2.508100    11.287900
C       7.934400     2.895500    11.810800
H       7.835300     2.175600    12.422600
C       6.888500     3.769000    11.575400
C       4.964600     3.065500    13.248000
H       5.526100     3.006600    14.060500
H       4.715400     2.153700    12.954300
C       3.730300     3.931800    13.483400
H       3.865800     4.450600    14.328500
C       2.376100     3.225400    13.567000
C       2.043900     2.059700    12.921500
H       2.700700     1.581800    12.429700
C       0.755700     1.593100    12.993600
H       0.538800     0.784200    12.546500
C      -0.224300     2.254400    13.694200
H      -1.106300     1.908200    13.753000
C       0.119900     3.439100    14.305500
H      -0.552100     3.933800    14.759200
C       1.343400     3.907100    14.282700
H       1.547200     4.709400    14.748200
C      -0.271100     7.775000    11.886800
C      -2.690400     7.731400    12.274100
C      -4.025400     7.572900    12.613900
H      -4.329900     6.778800    13.035700
C      -4.895000     8.593300    12.321500
H      -5.816100     8.497400    12.532600
C      -4.450000     9.763400    11.723500
H      -5.068800    10.464300    11.556600
C      -3.127000     9.927700    11.366600
H      -2.824500    10.716100    10.931000
C      -2.257400     8.888400    11.676000
C       0.075600     9.721300    10.829300
H       0.008700    10.648600    11.169300
H      -0.058900     9.726500     9.847800
C       1.453700     9.077400    11.207100
H       1.874900     9.615600    11.937800
C       2.455300     8.900000    10.086900
C       3.774700     9.231400    10.324300
H       4.017100     9.619300    11.157500
C       4.751100     9.006100     9.365500
H       5.654500     9.243700     9.539400
C       4.408000     8.439300     8.163700
H       5.075700     8.247900     7.515600
C       3.107800     8.154400     7.911200
H       2.862400     7.818400     7.057600
C       2.120600     8.346200     8.883300
H       1.222600     8.093900     8.706400
