93
Refcode: WIZHES_comp_0 | Dataset: tmCAT | Charge: unknown | Potential Spins: [1, 3, 5]
Ru     -0.166500     4.448300     1.961500
H      -1.660900     4.112200     1.963800
H      -0.720200     5.975300     1.963800
P      -0.546800     4.611900    -0.251400
P      -0.518500     4.718500     4.167100
N       0.546200     2.342600     2.043000
H       2.431100     4.929000     1.017400
H       2.419400     5.277700     2.389600
N       2.107200     4.658300     1.905800
H       0.470100     2.105000     2.815500
H       0.058100     1.889700     1.490600
C       1.965300     2.231700     1.631300
H       2.008100     2.345300     0.638800
C       2.756200     3.372300     2.272500
H       2.706200     3.268800     3.265100
C       4.221200     3.303700     1.859700
H       4.721300     4.030400     2.308000
H       4.292600     3.439600     0.882500
C       4.843600     1.962700     2.228800
H       4.846700     1.859500     3.213000
H       5.781300     1.936000     1.914100
C       4.055800     0.806100     1.593500
H       4.140800     0.850600     0.608100
H       4.434500    -0.056900     1.896300
C       2.580900     0.878300     1.980300
H       2.490800     0.720700     2.953900
H       2.084600     0.163700     1.509500
C       0.006400     3.199400    -1.298900
C      -0.548600     1.948500    -1.073000
H      -1.292400     1.868400    -0.487400
C      -0.043000     0.816700    -1.681000
H      -0.434800    -0.030200    -1.503600
C       1.024700     0.912800    -2.541100
H       1.366500     0.131700    -2.962200
C       1.598300     2.137100    -2.791900
H       2.337900     2.206500    -3.382200
C       1.090700     3.263400    -2.179100
H       1.488700     4.106900    -2.360100
C      -2.297300     4.853200    -0.783100
C      -3.032100     5.856600    -0.153800
H      -2.634500     6.340000     0.560700
C      -4.314600     6.166400    -0.538300
H      -4.790300     6.857800    -0.093500
C      -4.912800     5.471700    -1.573400
H      -5.796800     5.685200    -1.846600
C      -4.216200     4.466300    -2.203900
H      -4.629000     3.978800    -2.907800
C      -2.912200     4.154900    -1.823000
H      -2.440800     3.462700    -2.272500
C       0.163700     6.047100    -1.165200
C       0.992400     6.961100    -0.509900
H       1.187200     6.838300     0.411700
C       1.536800     8.046300    -1.185400
H       2.098200     8.655100    -0.720400
C       1.269500     8.245800    -2.523300
H       1.651800     8.982500    -2.985900
C       0.432800     7.357900    -3.185800
H       0.231900     7.491300    -4.105000
C      -0.105100     6.283100    -2.515000
H      -0.676700     5.685200    -2.982300
C      -0.074700     3.265400     5.192100
C       1.196100     3.133500     5.768300
H       1.778200     3.884500     5.780100
C       1.626800     1.943100     6.317200
H       2.496600     1.879100     6.693400
C       0.791200     0.838100     6.319500
H       1.085800     0.019600     6.699300
C      -0.466500     0.930600     5.770600
H      -1.042500     0.176200     5.781300
C      -0.901100     2.128000     5.196900
H      -1.765300     2.174400     4.805300
C       0.303100     6.113000     5.060800
C       0.843300     7.148200     4.288300
H       0.810700     7.090900     3.340800
C       1.429600     8.267300     4.890500
H       1.777500     8.970000     4.355800
C       1.499800     8.343700     6.268700
H       1.912300     9.092800     6.682700
C       0.967600     7.327600     7.044700
H       1.018500     7.381000     7.991100
C       0.363200     6.235600     6.450800
H      -0.016000     5.557100     6.996200
C      -2.254100     5.080400     4.704700
C      -2.991500     5.955300     3.899100
H      -2.596200     6.309800     3.111300
C      -4.290700     6.314800     4.230400
H      -4.774600     6.918300     3.679100
C      -4.881700     5.786600     5.376700
H      -5.772500     6.021500     5.609700
C      -4.162300     4.920100     6.168100
H      -4.571200     4.541100     6.938200
C      -2.846200     4.587300     5.859300
H      -2.351600     4.023200     6.440200
