113
Refcode: WOFGUT_comp_0 | Dataset: tmCAT | Charge: unknown | Potential Spins: [1, 3, 5]
Y       9.281700     3.702200     2.007900
Si      6.291800     4.979000     0.660000
Si     11.774800     2.264100     4.061700
Si     11.168100     3.892400    -1.180300
O      10.387700     3.749100     0.209600
O      10.047500     5.915000     2.291200
O       8.740300     1.489600     1.370100
N       7.109100     4.328300     2.030700
N      10.244400     3.053800     3.940800
C       6.636700     3.385000     2.951900
C       5.574200     2.495400     2.672400
C       5.192800     1.505200     3.538400
C       5.847200     1.345700     4.756000
C       6.880600     2.207500     5.103300
C       7.290700     3.228900     4.216100
C       8.270600     4.238200     4.773000
C       9.674900     4.021400     4.779300
C      10.458600     4.911000     5.584000
C       9.884000     5.920300     6.280700
C       8.521000     6.161300     6.227700
C       7.715500     5.318500     5.488700
C       6.216500     5.524900     5.514100
C       7.522700     2.067100     6.454300
C       7.580400     5.916800    -0.307000
C       5.602800     3.704100    -0.550600
C       4.897300     6.183800     1.109600
C       4.169700     6.665900    -0.175800
C       3.850900     5.521400     2.026500
C       5.460800     7.408100     1.823200
C      12.042800     1.434100     2.411900
C      13.260700     3.381500     4.313500
C      11.829200     0.931200     5.404000
C      10.722700    -0.119700     5.173200
C      11.653300     1.555500     6.784600
C      13.184200     0.201200     5.372200
C      12.800700     3.012100    -1.099000
C      10.196800     3.175200    -2.598200
C      11.526100     5.670500    -1.594500
C      11.427300     6.298300     2.170500
C      11.372200     7.735900     1.694000
C      10.047300     8.256100     2.202300
C       9.352500     7.066500     2.822700
C       8.840700     0.960700     0.016900
C       7.774000    -0.088400    -0.084700
C       7.358400    -0.402300     1.340400
C       8.320800     0.390200     2.193800
H       5.105700     2.587300     1.850700
H       4.478800     0.922500     3.305500
H       5.587100     0.648600     5.348900
H      11.400300     4.789600     5.630600
H      10.430900     6.476900     6.822800
H       8.145000     6.898300     6.695700
H       6.007600     6.258400     6.081600
H       5.795700     4.739300     5.844500
H       5.906500     5.705200     4.635300
H       8.459400     1.947400     6.348400
H       7.358700     2.850900     6.964600
H       7.156200     1.314500     6.901100
H       7.927600     6.620800     0.228700
H       8.283600     5.327200    -0.550600
H       7.185000     6.280900    -1.090500
H       6.301100     3.124900    -0.832200
H       5.237600     4.148000    -1.306500
H       4.923600     3.196000    -0.122800
H       4.794600     7.085600    -0.753800
H       3.490000     7.286700     0.059300
H       3.779100     5.920300    -0.616200
H       3.172600     6.152600     2.240400
H       3.462900     4.779200     1.579700
H       4.271200     5.226600     2.824800
H       5.906100     7.135900     2.617300
H       6.075200     7.853800     1.251500
H       4.751100     7.999400     2.045600
H      12.875400     0.978000     2.418200
H      11.342600     0.811600     2.253100
H      12.045000     2.089600     1.723700
H      13.304800     4.014500     3.606200
H      13.175400     3.839300     5.141400
H      14.053600     2.857800     4.319800
H      10.771700    -0.785600     5.850800
H      10.842800    -0.523700     4.321900
H       9.872900     0.303500     5.207100
H      10.805800     1.983800     6.833400
H      11.704000     0.879200     7.449600
H      12.339900     2.195400     6.932900
H      13.882500     0.823700     5.539500
H      13.310900    -0.194200     4.516700
H      13.195800    -0.473400     6.039300
H      12.654700     2.091300    -0.916900
H      13.250600     3.102300    -1.931200
H      13.330900     3.391900    -0.408700
H      10.037400     2.252600    -2.437300
H       9.368000     3.631200    -2.676600
H      10.690400     3.275700    -3.402900
H      11.978700     5.717400    -2.428800
H      10.709100     6.152600    -1.649600
H      12.071700     6.050300    -0.916900
H      11.866500     6.239300     3.011200
H      11.875600     5.750300     1.539500
H      11.406600     7.775700     0.745400
H      12.091500     8.238800     2.058300
H      10.184900     8.935900     2.850200
H       9.530200     8.602900     1.484400
H       9.424300     7.094200     3.769200
H       8.434600     7.047400     2.577100
H       8.690400     1.647400    -0.620400
H       9.697400     0.577500    -0.127100
H       7.033500     0.239300    -0.580200
H       8.117100    -0.868800    -0.508200
H       7.438300    -1.331800     1.518300
H       6.463600    -0.124900     1.497100
H       9.067600    -0.145700     2.437300
H       7.888900     0.705800     2.977300
