53
Refcode: WOJHAF_comp_0 | Dataset: tmCAT | Charge: 0 | Potential Spins: [1, 3, 5]
Ti      3.588200     3.501200     4.440000
Cl      5.371500     4.833700     4.021700
Cl      2.097300     4.895900     3.421100
F       2.430100     1.747100     7.556600
F       3.821900    -0.278200     5.815000
O       3.785800     2.343700     2.971800
F      -0.543200     3.411200     4.336300
N       1.886200     2.145000     4.877800
N       4.997900     2.217700     5.556200
F       5.166300     0.920500     1.182700
F       3.357800     1.486200     0.207700
O       3.276700     4.225200     6.156700
F       3.580100    -0.510400     0.966500
F       7.301300     2.267600     4.000300
C       1.518500     1.051000     4.252000
C       4.054100     4.375900     7.202900
C       5.132000     3.628400     7.493300
H       5.624600     3.821800     8.315400
C       5.510400     1.043800     4.893100
C       0.992900     2.595100     5.917500
C       1.284400     2.408300     7.259800
F       4.398500     5.711600     9.123600
C       5.554100     2.500000     6.717500
C       2.250700     0.566200     3.102400
H       1.970600    -0.214100     2.746200
C      -0.193300     3.260600     5.634300
C       6.657200     1.660000     7.294900
H       7.503800     1.722500     6.748700
H       6.385800     0.812800     7.291000
H       6.855100     1.985100     8.179800
C      -1.023600     3.750500     6.613700
H      -1.785300     4.157800     6.387200
C      -0.683700     3.531800     7.937000
H      -1.269000     3.853000     8.597100
C       0.305000     0.271700     4.635700
H      -0.469100     0.656500     4.293300
H       0.389500    -0.594000     4.383600
H       0.131900     0.250100     5.603800
C       0.472300     2.851900     8.268500
H       0.698100     2.657300     9.113800
C       4.900000    -0.187900     5.001400
C       7.124000    -0.010900     3.416500
H       7.875000     0.125000     2.922400
C       6.645800     1.090700     4.092800
C       3.261400     1.229700     2.530000
C       3.570900     5.500700     8.102500
C       5.341000    -1.314700     4.347500
H       4.859400    -2.125800     4.409300
C       3.852700     0.760600     1.219000
C       6.456600    -1.209800     3.552100
H       6.746400    -1.907000     3.163500
F       2.373400     5.284700     8.571300
F       3.509300     6.645200     7.426600
