95
Refcode: WOKBUU_comp_0 | Dataset: tmCAT | Charge: 0 | Potential Spins: [1, 3, 5]
Pd     15.277100    10.134600     6.803600
Cl     15.145300     7.829700     6.707200
P      17.496300     9.789300     7.447600
C      17.606700     8.761500     8.928500
H      17.827600     7.872800     8.767300
Cl     15.412300    12.437000     6.904700
P      13.044400    10.480500     6.167700
C      17.421200     9.072100    10.242800
H      17.546900     8.358800    10.826100
C      17.057500    10.342200    10.901300
C      17.457800    10.489900    12.207500
H      17.888600     9.801800    12.661800
C      17.199100    11.682900    12.809600
H      17.503000    11.831900    13.677700
C      16.497400    12.675200    12.159200
H      16.300900    13.473100    12.597200
C      16.095900    12.484600    10.887900
H      15.599200    13.134700    10.447100
C      16.427800    11.323100    10.264300
H      16.208100    11.213300     9.369300
C      18.459800     8.781700     6.305300
H      19.011400     8.144200     6.695100
C      18.486600     8.827200     4.983000
H      19.016300     8.160600     4.609400
C      17.865400     9.697000     3.969700
C      17.478600    11.018800     4.268100
H      17.614000    11.345800     5.128100
C      16.895200    11.857100     3.303200
H      16.693900    12.740800     3.512800
C      16.632800    11.378600     2.093700
H      16.220300    11.921500     1.462100
C      16.977000    10.053000     1.763100
H      16.762200     9.717200     0.924600
C      17.642100     9.235000     2.690400
H      17.930100     8.385300     2.443100
C      18.437800    11.305400     7.737900
H      18.097300    12.065400     7.324000
C      19.587400    11.509900     8.485100
H      19.896200    12.386100     8.522700
C      20.379500    10.517600     9.218800
C      20.633300    10.715800    10.565300
H      20.278200    11.456900    11.003400
C      21.403400     9.828300    11.250700
H      21.564500     9.973500    12.153800
C      21.955000     8.716100    10.643300
H      22.457800     8.095000    11.121700
C      21.725600     8.582300     9.326300
H      22.097800     7.848800     8.890900
C      20.990900     9.442000     8.595300
H      20.894500     9.314500     7.678800
C      12.921600    11.468300     4.630900
H      12.658000    12.349500     4.770700
C      13.135200    11.170300     3.365000
H      13.082700    11.895000     2.784500
C      13.432900     9.923000     2.728000
C      14.198100     8.930700     3.389200
H      14.503200     9.093600     4.254600
C      14.506900     7.713700     2.779100
H      14.978000     7.064800     3.249400
C      14.110300     7.473800     1.475500
H      14.325100     6.674700     1.050900
C      13.408500     8.424500     0.843900
H      13.108300     8.246500    -0.016100
C      13.097300     9.692000     1.413700
H      12.675100    10.349700     0.908400
C      12.068500    11.489700     7.299800
H      11.502300    12.108300     6.899300
C      12.045300    11.469500     8.627500
H      11.509600    12.132300     9.001100
C      12.711700    10.590900     9.646200
C      12.897200    11.049100    10.981900
H      12.628700    11.912700    11.202300
C      13.447600    10.277800    11.938800
H      13.533000    10.575700    12.815000
C      13.869800     9.049400    11.565200
H      14.299400     8.519100    12.196800
C      13.707500     8.564600    10.353000
H      14.009000     7.704900    10.170300
C      13.105900     9.289300     9.350500
H      12.969200     8.924400     8.506600
C      12.091700     8.978700     5.864600
H      12.416300     8.226300     6.302700
C      11.005600     8.752700     5.125400
H      10.710200     7.871500     5.122800
C      10.212300     9.659200     4.321800
C       9.630200    10.809300     4.859400
H       9.752200    11.006200     5.759700
C       8.895500    11.640000     4.093400
H       8.516000    12.401200     4.467000
C       8.707600    11.363500     2.763000
H       8.169400    11.917700     2.246900
C       9.309200    10.274000     2.198500
H       9.227400    10.127500     1.282000
C      10.018300     9.409200     2.951100
H      10.380700     8.645400     2.561400
