94
Refcode: WOWBUH_comp_0 | Dataset: tmCAT | Charge: unknown | Potential Spins: [1, 3, 5]
C       7.644200     6.526500     5.732800
H       7.189600     5.925400     6.390000
C       8.895300     6.974200     6.456700
C       8.721700     7.834000     7.546700
C       9.794800     8.207200     8.343400
H       9.648400     8.732000     9.121900
C      11.065900     7.816300     8.005700
H      11.805000     8.073600     8.545600
C      11.262800     7.052600     6.883400
H      12.146800     6.825500     6.620500
C      10.187400     6.604900     6.127100
H      10.339800     6.041900     5.376900
C       7.864400     5.639900     4.523600
C       7.354900     6.032700     3.290000
C       7.592600     5.275900     2.149500
H       7.273100     5.568400     1.304300
C       8.296900     4.100400     2.258700
H       8.475300     3.587000     1.478200
C       8.746000     3.659100     3.476100
H       9.204300     2.830100     3.542800
C       8.531400     4.417200     4.604400
H       8.840800     4.104400     5.445700
C       7.687900    10.455800     7.546700
H       8.361300    10.527500     8.282700
C       8.406600    10.785600     6.240400
H       7.781600    10.663800     5.482000
H       9.161900    10.157900     6.115000
C       8.936200    12.218200     6.228200
H       9.661300    12.305800     6.897600
H       9.316700    12.421200     5.338500
C       7.842300    13.211300     6.543700
H       8.227200    14.122600     6.586100
H       7.166900    13.197800     5.821800
C       7.178300    12.888500     7.856100
H       6.455400    13.542300     8.030000
H       7.839900    12.958800     8.588100
C       6.592900    11.474200     7.831800
H       6.172300    11.273900     8.705400
H       5.893800    11.415600     7.132100
C       6.175400     8.413900     9.041000
H       5.333300     8.946800     8.962200
C       6.867000     8.879200    10.315000
H       7.699300     8.360500    10.448500
H       7.112500     9.834400    10.228000
C       5.960600     8.700300    11.524200
H       6.440600     8.977400    12.345200
H       5.158300     9.272500    11.427200
C       5.542000     7.249800    11.641500
H       6.338700     6.699700    11.847800
H       4.909000     7.158500    12.397800
C       4.888600     6.723600    10.385800
H       4.016400     7.173900    10.258400
H       4.719100     5.754100    10.488900
C       5.758100     6.953600     9.150200
H       6.565000     6.382900     9.204800
H       5.252800     6.692900     8.339300
C       7.296000     8.749200     2.372000
H       7.314700     8.378300     1.443800
C       6.596100    10.108700     2.317400
H       6.524200    10.481600     3.231400
H       5.680000     9.996500     1.957400
C       7.384900    11.078000     1.425600
H       7.392300    10.739200     0.495400
H       6.942300    11.963200     1.427600
C       8.808300    11.220200     1.925100
H       9.309000    11.827600     1.324500
H       8.800600    11.623400     2.829000
C       9.498300     9.893700     1.977700
H      10.411400    10.014400     2.341700
H       9.581600     9.531300     1.061600
C       8.742500     8.903500     2.843100
H       8.749900     9.213700     3.783400
H       9.194200     8.023400     2.806700
C       4.745200     7.319500     2.643000
H       4.195800     8.113600     2.905800
C       4.049100     6.109900     3.249600
H       4.533200     5.285700     2.990800
H       4.065400     6.179200     4.236400
C       2.613300     6.022300     2.772400
H       2.103000     6.789700     3.134300
H       2.204200     5.191800     3.122200
C       2.517900     6.028400     1.255800
H       2.908600     5.191600     0.899900
H       1.564600     6.056900     0.988800
C       3.238100     7.208000     0.653200
H       2.780500     8.044700     0.920100
H       3.207300     7.144100    -0.333700
C       4.696100     7.255400     1.116200
H       5.175100     6.449100     0.800800
H       5.143800     8.051700     0.734000
Br      4.553500     9.504200     5.460800
Ni      6.388600     8.037700     5.529000
P       7.122000     8.691500     7.487600
P       6.391800     7.557100     3.433400
