113
Refcode: WUFGUA_comp_0 | Dataset: tmCAT | Charge: 0 | Potential Spins: [1, 3, 5]
Ti      5.752700     3.434700     2.097500
C       7.061200     6.405400     0.475500
H       6.274200     6.836000     0.846200
H       7.552100     7.067300    -0.036500
C       6.640900     5.287200    -0.426900
C       5.883100     3.313200    -1.030100
H       5.515200     2.460100    -0.998200
C       6.295600     3.937600    -2.202900
C       6.802800     5.200700    -1.779100
H       7.179600     5.850300    -2.327500
C       6.247900     3.417100    -3.608200
C       5.562300     2.083500    -3.693300
H       4.641500     2.180800    -3.439600
H       5.992900     1.463900    -3.102300
H       5.612600     1.755700    -4.594200
C       5.465600     4.390800    -4.497000
H       5.379100     4.019700    -5.378200
H       5.935500     5.226100    -4.547200
H       4.594000     4.534700    -4.123300
C       7.640000     3.229900    -4.150600
H       8.182900     2.788300    -3.494300
H       8.021300     4.086900    -4.357200
H       7.604000     2.696200    -4.948200
C       8.615900     7.136600     2.863800
C       8.658000     6.965000     4.229600
H       8.446000     6.131900     4.586700
C       9.005200     7.981500     5.074300
H       9.034000     7.838400     5.993500
C       9.314300     9.235000     4.548700
H       9.543400     9.938300     5.112300
C       9.277500     9.419200     3.190500
H       9.494400    10.253400     2.842500
C       8.934400     8.418200     2.333600
H       8.908600     8.570000     1.416000
C       9.546200     5.081200     1.031600
C       9.414000     3.922200     0.282600
H       8.576700     3.535600     0.167100
C      10.545500     3.330100    -0.303900
H      10.450000     2.556900    -0.811300
C      11.791800     3.884700    -0.133700
H      12.535300     3.485500    -0.521100
C      11.935000     5.036600     0.613800
H      12.775800     5.418900     0.720100
C      10.825900     5.623800     1.204800
H      10.933700     6.388200     1.722800
C       5.080000     5.752400     4.797800
H       6.008700     5.995300     4.655000
H       4.737600     6.278000     5.536200
C       4.978800     4.295900     5.118400
C       5.055200     2.122700     4.829700
H       5.194800     1.289100     4.442300
C       4.551400     2.301100     6.072500
C       4.493000     3.700900     6.259400
H       4.182600     4.139800     7.017500
C       4.189400     1.226600     7.085800
C       3.115600     1.693000     8.029300
H       3.409800     2.486800     8.483600
H       2.933800     1.004800     8.673500
H       2.316300     1.886200     7.534000
C       3.778700    -0.052500     6.426500
H       3.591900    -0.711900     7.096500
H       4.490700    -0.362800     5.861300
H       2.993100     0.097800     5.897800
C       5.468400     0.965800     7.956400
H       5.781500     1.795200     8.322500
H       6.154200     0.577100     7.409400
H       5.250400     0.361700     8.671900
C       4.361300     7.794500     2.871400
C       3.696600     8.292600     1.744100
H       3.117600     7.741300     1.268600
C       3.893700     9.602500     1.329400
H       3.442100     9.927700     0.584900
C       4.769200    10.427300     2.028200
H       4.903600    11.305900     1.757800
C       5.436700     9.929400     3.126600
H       6.030000    10.477300     3.587000
C       5.239500     8.632300     3.556600
H       5.693400     8.316700     4.304100
C       2.394500     5.807100     3.722200
C       1.981800     4.498500     3.953100
H       2.579500     3.791100     3.865000
C       0.664800     4.267500     4.317700
H       0.382600     3.397800     4.484900
C      -0.230400     5.308100     4.434700
H      -1.109000     5.138000     4.690000
C       0.171600     6.604100     4.171900
H      -0.441900     7.301200     4.226600
C       1.482600     6.865100     3.830100
H       1.759000     7.739100     3.672100
C       4.090700     0.904500     1.839800
H       3.430400     0.820200     2.531100
H       4.913800     0.508800     2.133000
H       3.783500     0.458400     1.048300
C       3.109100     2.850000     0.888800
H       2.990100     2.412700     0.042500
H       3.213500     3.793300     0.752000
H       2.342500     2.688200     1.443300
C       8.067600     1.983300     3.269500
H       8.055500     1.115700     3.679700
H       7.870000     2.652100     3.930300
H       8.936400     2.150600     2.897200
C       7.331300     1.047600     1.165300
H       8.193300     1.218000     0.780900
H       6.658900     1.102100     0.483100
H       7.321800     0.168700     1.552700
N       6.083700     4.115700     0.091200
N       5.339200     3.321500     4.200800
N       4.308000     2.317300     1.548100
N       7.054600     2.037200     2.199900
O       7.326000     4.792900     2.639000
O       4.560900     5.185700     2.196900
P       8.093100     5.793300     1.808400
P       4.130800     6.084500     3.322000
