66
Refcode: WUHBEI_comp_0 | Dataset: tmCAT | Charge: 0 | Potential Spins: [1, 3, 5]
Zn      3.752700     2.523500     4.691000
Br      2.212200     2.450200     6.496600
Br      4.929200     0.491100     4.399400
Cl      7.304800     7.133200     0.422200
O       4.908800     4.073200     4.814800
O       7.544000     7.064400     8.211400
O       2.638000     6.417200     5.821500
O      -0.083000     2.348800     2.514900
O       2.408100     5.757100     1.113300
N       2.961300     3.073800     2.829900
N       5.317500     6.334300     6.201500
H       4.856700     5.710700     5.866500
C       5.418000     4.729000     3.774900
C       5.072500     4.461000     2.419900
C       5.669900     5.209600     1.416600
H       5.446400     5.041400     0.530000
C       6.581800     6.192400     1.704900
C       6.909100     6.504000     3.016600
H       7.506600     7.190500     3.208200
C       6.323800     5.766600     4.036500
C       6.613300     6.068600     5.484800
H       7.067800     5.314900     5.893100
H       7.190900     6.844600     5.549800
C       5.402300     6.197800     7.693100
H       4.500900     6.188200     8.049700
H       5.805100     5.339800     7.898100
C       6.170000     7.253300     8.399700
H       5.911800     8.124700     8.061400
H       5.965200     7.225000     9.348000
C       8.303400     8.055000     8.893000
H       9.239100     7.884200     8.766400
H       8.096600     8.026500     9.829700
H       8.085600     8.921900     8.543000
C       4.646400     7.579400     5.721500
H       4.677900     7.608400     4.753200
H       5.125300     8.352600     6.059800
C       3.216800     7.645600     6.173100
H       3.169700     7.780800     7.133100
H       2.754400     8.376500     5.734800
C       1.340000     6.238800     6.338100
H       1.006200     5.377900     6.073100
H       0.762800     6.924900     5.994800
H       1.366800     6.291300     7.296400
C       4.170500     3.331600     1.986600
H       3.873900     3.514100     1.081600
H       4.698700     2.518300     1.958300
C       2.114400     4.306100     3.048200
H       1.389900     4.072300     3.649900
H       2.659400     4.971000     3.498200
C       1.527800     4.932800     1.839900
H       1.208400     4.229900     1.253300
H       0.760000     5.461600     2.108300
C       2.612000     7.042100     1.686600
H       3.223200     7.543300     1.141600
H       2.978600     6.944300     2.569900
H       1.773500     7.506900     1.738300
C       2.227900     1.945400     2.168300
H       2.828800     1.186800     2.103300
H       2.000300     2.215700     1.265000
C       0.973300     1.498800     2.859900
H       0.761100     0.589700     2.598200
H       1.105000     1.514200     3.819900
C      -1.272200     2.082100     3.189900
H      -1.948900     2.698600     2.899900
H      -1.133100     2.179300     4.134900
H      -1.554400     1.184700     2.998200
