44
Refcode: WUTQAD_comp_0 | Dataset: tmCAT | Charge: 0 | Potential Spins: [1, 3, 5]
Ta      7.570200     6.139500     3.381100
Cl      7.540600     6.012000     1.000600
Cl      5.485900     5.003500     3.340700
Cl      9.589900     7.364800     3.234900
N       7.166400     7.405600     4.951500
N       6.094600     7.977800     2.606400
N       7.933800     4.905300     4.964800
N       9.160400     4.355800     2.795000
C       7.898600     7.598800     6.130700
H       8.632000     7.097600     6.405200
C       7.360200     8.636100     6.800500
H       7.657500     8.968200     7.617500
C       6.277500     9.128300     6.064600
H       5.733400     9.842400     6.309300
C       6.155400     8.386900     4.933300
C       5.233400     8.335600     3.785600
H       4.805900     9.196200     3.651600
H       4.547700     7.665300     3.926200
C       6.915800     9.179600     2.231000
H       6.334600     9.922400     2.050700
H       7.428800     8.983300     1.443800
H       7.507900     9.400000     2.952100
C       5.139700     7.713600     1.473600
H       4.715800     8.534900     1.210600
H       4.473500     7.088500     1.759700
H       5.620600     7.352700     0.727700
C       7.224500     4.793600     6.191900
H       6.501700     5.325100     6.433400
C       7.740500     3.818300     6.951000
H       7.414500     3.528400     7.772900
C       8.890700     3.301900     6.259700
H       9.450500     2.615000     6.540900
C       8.991800     4.014600     5.126800
C       9.953800     4.031200     4.000600
H      10.640100     4.700000     4.147800
H      10.380100     3.164500     3.903000
C      10.118000     4.574700     1.670400
H      10.743100     3.844000     1.632300
H      10.599800     5.394500     1.810900
H       9.634300     4.620000     0.841800
C       8.357600     3.134300     2.484000
H       8.938700     2.370400     2.447700
H       7.918800     3.246100     1.637300
H       7.697100     3.001500     3.168700
