70
Refcode: WUVNUW_comp_1 | Dataset: tmCAT | Charge: unknown | Potential Spins: [1, 3, 5]
Zn      9.460200     4.752000    -0.603200
N       9.815800     6.796500    -0.514500
N       9.556600     7.340200     0.701500
N       7.531200     5.179600    -0.032700
N       7.429800     6.039000     1.007100
N      10.139200     4.541600     1.337600
N       9.513800     5.356900     2.240300
O      11.583400     8.207700    -3.244200
O      10.269800     6.397700    -3.083700
O       4.853300     3.779900    -1.920700
O       7.067100     3.720700    -2.263600
O      11.786700     1.483400     1.955000
O      12.182600     2.970700     0.330500
O       9.394100     2.155800    -0.740500
O      10.184200     3.730500    -2.031400
C       9.994000     9.462900     1.976800
H       9.527200     8.989600     2.669000
H       9.516300    10.266400     1.758500
H      10.876900     9.686600     2.280800
C      10.090600     8.597200     0.762300
C      10.665100     8.858900    -0.444300
H      11.096900     9.642300    -0.700000
C      10.476300     7.723700    -1.217600
C      10.861100     7.484700    -2.614400
C      10.375400     6.060000    -4.508600
H       9.468500     5.957800    -4.837500
H      10.744500     6.840600    -4.952900
C      10.929900     5.211900    -4.865600
H      10.856900     5.159800    -5.821300
H      10.576000     4.411500    -4.472700
H      11.853500     5.308300    -4.620800
C       5.658700     7.245700     2.315100
H       6.417800     7.592700     2.789000
H       5.093500     6.763400     2.923100
H       5.164500     7.973300     1.928500
C       6.120500     6.330900     1.236300
C       5.379000     5.633600     0.338300
H       4.452100     5.627100     0.265000
C       6.284100     4.932100    -0.450500
C       5.979300     4.087300    -1.602600
C       6.870500     2.827800    -3.406400
H       7.659800     2.845400    -3.969200
H       6.118800     3.140100    -3.933300
C       6.617200     1.444500    -2.959000
H       6.492100     0.879500    -3.724400
H       5.827600     1.423900    -2.413300
H       7.366300     1.130700    -2.449200
C       9.208600     5.623800     4.698800
H       8.693900     6.385500     4.421300
H       9.941300     5.916100     5.244400
H       8.650700     5.028700     5.203900
C       9.735000     4.913400     3.496800
C      10.514200     3.785000     3.406400
H      10.818100     3.256000     4.107900
C      10.754000     3.595500     2.051600
C      11.601300     2.556400     1.449900
C      13.031200     2.018000    -0.347700
H      13.098800     2.256000    -1.284600
H      12.635200     1.134700    -0.288400
C      14.403800     1.987300     0.257200
H      14.945800     1.347700    -0.210500
H      14.340600     1.739000     1.181700
H      14.803400     2.857300     0.187100
C       9.958700     2.525700    -1.775700
C      10.395700     1.516800    -2.814000
H      10.815200     1.974300    -3.546700
H       9.631200     1.033900    -3.132000
H      11.021800     0.904300    -2.419500
B       8.709700     6.558700     1.725800
H       8.461600     7.142000     2.472600
