68
Refcode: XABDAI_comp_0 | Dataset: tmCAT | Charge: 0 | Potential Spins: [1, 3, 5]
Pt      0.171600     4.400500     6.715300
P       1.704700     3.121100     5.597600
F       0.786200     6.067800     5.652600
F      -1.271800     4.307000     5.239900
N      -1.305900     5.619700     7.654900
C      -1.899200     6.516900     6.869900
H      -1.652600     6.562200     5.954200
C      -2.865000     7.390200     7.347900
H      -3.240700     8.053900     6.781300
C      -3.272700     7.272400     8.670000
H      -3.959400     7.830600     9.016400
C      -2.654800     6.329600     9.470200
H      -2.912000     6.233500    10.379600
C      -1.669300     5.535400     8.943900
H      -1.231000     4.909200     9.506900
C       1.297900     4.664500     8.435400
C       1.727800     5.947500     8.858800
C       2.410900     6.059800    10.082400
H       2.705600     6.918800    10.358100
C       2.672100     4.989900    10.897900
H       3.138600     5.107700    11.716900
C       2.240600     3.727700    10.503100
H       2.416500     2.967900    11.047400
C       1.553300     3.585000     9.312600
H       1.237200     2.722900     9.071900
C       1.551400     7.238200     8.085500
H       1.854400     7.108000     7.161700
H       2.081900     7.945300     8.506200
H       0.605200     7.492500     8.086400
C      -0.490400     2.616500     7.390000
C      -1.769500     2.428300     7.912700
H      -2.345100     3.175600     8.023700
C      -2.211300     1.163000     8.273400
H      -3.074600     1.063700     8.656500
C      -1.424500     0.062000     8.086400
H      -1.744100    -0.800100     8.326200
C      -0.157500     0.210900     7.543000
H       0.389500    -0.552000     7.402500
C       0.311900     1.463800     7.205600
C       1.692600     1.607700     6.605900
H       1.903200     0.821800     6.043700
H       2.371400     1.671600     7.323700
C       1.060400     2.623600     3.899100
C       0.722100     3.870300     3.066600
H       0.261800     3.600500     2.244900
H       1.548000     4.344800     2.837500
H       0.140100     4.462700     3.587600
C      -0.208100     1.764600     4.086100
H      -0.881400     2.276300     4.579300
H       0.018500     0.955200     4.590100
H      -0.565600     1.513400     3.208900
C       2.076500     1.752200     3.122100
H       1.655700     1.408000     2.306700
H       2.361200     1.001700     3.685100
H       2.856600     2.294900     2.883100
C       3.503400     3.684200     5.507600
C       3.687700     4.729400     4.409300
H       3.008200     5.430200     4.506800
H       3.593400     4.301400     3.533000
H       4.579800     5.129400     4.484500
C       3.911200     4.344800     6.817100
H       4.847400     4.630100     6.761600
H       3.806800     3.706000     7.552000
H       3.342400     5.126300     6.980000
C       4.443300     2.484100     5.270400
H       5.373000     2.794200     5.273900
H       4.237400     2.074700     4.404800
H       4.315300     1.823500     5.982900
