78
Refcode: XABLOD_comp_0 | Dataset: tmCAT | Charge: 0 | Potential Spins: [1, 3, 5]
Pd      0.718500     5.320000     5.359200
Cl      1.516200     6.779200     3.796500
Cl     -1.243700     6.657600     5.622700
P       2.323300     3.844400     4.944700
N       0.139500     4.047000     6.924200
N      -0.227400     4.717300     8.086700
C      -0.738300     3.972400     9.255300
H      -1.077100     3.093700     8.949700
H      -1.501300     4.470500     9.642200
C       0.287800     3.748600    10.328700
C       0.861800     2.477100    10.548300
H       0.598700     1.752000     9.993900
C       1.783100     2.256600    11.534100
H       2.145800     1.387800    11.664700
C       2.196600     3.339400    12.361900
C       3.174100     3.148500    13.404600
H       3.547300     2.286300    13.545800
C       3.570000     4.191800    14.189300
H       4.194700     4.048100    14.891000
C       3.057700     5.462200    13.963500
H       3.362100     6.187400    14.496400
C       2.106400     5.695900    12.973000
H       1.761800     6.572400    12.845600
C       1.650800     4.632800    12.157600
C       0.681100     4.818200    11.131800
C       0.059300     6.138000    10.844700
C      -0.707600     6.890600    11.802900
C      -1.031800     6.359600    13.094400
H      -0.656900     5.528000    13.360000
C      -1.854100     7.008000    13.942000
H      -2.073400     6.613000    14.777400
C      -2.398900     8.276100    13.599600
H      -2.957100     8.738000    14.213800
C      -2.115300     8.823600    12.394100
H      -2.485900     9.669400    12.171400
C      -1.269900     8.157700    11.442000
C      -1.051400     8.677700    10.133700
H      -1.361100     9.546500     9.903300
C      -0.393700     7.915200     9.218400
H      -0.288200     8.244300     8.333900
C       0.139500     6.637200     9.550100
C       0.733600     5.807800     8.441400
H       0.904900     6.377200     7.649000
H       1.593700     5.417200     8.736200
C      -0.105900     2.804100     6.753700
H      -0.607000     2.367400     7.434000
C       0.315700     1.980200     5.598900
C      -0.387600     0.796500     5.422300
H      -1.127800     0.601200     5.984400
C      -0.016600    -0.114100     4.425700
H      -0.518300    -0.909500     4.290600
C       1.088000     0.161300     3.637900
H       1.366500    -0.464100     2.979100
C       1.797700     1.353800     3.806800
H       2.549600     1.531500     3.255500
C       1.423500     2.284100     4.769700
C       3.319300     3.990000     3.446000
C       4.697200     3.870400     3.418300
H       5.179000     3.744200     4.227600
C       5.390100     3.936200     2.188300
H       6.337600     3.858300     2.172900
C       4.699000     4.115000     1.008900
H       5.171700     4.173200     0.187300
C       3.323700     4.210500     1.018100
H       2.852200     4.314700     0.199600
C       2.612200     4.154500     2.234300
H       1.664200     4.226900     2.239000
C       3.444400     3.686100     6.348300
C       4.341200     4.721700     6.626300
H       4.401600     5.458900     6.030400
C       5.138200     4.693200     7.745700
H       5.776100     5.383200     7.891600
C       5.015500     3.672900     8.653300
H       5.531600     3.680600     9.450300
C       4.134800     2.624100     8.403000
H       4.064600     1.903400     9.018800
C       3.361300     2.635100     7.257400
H       2.765500     1.915400     7.087000
