94
Refcode: XAGGAP_comp_0 | Dataset: tmCAT | Charge: unknown | Potential Spins: [1, 3, 5]
Pd      7.073800     3.047100     3.593200
P       6.069500     0.965200     3.653100
O       9.930200     3.710000     2.297200
O       9.322800     2.207900     0.716800
O       9.928900     5.494900     3.685600
C       5.500100     0.787900     5.388200
C       6.093000     1.649100     6.313900
C       5.750200     1.530700     7.651500
C       4.794300     0.602000     8.073000
C       4.169700    -0.197900     7.128500
C       4.532700    -0.123900     5.794600
C       6.982000     2.821700     5.958300
C       8.329600     2.864700     6.417400
C       8.934200     4.109400     6.680700
C       8.235400     5.323300     6.468200
C       6.981000     5.283500     5.837900
C       6.354000     4.037100     5.612100
C       9.042900     1.565000     6.628100
C       9.311800     0.759900     5.533100
C       9.963800    -0.466700     5.700600
C      10.315100    -0.904400     6.946000
C      10.053200    -0.105600     8.056000
C       9.443500     1.130900     7.898000
C      10.323600     4.117000     7.230100
C      11.373900     3.605000     6.455000
C      12.662200     3.575900     6.974200
C      12.950900     4.056200     8.217800
C      11.911200     4.578700     8.993000
C      10.608300     4.609700     8.509400
C       8.777200     6.621400     6.953500
C      10.025000     7.114300     6.550900
C      10.473600     8.350500     7.017500
C       9.687900     9.098600     7.890500
C       8.470200     8.596800     8.325100
C       8.016800     7.368500     7.851000
C       6.276500     6.505900     5.328000
C       6.958500     7.437700     4.547300
C       6.294100     8.481700     3.920800
C       4.918900     8.605300     4.069400
C       4.230500     7.722400     4.863300
C       4.887600     6.664700     5.499200
C       7.061700    -0.518100     3.294300
C       8.016500    -0.410700     2.276500
C       8.743500    -1.536300     1.883300
C       8.553500    -2.741300     2.506000
C       7.626300    -2.855600     3.527600
C       6.878300    -1.749900     3.920800
C       4.534000     0.654800     2.709200
C       4.448500    -0.299500     1.706400
C       3.254800    -0.540800     1.038500
C       2.142100     0.175500     1.369600
C       2.207500     1.125300     2.353600
C       3.412400     1.389200     3.027100
C       8.965400     3.086700     1.456200
C       7.658000     3.713400     1.685700
C       7.872900     4.763200     2.603800
C       9.269900     4.782400     2.963200
H       6.157300     2.117400     8.325100
H       4.508500     0.600700     9.008000
H       3.442400    -0.766300     7.452100
H       4.150300    -0.667700     5.064600
H       5.445800     4.058000     5.326200
H       8.930700     1.004000     4.711000
H      10.054600    -0.999200     4.938600
H      10.803400    -1.750400     7.049500
H      10.328300    -0.404900     8.994800
H       9.212800     1.693800     8.586600
H      11.240600     3.248500     5.595200
H      13.386500     3.199400     6.466300
H      13.857200     3.989200     8.545200
H      12.118600     4.855700     9.881000
H       9.851600     5.061500     9.043700
H      10.583200     6.619400     6.024100
H      11.343600     8.679700     6.699600
H      10.037400     9.977100     8.176400
H       7.870400     9.120800     8.917700
H       7.134100     7.038100     8.146300
H       7.900600     7.346500     4.415600
H       6.768900     9.154400     3.335700
H       4.335600     9.219800     3.585900
H       3.285500     7.804300     4.998800
H       4.320700     5.964200     6.044800
H       8.156700     0.555000     1.866300
H       9.399000    -1.425700     1.185300
H       9.044400    -3.450000     2.257600
H       7.448400    -3.786400     3.952800
H       6.203900    -1.867900     4.682700
H       5.273400    -0.913500     1.450500
H       3.110500    -1.250400     0.280300
H       1.319700     0.008300     0.914300
H       1.406600     1.722000     2.500300
H       3.501800     2.195700     3.493700
H       6.902100     3.647400     0.953900
H       7.305100     5.630200     2.707300
