54
Refcode: XAJVUC_comp_0 | Dataset: tmCAT | Charge: 1 | Potential Spins: [1, 3, 5]
Ru      8.967400    12.623700     8.462200
Cl      8.779000    15.023400     8.635000
N      10.368600    12.942200     6.931000
N       8.491100    13.129000     5.654100
N       6.506500    12.941800     6.445600
C       9.694800    12.432700    10.576800
H      10.140000    13.071200    11.122500
C      10.437600    11.566300     9.791400
H      11.386100    11.587500     9.844300
C       9.807600    10.643300     8.904100
C       8.396500    10.576700     8.911900
H       7.953200     9.961500     8.339300
C       7.631400    11.417000     9.765400
H       6.686400    11.326300     9.786000
C       8.248000    12.376500    10.575800
C       7.506600    13.319100    11.491300
H       7.974800    14.202700    11.462100
C       7.599100    12.788000    12.927000
H       7.164800    11.911900    12.980100
H       7.151100    13.411700    13.536300
H       8.541900    12.701400    13.183700
C       6.055500    13.553100    11.103100
H       6.013400    13.906200    10.190400
H       5.651800    14.198300    11.721400
H       5.564400    12.705800    11.148400
C      10.626900     9.764900     8.006100
H      10.870800     8.946000     8.484500
H      11.440100    10.240400     7.736500
H      10.103800     9.534500     7.208900
C      11.711300    12.933100     7.083300
H      12.073800    12.824700     7.954300
C      12.570900    13.075900     6.020200
H      13.511000    13.036000     6.153700
C      12.054600    13.277700     4.757500
H      12.636100    13.391100     4.013400
C      10.682300    13.314200     4.581500
H      10.300300    13.458600     3.724400
C       9.888700    13.133300     5.693700
C       7.624100    13.367600     4.588900
H       7.858600    13.574600     3.691900
C       6.389600    13.244200     5.096300
H       5.576200    13.345600     4.616200
C       7.803000    12.859600     6.813000
C       5.346800    12.678800     7.302500
H       4.707300    13.430700     7.229600
H       5.642600    12.619200     8.246000
C       4.644700    11.379600     6.909400
H       3.924500    11.197200     7.564100
H       4.220600    11.502400     6.024000
C       5.547200    10.191600     6.847200
H       6.302000    10.249200     6.274200
C       5.387200     9.066300     7.521300
H       4.645500     8.966500     8.107200
H       6.012900     8.359000     7.421500
