78
Refcode: XAKBUI_comp_0 | Dataset: tmCAT | Charge: 0 | Potential Spins: [1, 3, 5]
Ni      2.294700     6.998800    10.912200
S      -0.705500     7.559400    12.240500
O       0.761500     7.681600    12.248200
O      -1.316400     7.809200    13.510600
O      -1.118600     6.286900    11.660800
O       0.901200    14.145300     7.956300
O       1.767000    16.057500     9.139500
O      -0.569900    15.792500     8.945800
O      -0.028200    10.296600    13.234400
O      -1.656100    13.151500     9.187500
O       0.969900     5.691700    10.049500
H       0.322000     5.637600    10.598000
H       1.310600     4.961200     9.780300
N       3.473600     8.551700    11.619800
N       1.842200     8.468600     9.516400
N       3.024400     5.692200    12.337100
N       3.794700     6.064300     9.804500
C       3.322700     9.697900    10.904400
C       4.296100     8.584800    12.658600
H       4.424500     7.804600    13.148300
C       4.970000     9.727600    13.048100
H       5.537100     9.704300    13.785500
C       4.806900    10.875100    12.359300
H       5.240200    11.649900    12.632800
C       3.984200    10.890200    11.236600
C       3.784000    12.037200    10.421900
H       4.233600    12.826600    10.622300
C       2.958500    11.996600     9.372200
H       2.839200    12.766800     8.863900
C       2.254000    10.810300     9.008500
C       1.361200    10.707500     7.947400
H       1.171000    11.456900     7.431900
C       0.764300     9.525700     7.656700
H       0.188500     9.453900     6.930700
C       1.029000     8.408400     8.470100
H       0.618600     7.598900     8.266700
C       2.453000     9.649800     9.776000
C       4.032900     4.920200    11.882500
C       2.685300     5.594800    13.620900
H       1.993600     6.126700    13.944500
C       3.335200     4.720300    14.497200
H       3.093800     4.698800    15.395100
C       4.315200     3.906300    14.039000
H       4.731800     3.306600    14.614700
C       4.698500     3.975300    12.690100
C       5.698200     3.145100    12.098700
H       6.107800     2.490200    12.615600
C       6.065400     3.288400    10.801300
H       6.719900     2.733500    10.443300
C       5.449600     4.293500     9.976500
C       5.822600     4.531900     8.641900
H       6.498200     4.032600     8.245300
C       5.177900     5.510700     7.934500
H       5.416700     5.685800     7.053900
C       4.163900     6.241700     8.538800
H       3.721900     6.887000     8.034800
C       4.431800     5.087400    10.519100
C      -0.176700    10.823700    12.153000
C      -0.924000    10.160500    11.056200
C      -1.281600     8.792500    11.055500
C      -2.095500     8.315200    10.042400
H      -2.337300     7.417000    10.041000
C      -2.557400     9.134200     9.040000
H      -3.116300     8.791600     8.379900
C      -2.192300    10.459200     9.011400
H      -2.491400    11.008800     8.324000
C      -1.380500    10.972900    10.002900
C      -1.018700    12.433400     9.923500
C       0.079800    12.934800    10.773300
C       0.759500    14.150100    10.543400
S       0.687700    15.101300     9.001500
C       1.680200    14.576100    11.478600
H       2.124700    15.380400    11.336900
C       1.963200    13.849900    12.615600
H       2.571300    14.176300    13.238500
C       1.342800    12.637300    12.827600
H       1.547300    12.133000    13.580800
C       0.410400    12.175800    11.907200
