79
Refcode: XALFOF_comp_0 | Dataset: tmCAT | Charge: unknown | Potential Spins: [1, 3, 5]
Ru     10.888500    10.795900    13.208100
S      13.598800    10.972900    14.897800
P       9.716000    12.696700    14.139100
P      11.592900     9.011400    11.735600
Cl     12.461700    12.289400    12.205000
Cl      9.167800     9.346500    14.009800
C      12.005900    10.429300    14.619500
H      11.653900     9.869500    15.274300
C      14.007700    10.158400    16.427800
C      13.413800    10.548600    17.612300
H      12.767200    11.216500    17.614100
C      13.792000     9.933600    18.805800
H      13.372800    10.168800    19.600900
C      14.778300     8.984700    18.809500
H      15.042100     8.587900    19.608200
C      15.370200     8.624200    17.641400
H      16.037000     7.976000    17.648700
C      15.001000     9.203500    16.438700
H      15.418400     8.950200    15.647300
C      10.752700    14.166100    14.606500
H      11.383600    14.290300    13.867800
C       9.996400    15.504900    14.739400
H       9.421700    15.473200    15.507200
H       9.468200    15.652900    13.951500
H      10.628200    16.220600    14.841200
C      11.605200    13.926600    15.838300
H      12.287700    14.600200    15.891100
H      12.013700    13.060300    15.781900
H      11.052700    13.969600    16.622500
C       8.587100    13.350000    12.825300
H       8.052000    14.063400    13.232900
C       7.610500    12.266200    12.345000
H       7.013900    12.639600    11.693600
H       7.103700    11.938900    13.092800
H       8.103100    11.542600    11.952000
C       9.353100    13.972400    11.649900
H       9.901400    13.302300    11.233300
H       9.908300    14.686800    11.970200
H       8.728100    14.317600    11.007700
C       8.557300    12.282900    15.525400
H       7.966500    11.593600    15.157800
C       9.243700    11.608300    16.717100
H       9.792500    12.249000    17.173800
H       9.791100    10.884700    16.402300
H       8.578700    11.269000    17.319300
C       7.610600    13.385000    16.013000
H       6.983600    13.014900    16.638900
H       7.135900    13.753700    15.265200
H       8.119800    14.077500    16.442400
C      11.267700     7.287800    12.332200
H      10.296100     7.234000    12.441400
C      11.841700     6.970200    13.705900
H      11.551400     6.097100    13.978800
H      11.534700     7.622600    14.339100
H      12.800300     6.989800    13.664100
C      11.621900     6.179900    11.329700
H      12.575200     6.131200    11.229600
H      11.220800     6.377300    10.480000
H      11.290300     5.338500    11.651800
C      10.558200     9.105900    10.190700
H      10.946600     8.486400     9.539400
C       9.111900     8.695100    10.407300
H       8.727200     9.228400    11.105900
H       9.075500     7.767900    10.654700
H       8.616500     8.827600     9.594000
C      10.649800    10.525300     9.592100
H      10.216900    10.538800     8.735200
H      11.572600    10.770100     9.488400
H      10.216900    11.149200    10.178000
C      13.329800     9.139400    11.116800
H      13.505700    10.099000    11.027700
C      14.344000     8.631100    12.137500
H      14.432200     7.678700    12.055700
H      14.043900     8.849200    13.023600
H      15.195300     9.046800    11.977400
C      13.653100     8.534300     9.741300
H      14.566600     8.722200     9.515700
H      13.073900     8.917700     9.079100
H      13.520300     7.584000     9.770400
