95
Refcode: XALFEY_comp_0 | Dataset: tmCAT | Charge: 1 | Potential Spins: [1, 3, 5]
Au      5.363300     2.085700     5.158100
N       7.351800     4.371300     5.658500
N       6.916700     4.086200     3.584600
N       4.569500    -0.721900     5.908000
N       3.062700     0.167800     4.680100
C       6.600400     3.631000     4.817700
C       8.125500     5.288200     4.944300
H       8.717800     5.910200     5.300500
C       7.852300     5.100300     3.668300
H       8.222500     5.567300     2.953600
C       7.330900     4.281300     7.094400
C       8.008500     3.249500     7.724400
C       7.973500     3.220100     9.124600
H       8.413000     2.535500     9.573500
C       7.303200     4.182300     9.857200
C       6.646300     5.193000     9.184700
H       6.191000     5.841000     9.672500
C       6.646900     5.269500     7.790900
C       8.796900     2.217600     6.954200
H       9.316800     2.653800     6.275000
H       8.193500     1.595000     6.543900
H       9.382300     1.749700     7.553700
C       7.299100     4.147400    11.364600
H       8.116800     4.527600    11.695800
H       7.226500     3.237600    11.664000
H       6.553500     4.654100    11.694000
C       5.949600     6.407400     7.090400
H       5.562600     6.089700     6.271500
H       6.583000     7.101400     6.897600
H       5.256900     6.754700     7.658100
C       6.336400     3.571300     2.373700
C       5.143000     4.112200     1.908900
C       4.642300     3.600800     0.720900
H       3.837100     3.932700     0.394400
C       5.297900     2.618900     0.006700
C       6.463000     2.113600     0.509700
H       6.895900     1.437500     0.040700
C       7.025800     2.568200     1.692200
C       4.407100     5.179300     2.665300
H       5.026800     5.850400     2.957100
H       3.974100     4.788900     3.429300
H       3.747200     5.579400     2.094000
C       4.715500     2.096400    -1.294600
H       5.164400     2.511800    -2.035700
H       3.778500     2.303600    -1.331800
H       4.835100     1.145100    -1.340600
C       8.298000     1.973700     2.237300
H       8.125700     1.579700     3.095100
H       8.959300     2.663100     2.329300
H       8.620800     1.299800     1.634200
C       4.223300     0.437300     5.313300
C       3.639800    -1.704800     5.622800
H       3.669400    -2.588200     5.910700
C       2.690700    -1.156300     4.858400
H       1.934700    -1.576600     4.515300
C       5.736100    -0.880100     6.739600
C       5.666200    -0.463500     8.062600
C       6.806800    -0.570900     8.830100
H       6.782100    -0.273900     9.711400
C       7.975500    -1.096100     8.344300
C       7.993900    -1.538300     7.032000
H       8.771800    -1.922400     6.699500
C       6.890000    -1.427400     6.199200
C       4.370300     0.065300     8.636100
H       3.648900    -0.518300     8.388500
H       4.202400     0.945600     8.293000
H       4.435700     0.102700     9.592900
C       9.198800    -1.196000     9.228600
H       8.927100    -1.376400    10.130600
H       9.682400    -0.367700     9.200300
H       9.762700    -1.906200     8.915600
C       6.953700    -1.848200     4.759300
H       6.711200    -1.108600     4.198700
H       6.343300    -2.575000     4.610800
H       7.846200    -2.131500     4.547100
C       2.294700     1.139700     3.941000
C       2.364800     1.124000     2.556900
C       1.633000     2.077000     1.865900
H       1.669300     2.089400     0.937400
C       0.849400     3.013100     2.523800
C       0.788300     2.970400     3.887400
H       0.252900     3.588100     4.329600
C       1.494200     2.039400     4.641500
C       3.213500     0.118600     1.814600
H       2.897100    -0.768500     2.003800
H       4.126400     0.199900     2.099300
H       3.155300     0.285400     0.871900
C       0.090100     4.052100     1.724400
H      -0.443500     3.615400     1.057600
H       0.713000     4.645200     1.298200
H      -0.478100     4.553900     2.311600
C       1.375700     1.985700     6.130000
H       2.183400     2.317700     6.527900
H       1.231500     1.078400     6.407700
H       0.633300     2.527700     6.411200
