68
Refcode: XAQDUO_comp_0 | Dataset: tmCAT | Charge: 1 | Potential Spins: [1, 3, 5]
Pd     14.926800    21.456700     0.754100
P      16.740900    22.674200     0.678600
O      10.196900    17.076100    -1.267500
O      13.139200    20.306700     0.708200
N      15.903600    20.686200     2.547200
C       9.748400    16.386100     1.018500
H       9.297400    15.631300     0.635800
H       9.138900    16.874600     1.576700
H      10.491900    16.082500     1.546100
C      10.260300    17.303800    -0.108200
C      11.001300    18.547200     0.357200
H      10.423600    19.037100     0.964400
H      11.779000    18.268400     0.862300
C      11.445000    19.474600    -0.712300
H      10.677100    19.982400    -1.018500
H      11.764300    18.948800    -1.462400
C      12.524900    20.439200    -0.315300
C      12.890600    21.512800    -1.261300
H      12.130000    22.104800    -1.371600
H      13.080700    21.115400    -2.125700
C      14.058200    22.311800    -0.834800
H      13.773000    23.211600    -0.607200
H      14.696900    22.372600    -1.563400
C      17.154100    22.731400     2.449200
C      17.902500    23.741500     3.046200
H      18.241300    24.432900     2.523700
C      18.143800    23.729100     4.390200
H      18.653300    24.403900     4.777000
C      17.636800    22.720300     5.170900
H      17.795200    22.723100     6.087300
C      16.900600    21.714300     4.618800
H      16.554400    21.036700     5.152500
C      16.673900    21.715700     3.242100
C      15.798700    19.513200     3.051300
H      16.127800    19.380700     3.911600
C      15.191700    18.351200     2.355300
C      14.555500    17.419700     3.107400
H      14.528700    17.513600     4.032000
C      13.943600    16.333700     2.511500
H      13.514600    15.685100     3.022700
C      13.985100    16.238500     1.139900
H      13.521900    15.549800     0.720500
C      14.675000    17.103700     0.394900
H      14.755400    16.976800    -0.522500
C      15.257600    18.178700     1.003200
H      15.708500    18.806600     0.484700
C      18.141400    21.882700    -0.125500
C      19.421200    22.055200     0.352100
H      19.574700    22.565800     1.114400
C      20.464500    21.465900    -0.310200
H      21.334800    21.598400    -0.009200
C      20.235300    20.673800    -1.426700
H      20.947200    20.250100    -1.850200
C      18.950700    20.510900    -1.910400
H      18.792200    20.004500    -2.674700
C      17.931700    21.097400    -1.259300
H      17.066300    20.977400    -1.573600
C      16.690900    24.363900     0.033700
C      17.414900    24.764100    -1.072500
H      18.031700    24.177600    -1.449100
C      17.246700    26.015800    -1.632800
H      17.705000    26.239300    -2.411400
C      16.442300    26.896200    -1.071500
H      16.388700    27.761500    -1.408300
C      15.684200    26.534600     0.005100
H      15.062500    27.132200     0.354100
C      15.830400    25.277500     0.582700
H      15.342900    25.056700     1.344000
