139
Refcode: XARCOJ_comp_0 | Dataset: tmCAT | Charge: 0 | Potential Spins: [1, 3, 5]
Ru      4.228200     1.794300     0.336800
P       4.810300     0.576900     2.209600
P       5.193100     3.861800     0.833600
Cl      6.011800     0.783000    -0.942500
Cl      2.067600     2.395600     1.269300
N       3.266800     0.164600    -0.578000
H       3.889600    -0.373300    -0.940300
H       2.831200    -0.307200     0.053300
N       3.532700     2.597900    -1.593800
H       2.866100     3.186400    -1.449300
H       4.208400     3.033400    -1.996200
C       2.277900     0.567800    -1.660500
H       1.520900     1.029300    -1.242600
C       3.063200     1.549100    -2.451900
H       3.851000     1.082400    -2.803100
C       2.267200     2.107800    -3.674500
C       1.058400     2.770300    -3.441000
H       0.733400     2.922000    -2.583000
C       0.372200     3.189000    -4.583600
H      -0.522000     3.427500    -4.499100
C       0.962200     3.266800    -5.830700
H       0.626300     3.789200    -6.522000
C       2.125300     2.477300    -5.950700
H       2.477900     2.365800    -6.804300
C       2.760900     1.879700    -4.945900
H       3.499400     1.331300    -5.090400
C       1.763400    -0.639100    -2.407400
C       0.429400    -0.824500    -2.536300
H      -0.147600    -0.217800    -2.127300
C      -0.106500    -1.866700    -3.238800
H      -1.016000    -2.054700    -3.265400
C       0.849900    -2.592700    -3.903400
H       0.499400    -3.242100    -4.470200
C       2.242000    -2.551200    -3.890100
H       2.820200    -3.132000    -4.330200
C       2.584700    -1.503800    -3.118700
H       3.497600    -1.336500    -3.052000
C       4.643000    -1.239300     1.740500
C       3.343300    -1.844700     1.751600
H       2.600600    -1.385800     2.074000
C       3.237000    -3.102100     1.280400
C       4.294800    -3.789200     1.007000
H       4.190300    -4.686300     0.784700
C       5.654300    -3.233100     1.024800
C       5.721400    -2.022300     1.424900
H       6.566000    -1.643800     1.509300
C       1.797700    -3.597300     0.998100
H       1.823100    -4.306400     0.351200
H       1.271100    -2.871400     0.655800
H       1.404800    -3.921400     1.811700
C       6.855800    -4.106800     0.740200
H       7.554800    -3.575300     0.349000
H       6.607600    -4.805500     0.131200
H       7.171600    -4.495700     1.560500
C       6.529300     0.635200     2.923100
C       7.552000     1.191300     2.114000
H       7.352900     1.468800     1.249300
C       8.863500     1.335200     2.605200
C       9.083000     0.816700     3.936800
H       9.947600     0.827100     4.279100
C       8.060300     0.304600     4.734800
C       6.768800     0.181500     4.181300
H       6.082800    -0.194500     4.679200
C       8.323900     0.038900     6.195200
H       9.116700    -0.487400     6.288600
H       7.577500    -0.423900     6.577600
H       8.442600     0.880200     6.653100
C       9.880700     1.778600     1.833900
H      10.489500     1.056500     1.660500
H      10.343300     2.483800     2.291800
H       9.531900     2.110400     1.002500
C       3.826400     0.665000     3.803400
C       3.375400     1.895200     4.301300
H       3.422700     2.674300     3.796700
C       2.854100     1.887500     5.590600
C       2.657100     0.745400     6.355300
H       2.313100     0.815400     7.217700
C       2.983400    -0.523700     5.819500
C       3.561900    -0.497800     4.528000
H       3.779100    -1.313200     4.136800
C       2.406200     3.357500     6.135200
H       1.514200     3.317300     6.484200
H       2.433700     3.992700     5.410500
H       3.008200     3.645300     6.826500
C       2.600100    -1.774700     6.495300
H       3.098100    -1.864100     7.311100
H       2.788200    -2.520100     5.921800
H       1.661400    -1.755200     6.695400
C       4.425900     5.190500    -0.233400
C       5.114900     5.974800    -1.071400
H       6.040000     5.895800    -1.067000
C       4.550600     6.900400    -1.947300
C       3.171200     7.052100    -1.902800
H       2.757800     7.673000    -2.456300
C       2.394700     6.274300    -1.031400
C       2.986700     5.329300    -0.195600
H       2.468800     4.801600     0.371200
C       5.273100     7.911600    -2.803100
H       5.429400     8.708800    -2.291800
H       4.736500     8.122900    -3.570000
H       6.112100     7.544700    -3.089800
C       0.725500     6.298900    -1.207000
H       0.389700     7.158400    -0.942500
H       0.334700     5.618300    -0.653500
H       0.496600     6.135600    -2.125100
C       5.014400     4.548900     2.529700
C       4.295900     5.602800     2.738600
H       3.826500     5.998200     2.040600
C       4.225300     6.142100     4.027900
C       4.879000     5.496500     5.086000
H       4.738200     5.780400     5.961800
C       5.693500     4.495700     4.841500
C       5.777800     3.991400     3.541100
H       6.347700     3.279700     3.356600
C       3.355700     7.298400     4.434700
H       3.339700     7.947900     3.734500
H       3.703000     7.689900     5.237100
H       2.463300     6.976900     4.597000
C       6.308600     3.616800     6.004000
H       6.914400     4.141800     6.524200
H       6.778300     2.864900     5.623900
H       5.601000     3.288800     6.568700
C       6.983900     4.239000     0.431200
C       7.782300     5.067400     1.215900
H       7.469400     5.386300     2.034000
C       9.041700     5.405700     0.766900
C       9.486300     5.042800    -0.442400
H      10.264500     5.405700    -0.793600
C       8.787900     4.119800    -1.135900
C       7.519700     3.711400    -0.733600
H       7.040500     3.094400    -1.238200
C       9.257700     3.637500    -2.483000
H       8.732600     4.052400    -3.172100
H       9.155200     2.684700    -2.534100
H      10.181100     3.867000    -2.600800
C       9.781900     6.416900     1.700500
H      10.538700     5.978700     2.100600
H       9.184100     6.711200     2.389600
H      10.080900     7.168800     1.187000
