101
Refcode: XAWFEJ_comp_0 | Dataset: tmCAT | Charge: 0 | Potential Spins: [1, 3, 5]
V       7.988600     3.680000     5.553200
Cl      7.720100     1.643600     6.719100
O       6.353800     3.593100     4.666200
O       9.633500     3.170300     4.853400
N       8.323500     5.639500     4.663400
N       8.136200     4.831400     7.345500
C      11.971100     3.166100     4.311800
C      10.691700     3.772700     4.262800
C      12.997400     3.801100     3.611400
H      13.837700     3.404100     3.622600
C       7.026600     6.273700     4.280000
H       7.200500     7.164400     3.938300
H       6.474000     6.363300     5.072200
C       6.268600     5.494100     3.243600
C       5.872500     4.188000     3.551800
C       9.148200     5.597700     3.429200
H       9.259000     6.504400     3.103900
H       8.660200     5.103200     2.752000
C       4.984200     3.506200     2.693100
C      10.518200     4.974300     3.579300
C      13.691300     1.404600     4.951300
H      14.241000     2.084600     5.347500
H      13.813900     0.578200     5.424500
H      13.942100     1.286300     4.031800
C       4.680300     4.122900     1.486800
H       4.105100     3.678500     0.906500
C       4.375600     2.150800     3.107400
C       4.881300     5.897700    -0.317500
C      11.587000     5.574300     2.911200
H      11.455300     6.380600     2.467400
C      12.850700     4.983500     2.898800
C      13.998100     5.610200     2.090700
C       5.472800     1.098000     3.304900
H       5.961900     0.988400     2.486700
H       6.069600     1.384300     3.999700
H       5.071600     0.261100     3.552500
C       8.981400     6.461700     5.711100
H       8.959400     7.395200     5.447500
H       9.909700     6.195200     5.792800
C       5.945500     6.053900     2.010300
H       6.249600     6.907800     1.803000
C       8.291100     6.302900     7.056500
H       7.414100     6.739600     7.041000
C       5.177500     5.361200     1.085400
C      12.211300     1.828300     5.030200
C       9.160100     6.887000     8.201700
H       9.861000     7.454900     7.844600
H       8.616600     7.407800     8.812900
C       9.434900     4.477100     8.024700
H      10.137000     4.338500     7.369500
H       9.336400     3.669100     8.551800
C      11.364700     0.730300     4.394600
H      11.522900    -0.099600     4.849900
H      10.436100     0.962100     4.463400
H      11.603900     0.638000     3.469000
C       9.763500     5.660400     8.916900
H      10.723300     5.759100     9.016100
H       9.368200     5.547300     9.795300
C       5.646500     4.747000     7.713100
H       4.980000     4.582300     8.384400
H       5.546100     5.639600     7.374800
H       5.541500     4.118300     6.996200
C       3.410200     1.601800     2.031300
H       3.885600     1.483500     1.205300
H       3.055000     0.758100     2.319500
H       2.690500     2.223700     1.899200
C       7.010800     4.592500     8.317500
H       7.093900     3.696000     8.677400
H       7.098500     5.215800     9.055700
C      11.853600     1.957000     6.524100
H      12.387600     2.648400     6.922400
H      10.924100     2.179400     6.612700
H      12.027100     1.123400     6.967700
C       3.590000     2.329700     4.411600
H       2.904800     2.989400     4.283600
H       3.188200     1.494000     4.659200
H       4.186300     2.617200     5.106400
C       3.414600     6.233600    -0.471600
H       3.253900     6.566900    -1.358000
H       2.888200     5.443600    -0.327500
H       3.169700     6.903100     0.170900
C      14.240900     7.051600     2.564200
H      14.449900     7.050000     3.501000
H      14.972900     7.431200     2.073100
H      13.449500     7.574700     2.414000
C       5.285500     4.829800    -1.360400
H       6.216100     4.619800    -1.258500
H       4.761300     4.036700    -1.225000
H       5.128200     5.170200    -2.243900
C      15.321800     4.854800     2.317300
H      15.538900     4.864400     3.253200
H      15.227300     3.947200     2.020700
H      16.023700     5.282800     1.822300
C      13.670300     5.589300     0.628300
H      13.521200     4.683600     0.347300
H      12.876600     6.107100     0.472000
H      14.400000     5.963600     0.131100
C       5.733600     7.151900    -0.635100
H       6.664200     6.939700    -0.536600
H       5.562700     7.435600    -1.535800
H       5.500600     7.858800    -0.027600
