79
Refcode: XAWGUY_comp_0 | Dataset: tmCAT | Charge: 1 | Potential Spins: [1, 3, 5]
Pd      7.204600     8.342800    13.165100
O       6.579000     6.739400    12.011400
N       7.743000     4.866500    12.591600
H       7.736200     4.070500    12.798800
N       5.468100     4.779600    12.352400
H       5.570900     4.001900    12.593900
N       7.342600     9.514900    11.352100
N       7.720800    10.091700    14.130900
C       6.598500     5.515300    12.326300
C       8.157000     6.327900    14.979800
C       7.175000     7.230300    14.827900
C       7.518300    10.918300    11.800400
H       6.631900    11.331100    11.957800
H       7.980200    11.437400    11.095500
C       8.334200    10.955200    13.078800
H       9.254800    10.642400    12.891600
H       8.387700    11.886800    13.407800
C       6.179200     9.408100    10.451100
H       5.372600     9.703100    10.923500
H       6.069400     8.475500    10.167500
H       6.323400     9.973300     9.662900
C       8.544100     9.032400    10.632300
H       8.687300     9.578600     9.831100
H       8.414000     8.097600    10.370500
H       9.325400     9.101200    11.219300
C       6.482300    10.732900    14.667200
H       6.706200    11.611000    15.041500
H       6.099600    10.166500    15.368200
H       5.832000    10.842500    13.943400
C       8.701300     9.975500    15.241600
H       9.519600     9.546400    14.912000
H       8.317700     9.434400    15.961800
H       8.916600    10.869100    15.582800
C       9.231200     6.273300    13.922300
C       8.979400     5.586200    12.730000
C       9.877700     5.608400    11.678600
H       9.686000     5.134300    10.877100
C      11.064500     6.328700    11.798900
H      11.674100     6.368900    11.070400
C      11.350400     6.984500    12.981300
H      12.166200     7.462100    13.069500
C      10.450200     6.950100    14.044500
H      10.664900     7.389300    14.859800
C       4.142500     5.196000    12.060700
C       3.176100     4.189500    12.088300
H       3.428600     3.293600    12.280700
C       1.847400     4.494300    11.835800
H       1.201000     3.797500    11.849500
C       1.438600     5.793000    11.563800
C       2.412800     6.773600    11.509700
H       2.157900     7.665100    11.298500
C       3.751800     6.495200    11.753800
H       4.398100     7.189200    11.712300
C      -0.020900     6.132300    11.358500
H      -0.442200     6.303100    12.226500
H      -0.471700     5.382100    10.917700
H      -0.094200     6.933000    10.797800
C       8.169400     5.269100    16.035600
C       7.173600     4.299800    16.057300
H       6.485800     4.322500    15.401100
C       7.165400     3.296400    17.021500
H       6.479600     2.638500    17.017400
C       8.150900     3.257200    17.977300
H       8.147900     2.570000    18.633700
C       9.139100     4.209100    17.985200
H       9.812600     4.183900    18.655000
C       9.160900     5.218600    17.010600
H       9.853600     5.867800    17.017400
C       6.048700     7.408600    15.771000
C       6.249500     7.599700    17.138000
H       7.133700     7.588100    17.485300
C       5.179900     7.806300    18.002400
H       5.338100     7.942200    18.929500
C       3.883400     7.814900    17.513100
H       3.152000     7.945000    18.103900
C       3.657300     7.632800    16.160500
H       2.769400     7.637100    15.822600
C       4.731700     7.442400    15.293800
H       4.568600     7.333300    14.364800
