86
Refcode: XAWJOV_comp_0 | Dataset: tmCAT | Charge: unknown | Potential Spins: [1, 3, 5]
Ti     -5.248900     5.205900    12.069200
N      -6.416100     4.226800    12.913700
N      -3.797600     3.949500    11.798800
H      -4.013500     3.231600    12.070000
N      -4.780300     6.501200    13.820000
C      -7.346600     3.542500    13.673700
C      -6.956100     2.467900    14.481100
C      -5.518100     2.004900    14.540200
H      -4.975800     2.643400    13.995300
C      -5.371300     0.622800    13.908400
H      -5.908200    -0.024600    14.409900
H      -4.429900     0.352200    13.928900
H      -5.682200     0.654100    12.980000
C      -4.947300     2.013900    15.961600
H      -5.010900     2.918500    16.333500
H      -4.008400     1.735400    15.938400
H      -5.458600     1.393300    16.523000
C      -7.916800     1.786900    15.232600
H      -7.647100     1.061200    15.783000
C      -9.243900     2.145800    15.191800
H      -9.889700     1.652700    15.682600
C      -9.625800     3.232700    14.428000
H     -10.535700     3.504400    14.434100
C      -8.717800     3.936100    13.654600
C      -9.178800     5.061000    12.760800
H      -8.380300     5.633500    12.576800
C      -9.635700     4.496300    11.428500
H      -8.930000     3.929400    11.054700
H      -9.825700     5.232100    10.810200
H     -10.447400     3.962900    11.559900
C     -10.248800     5.963400    13.350000
H     -11.070600     5.449000    13.485300
H     -10.423400     6.705800    12.735500
H      -9.938500     6.317800    14.209100
C      -2.835100     3.665500    10.775600
C      -3.138000     2.713900     9.787800
C      -4.478800     2.010500     9.721100
H      -5.091800     2.477900    10.358500
C      -5.116400     2.085400     8.338400
H      -5.137400     3.018000     8.038000
H      -6.031300     1.734300     8.381300
H      -4.591400     1.552100     7.707700
C      -4.364300     0.562500    10.178900
H      -3.772300     0.073800     9.569900
H      -5.251100     0.147600    10.173900
H      -3.995800     0.535600    11.087100
C      -2.148900     2.404100     8.839900
H      -2.326700     1.746600     8.177300
C      -0.928900     3.037000     8.853700
H      -0.267200     2.803300     8.214500
C      -0.666000     4.006500     9.792700
H       0.169800     4.458300     9.773900
C      -1.604300     4.343100    10.775700
C      -1.274200     5.351700    11.846700
H      -2.142000     5.753100    12.141300
C      -0.674700     4.657300    13.066200
H      -1.312000     3.998700    13.414000
H      -0.482400     5.322600    13.758900
H       0.155600     4.204400    12.808400
C      -0.391400     6.504600    11.381500
H       0.502300     6.165800    11.168100
H      -0.324700     7.174400    12.094300
H      -0.785500     6.916100    10.583500
C      -5.224800     7.453900    11.242600
C      -4.303000     6.772900    10.443800
H      -3.371000     6.946300    10.390800
C      -5.003900     5.788900     9.735700
H      -4.625500     5.170600     9.123000
C      -6.363600     5.869400    10.084800
H      -7.063900     5.319300     9.756100
C      -6.491300     6.919400    11.012500
H      -7.301600     7.213500    11.412600
C      -4.878500     8.463700    12.308100
H      -5.708000     8.870700    12.664300
H      -4.322700     9.183800    11.917800
C      -4.113000     7.772600    13.438300
H      -3.185700     7.585900    13.145200
H      -4.070600     8.373100    14.225300
C      -3.906100     5.769900    14.765600
H      -3.054300     5.560800    14.328900
H      -4.344600     4.938000    15.039800
H      -3.739800     6.326800    15.554700
C      -6.040300     6.813200    14.541800
H      -5.840000     7.376800    15.318300
H      -6.461200     5.980100    14.842200
H      -6.652000     7.289500    13.941900
