85
Refcode: XAWKUB_comp_1 | Dataset: tmCAT | Charge: 1 | Potential Spins: [1, 3, 5]
Ru     15.740900     2.112500     9.770500
Cl     16.410500    -0.140100    10.242400
P      15.126200     1.268500     7.689300
P      18.034400     1.571400     7.486500
O      17.634200     2.309700     8.763100
C      14.234200     1.979300    11.300800
C      13.795200     2.839400    10.221700
C      14.578300     3.964400     9.858500
C      15.779800     4.226400    10.480000
C      16.159200     3.410500    11.584300
C      15.378100     2.359600    11.935600
C      13.345100     0.757600    11.544400
C      16.570300     5.448200    10.093300
C      15.962100     6.635800    10.835800
C      18.034100     5.372700    10.280700
C      16.655900     0.467100     7.000500
C      16.518200    -0.017100     5.547800
C      17.530000    -1.082200     5.134500
C      17.091100    -1.754400     3.853100
C      13.854800    -0.022800     7.685500
C      12.500700     0.377400     7.664800
C      11.516800    -0.599500     7.738600
C      11.827400    -1.922400     7.836000
C      13.135000    -2.314000     7.796200
C      14.169100    -1.365600     7.779900
C      14.582000     2.450700     6.410000
C      15.095400     3.730900     6.438000
C      14.825700     4.635100     5.426800
C      14.024000     4.253500     4.374200
C      13.482800     2.977600     4.332900
C      13.817600     2.080400     5.316000
C      18.404200     2.761100     6.209200
C      18.324200     4.123900     6.536900
C      18.534400     5.096500     5.552300
C      18.835700     4.694900     4.269400
C      18.960300     3.379100     3.946100
C      18.778100     2.413700     4.913000
C      19.501600     0.572400     7.731200
C      20.766300     1.052300     7.368100
C      21.893500     0.323200     7.676600
C      21.809800    -0.855800     8.355700
C      20.567300    -1.349900     8.718900
C      19.427200    -0.636500     8.416200
H      12.986200     2.651500     9.761100
H      14.269500     4.546800     9.175000
H      16.953400     3.602700    12.071500
H      15.651500     1.844100    12.685600
H      12.457900     1.045200    11.734900
H      13.341400     0.207900    10.770900
H      13.681800     0.263400    12.284000
H      16.417800     5.593400     9.166200
H      16.507100     7.403300    10.708900
H      15.091600     6.808100    10.496300
H      15.906300     6.436400    11.762900
H      18.225700     5.085100    11.166500
H      18.402300     4.753300     9.660700
H      18.417200     6.230000    10.136100
H      16.776700    -0.323200     7.514200
H      15.645900    -0.377400     5.438600
H      16.624200     0.733400     4.975000
H      18.378200    -0.673500     5.000100
H      17.598800    -1.733000     5.822400
H      16.242900    -2.161600     3.983000
H      17.027800    -1.106400     3.160700
H      17.727200    -2.417900     3.609500
H      12.268200     1.295800     7.601300
H      10.603600    -0.338900     7.722400
H      11.139200    -2.570300     7.929000
H      13.347000    -3.239600     7.779900
H      15.076800    -1.643300     7.834600
H      15.644000     3.997100     7.165800
H      15.192100     5.510800     5.457800
H      13.838000     4.868600     3.673000
H      12.891300     2.728400     3.633100
H      13.514400     1.183300     5.243700
H      18.127100     4.387300     7.428600
H      18.469300     6.019200     5.764800
H      18.958500     5.351400     3.593200
H      19.172400     3.125700     3.055900
H      18.910100     1.499500     4.693100
H      20.846300     1.879700     6.908900
H      22.745300     0.647900     7.410900
H      22.600300    -1.335700     8.578600
H      20.500400    -2.180100     9.175000
H      18.579000    -0.974000     8.680500
