36
Refcode: XAWPOD_comp_0 | Dataset: tmCAT | Charge: 0 | Potential Spins: [1, 3, 5]
Mn      2.258200     6.161100     8.717300
Br      0.680100     7.809200     9.827000
N       2.298000     7.455100     7.113800
N       3.771200     7.449900     9.254500
O       1.204200     6.078700     5.728100
O       4.732800     6.074600    10.738000
C       1.675500     7.312700     5.937500
C       1.546600     8.365300     5.021700
H       1.056900     8.252600     4.215600
C       2.146900     9.564300     5.319100
H       2.068900    10.296800     4.719300
C       2.868300     9.705100     6.498300
H       3.318700    10.517300     6.698300
C       2.915800     8.634600     7.375100
C       0.490800     5.826400     4.504900
H      -0.302500     6.400700     4.465000
H       0.215000     4.886400     4.475400
H       1.073000     6.020200     3.741000
C       4.646200     7.324700    10.261800
C       5.380600     8.403700    10.765000
H       5.969700     8.289900    11.501600
C       5.229400     9.633600    10.167200
H       5.689500    10.391200    10.509300
C       4.398600     9.761000     9.058300
H       4.309200    10.595800     8.613900
C       3.709500     8.655300     8.617600
C       5.758700     5.811700    11.723600
H       6.632700     6.069800    11.362400
H       5.765200     4.856200    11.941800
H       5.574200     6.330600    12.534100
O       2.036700     4.612800    11.220000
C       2.175200     5.236700    10.267700
O      -0.159300     4.628100     8.011800
C       0.782000     5.238300     8.234400
O       3.975900     4.070100     7.566700
C       3.329500     4.905400     7.992000
