66
Refcode: XAXYEC_comp_0 | Dataset: tmCAT | Charge: unknown | Potential Spins: [1, 3, 5]
Fe      3.131000     1.550100     2.278300
H       2.009400     1.488400     1.395300
P       2.909800    -0.614300     2.631100
P       3.406400     3.534600     1.360000
O       1.131400     2.319200     4.211900
N       4.208700     0.909400     0.672000
B       5.176700     1.446500     3.986100
H       4.508200     1.805200     3.083100
H       5.950200     2.438700     4.161800
H       5.951900     0.513000     3.770300
H       4.937100     1.292200     5.027500
C       1.977200     2.025400     3.473600
C       4.443600    -1.222700     1.816700
H       5.202300    -1.186600     2.451500
H       4.323600    -2.160900     1.524300
C       4.721400    -0.347600     0.633000
C       5.434500    -0.811500    -0.470000
H       5.796700    -1.690400    -0.469600
C       5.613400     0.010900    -1.564200
H       6.104900    -0.290300    -2.319500
C       5.064700     1.282200    -1.544300
H       5.168500     1.861400    -2.291000
C       4.360100     1.704000    -0.419500
C       3.688900     3.044600    -0.387400
H       2.824600     2.999800    -0.867200
H       4.259700     3.717100    -0.837200
C       3.036700    -1.364600     4.308400
H       3.867700    -0.984600     4.715400
C       1.900400    -0.978700     5.248600
H       1.075300    -1.425300     4.964500
H       1.771500    -0.008000     5.222500
H       2.124000    -1.254300     6.161700
C       3.232500    -2.876500     4.298400
H       3.424200    -3.186900     5.207500
H       3.981800    -3.105400     3.710200
H       2.415600    -3.309700     3.971300
C       1.537900    -1.502700     1.757500
H       1.579100    -2.469600     2.008900
C       1.700600    -1.392400     0.239000
H       0.912700    -1.771900    -0.202500
H       2.501000    -1.884400    -0.040500
H       1.793500    -0.449900    -0.012000
C       0.177600    -0.956000     2.175700
H       0.146700     0.008000     2.002900
H       0.038900    -1.121200     3.131100
H      -0.526000    -1.402400     1.660800
C       4.886700     4.586600     1.752200
H       4.881300     4.759100     2.738000
C       6.166600     3.810500     1.425400
H       6.237300     3.691800     0.454600
H       6.136900     2.933300     1.860400
H       6.944300     4.310400     1.750800
C       4.917500     5.950000     1.043600
H       5.717400     6.443800     1.320300
H       4.117000     6.462100     1.285800
H       4.937500     5.813700     0.073500
C       2.013900     4.746500     1.281300
H       2.261100     5.454500     0.621100
C       0.707400     4.105000     0.812000
H       0.471600     3.365900     1.411800
H       0.821200     3.761800    -0.099000
H      -0.007900     4.775200     0.822200
C       1.821500     5.422400     2.643400
H       1.144500     6.125900     2.565500
H       2.670400     5.816000     2.934600
H       1.527800     4.756800     3.299200
