53
Refcode: XAYWUS_comp_0 | Dataset: tmCAT | Charge: 1 | Potential Spins: [1, 3, 5]
Co      5.633300     8.913100     6.283100
N       5.772700     8.309200     8.121300
N       4.403500     7.319500     6.166600
N       5.476800     9.322400     4.400500
N       7.293900     7.997600     5.659000
C       6.515300     8.864400     9.102000
H       7.080400     9.596500     8.887000
C       6.487500     8.414600    10.401800
H       7.024700     8.835100    11.063300
C       5.682200     7.355800    10.739100
H       5.650900     7.029000    11.630500
C       4.926800     6.788900     9.753500
H       4.366400     6.049800     9.956900
C       4.970900     7.278500     8.466900
C       4.169100     6.744300     7.357300
C       3.233900     5.731200     7.516100
H       3.095800     5.324700     8.364400
C       2.504000     5.327100     6.404800
H       1.835700     4.657100     6.489100
C       2.752300     5.895200     5.197600
H       2.277700     5.615200     4.423600
C       3.713100     6.893100     5.118200
H       3.884800     7.290200     4.271500
C       4.426700     9.864700     3.753900
H       3.681800    10.147000     4.271500
C       4.368700    10.029800     2.407800
H       3.599400    10.419900     2.007600
C       5.424600     9.632800     1.628900
H       5.409500     9.748700     0.686300
C       6.522300     9.050600     2.267200
H       7.269500     8.755500     1.759500
C       6.514100     8.907700     3.631500
C       7.590900     8.243600     4.380700
C       8.809300     7.879300     3.816700
H       9.001900     8.076100     2.907200
C       9.729500     7.225700     4.608900
H      10.567200     6.961000     4.246700
C       9.437000     6.962200     5.897100
H      10.061300     6.506600     6.449400
C       8.202400     7.371000     6.411400
H       8.004000     7.196500     7.324200
C       6.735800    10.548700     6.525500
H       7.558500    10.323800     7.028200
H       7.001500    10.906000     5.642400
C       5.944400    11.601700     7.286200
H       5.966500    11.419000     8.258600
H       6.320400    12.503600     7.124100
C       4.523000    11.511500     6.757000
H       3.918500    12.073800     7.302700
H       4.485900    11.826600     5.819400
C       4.107600    10.073200     6.836400
H       3.332500     9.913900     6.242700
H       3.837200     9.853000     7.764100
