44
Refcode: XEFQAB_comp_0 | Dataset: tmCAT | Charge: unknown | Potential Spins: [1, 3, 5]
Ru      6.519100     3.962800    -3.458900
Cl      5.733200     1.798600    -2.504700
O       6.112900     3.110000    -6.298300
O       9.408200     3.213300    -3.775900
O       6.622500     6.844300    -3.579300
O       7.794000     5.885200    -5.211100
N       6.759800     4.654000    -1.465700
N       4.578500     4.641000    -2.981200
C       6.229900     3.443200    -5.223000
C       8.299400     3.469400    -3.666000
C       7.881300     4.668600    -0.745800
H       8.688900     4.374600    -1.152600
C       7.916400     5.102300     0.578700
H       8.741000     5.118300     1.050900
C       6.757700     5.505400     1.205900
C       5.555300     5.512700     0.455200
C       5.600000     5.070300    -0.874100
C       4.417900     5.074600    -1.695000
C       3.197400     5.461700    -1.152600
C       2.053600     5.402100    -1.978300
C       2.219600     4.997500    -3.266500
H       1.469400     4.972800    -3.850000
C       3.483600     4.613300    -3.750700
H       3.563400     4.326600    -4.651500
C       4.290200     5.918700     0.971000
H       4.232700     6.209800     1.874200
C       3.180400     5.901200     0.222800
H       2.359000     6.185000     0.607800
C       6.785300     5.940500     2.658700
H       7.715300     6.016200     2.959000
H       6.317100     5.276900     3.205900
H       6.341600     6.809300     2.745900
C       0.693700     5.837200    -1.452800
H       0.719300     6.790400    -1.230100
H       0.473500     5.320600    -0.648900
H       0.012800     5.678600    -2.138100
C       6.982200     5.832800    -4.089700
C       8.194100     7.224100    -5.658800
H       8.967600     7.144100    -6.271400
H       8.481400     7.756700    -4.876700
C       7.056600     7.961900    -6.378000
H       6.718300     7.404600    -7.109200
H       7.393900     8.807500    -6.738800
H       6.333100     8.142400    -5.743600
