87
Refcode: XEHKAZ_comp_0 | Dataset: tmCAT | Charge: unknown | Potential Spins: [1, 3, 5]
Ir      1.876200    11.040800    13.576400
P       1.407200    12.038400    11.503100
P       1.750200     9.591000    15.377000
C       1.273900     9.327000    12.526600
C       1.034900     9.354800    11.125200
C       0.458400     8.279200    10.469300
H       0.261700     8.343600     9.542200
C       0.167400     7.112300    11.154100
H      -0.239600     6.380300    10.703500
C       0.473200     7.015600    12.500200
H       0.310200     6.204900    12.968200
C       1.019200     8.105400    13.169600
C       1.433400    10.602200    10.358800
H       0.802800    10.754300     9.611600
H       2.342100    10.489400     9.981300
C       1.433600     7.939100    14.628400
H       2.253400     7.386100    14.682200
H       0.715500     7.477400    15.128900
C      -0.390500    12.633500    11.393900
C      -0.701900    13.592800    12.548200
H      -1.630700    13.898800    12.477100
H      -0.099000    14.364100    12.504100
H      -0.576300    13.127400    13.401500
C      -0.753400    13.327900    10.067400
H      -1.706900    13.555200    10.068000
H      -0.562100    12.723000     9.320800
H      -0.221600    14.145800     9.969800
C      -1.315400    11.411100    11.510800
H      -1.045000    10.868800    12.280700
H      -1.249600    10.872400    10.693900
H      -2.240600    11.711800    11.629800
C       2.517500    13.319300    10.682100
C       2.264800    14.714900    11.261800
H       2.333100    14.680900    12.238300
H       1.368100    15.017400    11.007800
H       2.931900    15.341300    10.909600
C       2.390200    13.336800     9.149000
H       1.457200    13.506900     8.901000
H       2.670800    12.468800     8.787300
H       2.961100    14.043800     8.781600
C       3.973200    12.961000    10.993900
H       4.570400    13.557000    10.493600
H       4.145000    12.032200    10.732400
H       4.136700    13.064800    11.955200
C       0.123500    10.040200    16.227200
C       0.325100    11.169500    17.255000
H       0.908100    11.858600    16.873700
H       0.737500    10.804400    18.065800
H      -0.543100    11.565000    17.478400
C      -0.648900     8.885900    16.875600
H      -0.093800     8.468900    17.568900
H      -0.873600     8.218300    16.193900
H      -1.472300     9.229500    17.280000
C      -0.729300    10.580700    15.073100
H      -1.577600    10.920700    15.427400
H      -0.908200     9.859500    14.433700
H      -0.248200    11.303700    14.622500
C       3.089800     9.234900    16.658600
C       3.581400    10.528800    17.310800
H       2.859200    10.919000    17.846200
H       3.852500    11.162400    16.613700
H       4.347400    10.331900    17.890500
C       2.598000     8.268400    17.728200
H       3.337400     8.042900    18.329600
H       2.263700     7.450500    17.301200
H       1.875200     8.687200    18.241000
C       4.304100     8.612000    15.948700
H       4.614700     9.217000    15.242600
H       4.046500     7.753000    15.552600
H       5.024600     8.470700    16.598300
C       2.599700    12.754500    14.575900
C       1.947800    13.825400    15.190000
H       0.997700    13.848700    15.180900
C       2.635500    14.865200    15.814500
H       2.154000    15.577500    16.220900
C       4.021100    14.861700    15.845300
H       4.492200    15.561400    16.282500
C       4.717900    13.827200    15.232000
H       5.667800    13.825400    15.236800
C       4.021200    12.793000    14.608200
C       4.642200    11.674200    13.943200
H       5.587400    11.581100    13.929200
C       3.854700    10.769200    13.345100
C       4.368000     9.605300    12.567300
H       5.347200     9.628600    12.550300
H       4.024800     9.646500    11.651000
H       4.069900     8.773100    12.989400
