110
Refcode: XENNIO_comp_0 | Dataset: tmCAT | Charge: unknown | Potential Spins: [1, 3, 5]
Cu     -1.190100     4.104400    16.789800
O      -1.072600     4.360000    13.857700
O       0.386200     3.449300    12.233700
O      -0.512500     1.995300    13.784500
N      -0.840700     3.250200    19.588100
N       0.381800     4.937100    19.121600
C      -0.542800     4.105100    18.573500
C      -0.103900     3.538500    20.724300
H      -0.138600     3.075000    21.553600
C       0.669200     4.598700    20.432800
H       1.288700     5.028800    21.010300
C      -1.787000     2.165500    19.473900
C      -1.347600     0.948300    18.958600
C      -2.277900    -0.084900    18.861400
H      -2.008000    -0.925400    18.510100
C      -3.588600     0.096200    19.268200
H      -4.209100    -0.620400    19.210900
C      -3.992600     1.328700    19.758700
H      -4.899800     1.448900    20.013700
C      -3.107300     2.392000    19.886600
C       0.093100     0.712100    18.542800
H       0.596400     1.564300    18.684900
C       0.205800     0.346700    17.073200
H      -0.306400    -0.469900    16.899300
H       1.147300     0.197900    16.845700
H      -0.150200     1.077900    16.527300
C       0.721500    -0.348500    19.424100
H       0.639200    -0.082400    20.363200
H       1.668300    -0.445200    19.193600
H       0.261600    -1.203600    19.285300
C      -3.577100     3.752500    20.378100
H      -2.776400     4.247700    20.714500
C      -4.168500     4.553200    19.208600
H      -3.481500     4.680500    18.520500
H      -4.472200     5.426600    19.531000
H      -4.925900     4.064300    18.826800
C      -4.579400     3.653900    21.526000
H      -5.405400     3.233700    21.204100
H      -4.779600     4.552700    21.863400
H      -4.197700     3.112100    22.247500
C       0.947600     6.062800    18.421200
C       2.065000     5.844000    17.615400
C       2.583000     6.950100    16.939300
H       3.339700     6.840500    16.375000
C       2.011200     8.203400    17.077300
H       2.381800     8.944700    16.613800
C       0.901500     8.385400    17.887100
H       0.516500     9.249800    17.968600
C       0.344100     7.311400    18.584700
C       2.695700     4.472400    17.487200
H       2.098900     3.821100    17.958200
C       2.789300     4.035900    16.029000
H       1.901800     4.078700    15.617200
H       3.128200     3.116200    15.984000
H       3.401100     4.633100    15.548000
C       4.057900     4.430300    18.179100
H       4.669100     5.057700    17.736700
H       4.424700     3.522200    18.124300
H       3.954900     4.684700    19.120900
C      -0.878900     7.511300    19.472000
H      -1.112200     6.622000    19.863200
C      -2.078700     7.980200    18.652400
H      -1.865500     8.833400    18.219500
H      -2.851800     8.097700    19.243800
H      -2.289200     7.310400    17.968600
C      -0.562300     8.452000    20.631400
H      -0.256100     9.313700    20.278500
H       0.140500     8.058500    21.188600
H      -1.369000     8.588200    21.171300
C      -1.965900     4.199500    15.006200
H      -2.532300     3.388300    14.859300
C      -2.866700     5.401100    15.122000
C      -2.386700     6.729400    15.062600
C      -3.289600     7.784000    15.244800
H      -2.961500     8.674700    15.200200
C      -4.642300     7.587000    15.488100
C      -5.086600     6.288700    15.581500
H      -6.004000     6.129400    15.771200
C      -4.232500     5.197200    15.407000
C      -0.924500     7.017500    14.875800
H      -0.674500     6.842500    13.944000
H      -0.399100     6.440600    15.468400
H      -0.747000     7.957500    15.091200
C      -5.602100     8.753300    15.622400
H      -6.084100     8.878800    14.779700
H      -5.100300     9.567200    15.836900
H      -6.242900     8.567600    16.340400
C      -4.802700     3.811400    15.551600
H      -5.758300     3.870600    15.760800
H      -4.338900     3.340900    16.276400
H      -4.680900     3.320300    14.712300
C       1.049400     2.188600    12.055500
C       1.253000     1.946000    10.552600
H       0.393400     2.026000    10.089100
H       1.617700     1.047000    10.412600
H       1.879200     2.611300    10.196300
C       2.414600     2.275800    12.722700
H       2.894100     3.060600    12.385100
H       2.929000     1.467400    12.520000
H       2.299000     2.355700    13.693100
C       0.094400     1.164900    12.730100
C      -1.031600     0.690600    11.850600
H      -1.689900     0.208200    12.393700
H      -0.677700     0.092700    11.160100
H      -1.462500     1.461200    11.426500
C       0.770900    -0.012800    13.410800
H       1.356100     0.315300    14.125700
H       1.303900    -0.509100    12.753600
H       0.090100    -0.603900    13.791800
B      -0.415300     3.299000    13.337900
