69
Refcode: XEPZUO_comp_0 | Dataset: tmCAT;tmPHOTO | Charge: 0 | Potential Spins: [1, 3, 5]
Ni      5.186300    17.288300     0.682100
N       3.934000    16.711400    -0.687600
N       4.183400    16.308500     2.014100
N       6.435000    17.866200     2.044900
N       6.224500    18.220700    -0.664700
C       4.121800    16.721700    -2.059600
C       3.033600    16.080800    -2.713100
H       2.951900    15.923600    -3.645400
C       2.136400    15.736800    -1.760100
H       1.291000    15.326500    -1.898500
C       2.703800    16.109600    -0.512500
C       2.184300    15.692500     0.705200
C       2.952600    15.702000     1.875500
C       2.584000    15.012200     3.057400
H       1.791800    14.506900     3.195300
C       3.580300    15.213400     3.953300
H       3.618500    14.875800     4.839700
C       4.557800    16.025300     3.316700
C       5.708200    16.497500     3.952900
C       6.578200    17.365300     3.345000
C       7.711800    17.964300     3.981900
H       8.035100    17.770000     4.853100
C       8.235900    18.853900     3.119500
H       8.984100    19.418600     3.275500
C       7.446200    18.787100     1.913400
C       7.753900    19.500000     0.762700
C       7.204600    19.163300    -0.468400
C       7.667800    19.683900    -1.723500
H       8.306500    20.377000    -1.849400
C       7.026500    19.005800    -2.685500
H       7.154100    19.103000    -3.620900
C       6.115700    18.111900    -2.045700
C       5.178400    17.349600    -2.720700
N       0.945100    15.129100     0.727700
H       0.491000    15.035600    -0.020100
H       0.598500    14.858700     1.490700
C       5.901900    16.145900     5.401500
C       6.724000    15.116000     5.810600
H       7.179300    14.592500     5.162800
C       6.893700    14.835500     7.168000
H       7.471500    14.130400     7.437900
C       6.231600    15.570500     8.106600
H       6.345700    15.375900     9.028800
C       5.403100    16.587200     7.718400
H       4.943200    17.100600     8.371500
C       5.233400    16.869800     6.370300
H       4.649100    17.572200     6.109800
C       8.758600    20.603300     0.830700
C       8.423700    21.821800     1.423800
H       7.565400    21.928700     1.816000
C       9.319000    22.873900     1.451000
H       9.066300    23.700900     1.845000
C      10.587300    22.725200     0.904700
H      11.202700    23.448000     0.922500
C      10.948100    21.512200     0.333300
H      11.818100    21.401900    -0.033400
C      10.044500    20.463900     0.296400
H      10.301000    19.639200    -0.098000
C       5.260600    17.236400    -4.205800
C       6.365700    16.631300    -4.783400
H       7.074400    16.322900    -4.229200
C       6.453200    16.468400    -6.163300
H       7.215000    16.049100    -6.546600
C       5.432300    16.916200    -6.973500
H       5.488600    16.805900    -7.914700
C       4.335600    17.520900    -6.417800
H       3.632800    17.827000    -6.978800
C       4.237100    17.693500    -5.041800
H       3.475300    18.121800    -4.670400
