44
Refcode: XESCOP_comp_0 | Dataset: tmCAT | Charge: unknown | Potential Spins: [1, 3, 5]
Mo      9.077400     2.559900     7.411000
Br      8.171900     1.849000     9.814200
P       9.761500     4.450500     5.998500
O      10.662600     4.305600     9.489500
O       6.349900     4.063100     7.322400
C      10.102600     3.677400     8.731400
C       7.361400     3.529800     7.377700
C      10.026100     1.598900     5.491900
C      10.660900     0.971000     6.593000
H      11.643400     0.970300     6.781800
C       9.674300     0.296600     7.340500
H       9.840900    -0.289600     8.133300
C       8.413700     0.473700     6.679800
H       7.557600     0.014900     6.916100
C       8.642800     1.250000     5.530400
H       7.968700     1.453100     4.820000
C      10.672200     2.452000     4.433700
H      10.660900     1.972000     3.567900
H      11.616600     2.625000     4.677000
C       9.926100     3.778900     4.295600
H       9.034000     3.634800     3.892300
H      10.436200     4.405700     3.723100
C      11.416800     5.186100     6.282700
C      12.455700     4.388100     6.758300
H      12.291600     3.471900     6.949200
C      13.728200     4.910200     6.957400
H      14.430500     4.350400     7.264900
C      13.963300     6.248200     6.705100
H      14.827200     6.614800     6.851600
C      12.945400     7.051300     6.241200
H      13.113400     7.969200     6.066800
C      11.677800     6.529400     6.024100
H      10.983900     7.091700     5.698900
C       8.700900     5.921900     5.887200
C       8.114700     6.337300     4.703700
H       8.255500     5.838000     3.908000
C       7.322400     7.479500     4.671100
H       6.912900     7.752000     3.859100
C       7.132900     8.214800     5.821000
H       6.597200     8.999200     5.798300
C       7.717300     7.817000     7.001500
H       7.592000     8.333000     7.789800
C       8.487600     6.670300     7.046000
H       8.873100     6.389900     7.868200
