71
Refcode: XEXZOQ_comp_0 | Dataset: tmCAT | Charge: 0 | Potential Spins: [1, 3, 5]
Pd     10.095500     4.186900     3.132100
P       9.501300     2.274600     4.284600
P       7.882500     4.992800     3.051400
F      11.762700     5.465600     1.067600
F      11.747000     6.563600     2.908700
F      10.096100     6.700600     1.556600
C       7.960600     2.296600     5.284400
H       7.753600     1.388600     5.552700
H       8.122600     2.809100     6.090700
C       6.743000     2.883100     4.570200
H       6.670700     2.479500     3.691500
H       5.944400     2.650000     5.069200
C       6.798600     4.401500     4.412500
H       7.110000     4.788600     5.246000
H       5.898900     4.729500     4.256700
C      10.951700     5.781500     2.124700
C      12.014600     3.460200     3.233400
C      12.866200     3.839000     4.277100
H      12.570600     4.463600     4.901000
C      14.149000     3.301600     4.403600
H      14.697000     3.568100     5.106300
C      14.606400     2.375900     3.488700
H      15.453800     2.004500     3.580200
C      13.791500     2.004300     2.433700
H      14.098200     1.393200     1.803100
C      12.514400     2.542700     2.314500
H      11.978800     2.281800     1.600300
C      10.706600     1.726100     5.537400
C      10.869200     2.520400     6.676100
H      10.360900     3.293100     6.775800
C      11.780200     2.167500     7.656700
H      11.878000     2.702200     8.411900
C      12.548700     1.020900     7.518900
H      13.142200     0.772700     8.190600
C      12.429200     0.254300     6.388700
H      12.962000    -0.500000     6.283600
C      11.511500     0.600700     5.395000
H      11.437800     0.075000     4.631400
C       9.238000     0.870400     3.158200
C       8.907600    -0.405900     3.625200
H       8.819600    -0.552300     4.539900
C       8.709900    -1.454500     2.740200
H       8.499200    -2.302200     3.062000
C       8.823800    -1.240700     1.378500
H       8.695600    -1.945400     0.785300
C       9.130500     0.019300     0.897000
H       9.199100     0.163600    -0.019800
C       9.334100     1.072900     1.783800
H       9.536200     1.918200     1.455600
C       7.682500     6.798300     3.228400
C       8.201900     7.406300     4.372900
H       8.635500     6.890800     5.013500
C       8.073700     8.775300     4.559800
H       8.405000     9.170300     5.333800
C       7.457000     9.549400     3.604900
H       7.376800    10.468100     3.731100
C       6.958200     8.966000     2.463500
H       6.547400     9.493100     1.816700
C       7.063200     7.595100     2.270100
H       6.718800     7.209000     1.497600
C       6.945500     4.591100     1.537100
C       5.544100     4.636300     1.486400
H       5.059400     4.824900     2.258200
C       4.875800     4.402900     0.292800
H       3.946600     4.436300     0.267100
C       5.588400     4.119700    -0.857900
H       5.138200     3.975000    -1.658400
C       6.975900     4.050600    -0.820800
H       7.453100     3.850000    -1.594100
C       7.649700     4.280900     0.374500
H       8.577800     4.227200     0.398200
