124
Refcode: XIDKAW_comp_0 | Dataset: tmCAT | Charge: 0 | Potential Spins: [1, 3, 5]
Pd     18.269600     0.595700     5.790100
S      18.598800    -1.802800     5.682400
P      18.695500     0.558700     8.104700
P      17.243800     0.740900     3.657500
O      17.197300     3.253300     6.133400
O      19.388800     3.196000     5.686100
C      18.349800     2.592000     5.868300
C      17.295500     4.701800     6.207200
C      19.928600    -2.002100     4.547000
C      20.940700    -1.045900     4.374100
C      21.973400    -1.261300     3.484100
C      22.066500    -2.438000     2.778500
C      21.088200    -3.393200     2.923800
C      20.020100    -3.196000     3.788400
C      17.793500    -0.919000     8.796600
C      16.365100    -1.046900     8.289400
C      15.802700    -2.416800     8.674400
C      15.891500    -2.663500    10.161700
C      17.326100    -2.508400    10.664400
C      17.895000    -1.141500    10.316200
C      20.457200     0.303000     8.605300
C      21.023600    -1.080100     8.310100
C      22.470700    -1.173700     8.805900
C      23.334500    -0.100700     8.185600
C      22.786100     1.268300     8.487700
C      21.340600     1.409200     7.998800
C      18.208500     2.098800     9.057200
C      18.879700     2.279900    10.431500
C      18.470900     3.619700    11.060900
C      16.962600     3.747600    11.192400
C      16.303100     3.570400     9.827300
C      16.677500     2.237700     9.195600
C      18.108300     1.653800     2.292000
C      19.505300     1.090100     2.059100
C      20.170900     1.718300     0.837000
C      20.222300     3.242300     0.959200
C      18.835500     3.823100     1.233600
C      18.167800     3.173800     2.458000
C      16.919300    -0.933100     2.909900
C      16.747000    -1.065000     1.383500
C      16.779000    -2.523500     0.993800
C      15.719400    -3.355000     1.717800
C      15.817500    -3.180900     3.221200
C      15.807600    -1.706200     3.617800
C      15.645000     1.662900     3.839200
C      14.758000     1.739400     2.605600
C      13.581400     2.708800     2.863800
C      12.776000     2.277900     4.074400
C      13.667400     2.189400     5.303400
C      14.826700     1.225000     5.068200
H      17.879500     4.974600     6.908200
H      17.605400     5.074300     5.386400
H      16.423200     5.087400     6.389400
H      20.923500    -0.239600     4.886000
H      22.630100    -0.570700     3.348000
H      22.805000    -2.579900     2.185900
H      21.145700    -4.227700     2.418800
H      19.332600    -3.867400     3.885300
H      18.251600    -1.676000     8.423100
H      15.823700    -0.371400     8.660600
H      16.356000    -0.965300     7.330200
H      14.892500    -2.470200     8.395400
H      16.301400    -3.096300     8.215600
H      15.335400    -2.034300    10.632100
H      15.592900    -3.542200    10.378400
H      17.337400    -2.609100    11.621300
H      17.864300    -3.169800    10.274700
H      18.804900    -1.083100    10.602100
H      17.396300    -0.453000    10.775000
H      20.495100     0.414700     9.557600
H      20.492800    -1.759500     8.759800
H      20.998900    -1.263300     7.378600
H      22.475900    -1.065000     9.762800
H      22.827600    -2.034300     8.603000
H      24.223400    -0.173100     8.531500
H      23.359100    -0.233500     7.244800
H      22.795800     1.411300     9.435400
H      23.327500     1.930700     8.072600
H      21.327300     1.346800     7.041900
H      21.000200     2.271900     8.243300
H      18.491000     2.845700     8.524600
H      18.608900     1.567300    11.021800
H      19.830700     2.245700    10.350800
H      18.870100     3.701300    11.934800
H      18.794400     4.330400    10.519100
H      16.620800     3.051000    11.778100
H      16.715700     4.585100    11.568200
H      15.368500     3.651900     9.905700
H      16.629800     4.284100     9.260100
H      16.269100     2.158200     8.344700
H      16.355000     1.531000     9.760500
H      17.606200     1.481700     1.487200
H      20.031100     1.260300     2.833800
H      19.437800     0.142900     1.934600
H      21.070600     1.369000     0.767800
H      19.696300     1.475700     0.055300
H      20.817600     3.482800     1.678600
H      20.584400     3.612700     0.149900
H      18.908400     4.762200     1.374300
H      18.289400     3.675100     0.458900
H      17.268900     3.505000     2.554800
H      18.650300     3.376100     3.244300
H      17.718000    -1.432400     3.094400
H      15.917600    -0.668400     1.116000
H      17.454700    -0.584800     0.931500
H      16.655100    -2.615100     0.055300
H      17.636600    -2.888900     1.222100
H      14.835400    -3.056000     1.443400
H      15.790400    -4.277000     1.496500
H      15.097800    -3.626800     3.668500
H      16.641100    -3.581500     3.527900
H      15.951000    -1.627700     4.574700
H      14.977700    -1.323700     3.405700
H      15.893400     2.567800     4.009800
H      15.260600     1.973900     1.837700
H      14.383600     0.841500     2.434900
H      13.967700     3.590500     3.041400
H      13.039300     2.793300     2.089100
H      12.040900     2.892000     4.235800
H      12.401500     1.390100     3.906000
H      14.011200     3.070100     5.476300
H      13.155100     1.913500     6.059700
H      14.483700     0.347300     4.920600
H      15.393300     1.206900     5.838300
