83
Refcode: XIFREM_comp_0 | Dataset: tmCAT | Charge: unknown | Potential Spins: [1, 3, 5]
Fe      4.777800     4.661700     8.146700
Si      1.138300     9.631600    11.824500
F       1.833300     3.283400    11.046900
F       7.709800     6.048800     5.228500
O       2.504900     5.164800     9.871000
O       6.533400     6.751900     7.084200
O       4.112900     3.525200    10.732100
O       7.395300     4.461700     6.869900
O       2.596700     2.898100     8.909500
O       5.574000     5.227900     5.419000
N       3.493500     5.714900     9.102600
N       5.522400     6.438300     7.965100
N       5.119300     3.778900     9.800900
N       6.605700     4.032500     7.920100
N       3.386200     3.338000     7.873800
N       4.644300     4.608300     6.249600
C       3.737800     7.005500     9.261300
C       4.888300     7.418600     8.521900
H       5.160800     8.325100     8.446500
C       6.266500     3.162400    10.015200
C       7.194300     3.433200     8.930600
C       3.020600     3.018000     6.647700
C       3.851500     3.731800     5.662300
C       2.961300     7.861700    10.077400
C       2.287100     8.615100    10.748000
C       0.009600     8.403200    12.668500
H      -0.588300     8.877300    13.283500
H       0.547400     7.755700    13.171100
H      -0.523200     7.931300    11.995200
C       2.198500    10.587500    13.007100
H       2.772700    11.203900    12.505800
H       2.756400     9.966800    13.520300
H       1.627200    11.095800    13.619500
C       0.211200    10.782300    10.707000
H       0.842000    11.388000    10.263900
H      -0.427800    11.306700    11.234700
H      -0.272200    10.263200    10.031100
C       6.474500     2.219600    11.151400
C       5.844800     0.970700    11.110400
H       5.312600     0.736300    10.357800
C       5.987600     0.069600    12.157900
H       5.557700    -0.777000    12.126200
C       6.775300     0.421700    13.263700
H       6.876300    -0.188400    13.984500
C       7.391100     1.628800    13.311300
H       7.920800     1.858900    14.066500
C       7.250900     2.550300    12.243900
H       7.689700     3.392500    12.279600
C       8.656800     3.132500     8.938600
C       9.488400     3.634400     9.924000
H       9.117500     4.150200    10.630300
C      10.851200     3.395700     9.896200
H      11.413100     3.778900    10.558800
C      11.396200     2.601700     8.904200
H      12.326100     2.409000     8.902900
C      10.581000     2.093300     7.920100
H      10.956800     1.558200     7.229700
C       9.219600     2.351200     7.921400
H       8.669300     1.998100     7.233700
C       1.944000     2.066600     6.297200
C       1.812400     0.857200     6.985000
H       2.382700     0.666700     7.719100
C       0.856200    -0.058900     6.598800
H       0.780700    -0.884000     7.064400
C      -0.007600     0.217300     5.522100
H      -0.659700    -0.418400     5.252300
C       0.106000     1.412700     4.870100
H      -0.488500     1.607400     4.154500
C       1.065000     2.350200     5.223200
H       1.133000     3.171000     4.749700
C       3.814300     3.478200     4.183600
C       3.523200     4.523700     3.327800
H       3.379000     5.397000     3.673000
C       3.442300     4.292600     1.947000
H       3.207400     5.001000     1.359700
C       3.702800     3.045800     1.444300
H       3.674200     2.899200     0.506600
C       4.012700     1.984200     2.310700
H       4.202600     1.122600     1.957500
C       4.042900     2.198200     3.711400
H       4.215700     1.481200     4.310600
B       2.766000     3.714700    10.143500
B       6.794500     5.615300     6.164900
