89
Refcode: XIGCAU_comp_0 | Dataset: tmCAT | Charge: 0 | Potential Spins: [1, 3, 5]
Au      5.791200     1.404200    12.846400
Cl      4.237800    -0.105900    12.045800
P       7.223300     2.898600    13.680500
N       7.124000     3.123800    15.288300
N       4.946000     3.567300    16.256400
N       6.153200     1.973300    17.115700
C       6.146500     2.888500    16.107300
C       4.258200     3.054800    17.341400
H       3.406500     3.346800    17.646600
C       4.991900     2.081700    17.888200
H       4.767500     1.563100    18.652700
C       4.598800     4.776900    15.555400
C       5.186800     5.963100    15.990700
C       4.859200     7.119700    15.308500
H       5.235900     7.945000    15.589600
C       4.001000     7.107400    14.233800
H       3.807800     7.913000    13.767600
C       3.427800     5.926100    13.837800
H       2.828400     5.931100    13.100800
C       3.694800     4.719000    14.485800
C       6.094100     6.013600    17.223200
H       6.364300     5.076200    17.440900
C       5.314500     6.565400    18.424800
H       5.863100     6.487800    19.233800
H       4.487400     6.051800    18.541300
H       5.096700     7.506500    18.267100
C       7.343700     6.806900    16.988300
H       7.841500     6.416400    16.239300
H       7.900500     6.787200    17.795700
H       7.107800     7.733200    16.775800
C       3.011800     3.441600    14.074400
H       3.601400     2.679100    14.345200
C       1.680300     3.286400    14.809700
H       1.826100     3.381300    15.774800
H       1.303600     2.402000    14.621200
H       1.056300     3.978700    14.504600
C       2.780900     3.344300    12.567700
H       2.109400     4.003300    12.296900
H       2.464800     2.443900    12.343200
H       3.622700     3.521700    12.096300
C       7.204500     1.021200    17.341400
C       8.350900     1.444900    18.051100
C       9.371200     0.500100    18.234500
H      10.170400     0.748900    18.683600
C       9.218900    -0.788300    17.768300
H       9.911700    -1.421500    17.919100
C       8.090500    -1.176400    17.087800
H       8.015100    -2.071900    16.779200
C       7.052200    -0.274700    16.846100
C       8.527800     2.843000    18.591000
H       7.648300     3.314700    18.529300
C       8.951900     2.806000    20.072000
H       9.849400     2.420500    20.145700
H       8.318100     2.256600    20.579400
H       8.956900     3.716300    20.433700
C       9.551400     3.628900    17.763100
H      10.443900     3.249500    17.903700
H       9.548100     4.567500    18.044200
H       9.317200     3.571000    16.813500
C       5.809100    -0.719400    16.090200
H       5.340700     0.102200    15.764500
C       4.842800    -1.469500    17.015800
H       5.265400    -2.297300    17.327700
H       4.022300    -1.686300    16.525500
H       4.623400    -0.905400    17.785400
C       6.154700    -1.568100    14.871400
H       6.775400    -1.075400    14.293800
H       5.335800    -1.772500    14.372600
H       6.575600    -2.404500    15.162800
C       6.981700     4.547800    12.872800
H       6.180900     4.948100    13.318500
C       8.134700     5.509800    13.162500
H       8.948700     5.187100    12.722000
H       8.283700     5.560300    14.129200
H       7.910300     6.400400    12.819700
C       6.628000     4.473900    11.390100
H       6.503500     5.380500    11.038700
H       5.799300     3.963900    11.277000
H       7.353500     4.031600    10.903300
C       8.978100     2.430300    13.421300
H       9.549700     3.137400    13.839600
C       9.263100     1.116000    14.136100
H       8.775100     0.390500    13.693900
H       8.974900     1.182500    15.070300
H      10.224500     0.927500    14.103500
C       9.361400     2.331800    11.943800
H      10.308000     2.089100    11.866600
H       9.210700     3.196500    11.508400
H       8.812700     1.646900    11.508400
