61
Refcode: XIGHIE_comp_1 | Dataset: tmCAT | Charge: unknown | Potential Spins: [1, 3, 5]
Pt     -0.489200     1.521000    13.706200
P       1.026000     1.526600    15.366200
N      -1.811600     2.483800    15.208800
C      -1.403000     1.118700    11.910600
C      -0.148700     0.737900    11.904700
C       0.894900     0.166200    11.061300
C       2.244900     0.301800    11.399500
H       2.485000     0.758000    12.173500
C       3.238800    -0.247600    10.576900
H       4.134000    -0.172100    10.822000
C       2.908200    -0.893600     9.417400
H       3.572900    -1.240100     8.868000
C       1.578200    -1.026800     9.064400
H       1.346600    -1.462900     8.275700
C       0.583600    -0.508100     9.890000
H      -0.307000    -0.615300     9.650800
C      -2.588100     1.178800    11.089400
C      -3.070200     0.080200    10.373000
H      -2.632800    -0.737900    10.438000
C      -4.179900     0.192100     9.574000
H      -4.495000    -0.552900     9.113100
C      -4.833100     1.396900     9.446900
H      -5.569700     1.473500     8.882700
C      -4.402000     2.464900    10.147000
H      -4.854800     3.272400    10.058400
C      -3.320000     2.398900    10.986000
H      -3.062800     3.143900    11.480800
C      -3.217900     2.009900    15.058100
H      -3.769400     2.439000    15.713900
H      -3.247900     1.059800    15.183600
H      -3.534300     2.228000    14.177800
C      -1.822800     3.960900    15.002000
H      -2.396200     4.371100    15.653300
H      -2.147400     4.158900    14.120200
H      -0.930300     4.303900    15.099500
C      -1.352200     2.189100    16.585300
H      -1.597900     1.279000    16.809800
H      -1.813300     2.779700    17.201200
C       0.148600     2.352900    16.777300
H       0.418900     1.951000    17.616300
H       0.377300     3.296000    16.802400
C       1.541900    -0.110800    16.010800
H       2.187400     0.027100    16.736000
C       2.207400    -0.932500    14.913400
H       2.474800    -1.783600    15.267800
H       2.979900    -0.464500    14.586900
H       1.586400    -1.066800    14.194000
C       0.353300    -0.892400    16.558700
H       0.652900    -1.740000    16.894000
H      -0.288200    -1.033800    15.857200
H      -0.057800    -0.393700    17.269200
C       2.628600     2.442500    15.238300
H       3.235200     1.882600    14.709500
C       2.432000     3.739200    14.459900
H       3.271200     4.201400    14.392000
H       1.799300     4.294500    14.917800
H       2.107100     3.537700    13.579600
C       3.321700     2.694800    16.585300
H       4.144600     3.167500    16.439100
H       3.506400     1.855500    17.013700
H       2.745800     3.220600    17.146600
