103
Refcode: XIJVES_comp_0 | Dataset: tmCAT | Charge: 0 | Potential Spins: [1, 3, 5]
Pd      5.434600     8.107500     0.499600
Cl      4.377200     6.015600     0.120200
Cl      6.801900     7.634900    -1.371700
P       4.083100     8.522800     2.254400
P       6.559200    10.047400     0.783800
N       5.896300    11.195500    -0.173700
H       6.463200    11.955200    -0.212800
N       8.174800     9.721900     0.476100
H       8.215400     9.541000    -0.476100
N       2.803100     7.501700     2.277100
H       3.104600     6.675300     1.840100
N       3.452300    10.056100     1.970100
H       3.512100    10.163700     1.007500
C       5.358400    10.995000    -1.550300
H       5.126700    10.046300    -1.642300
C       6.451100    11.298200    -2.554300
H       7.221200    10.757000    -2.362200
H       6.690400    12.225800    -2.496800
H       6.136300    11.102600    -3.439900
C       4.126100    11.777500    -1.771100
C       3.094600    11.211800    -2.511700
H       3.182700    10.351100    -2.849900
C       1.930600    11.934000    -2.746400
H       1.240700    11.557400    -3.242000
C       1.798000    13.221700    -2.239200
H       1.018600    13.705900    -2.395600
C       2.829500    13.787400    -1.498500
H       2.740900    14.648100    -1.159300
C       3.993600    13.065300    -1.263900
H       4.683000    13.441800    -0.768200
C       9.220800    10.781500     0.669300
H       8.729000    11.581900     0.948800
C      10.196800    11.249300    -0.327800
H       9.738100    11.495500    -1.134000
H      10.820500    10.545100    -0.517500
H      10.667300    12.010600     0.018400
C      10.181800    10.466900     1.827500
C      10.567300    11.479200     2.698100
H      10.221600    12.336600     2.595700
C      11.467500    11.210200     3.722800
H      11.725100    11.888300     4.304700
C      11.983700     9.928900     3.875700
H      12.584600     9.748000     4.561200
C      11.597300     8.915000     3.005100
H      11.943000     8.057600     3.107500
C      10.697000     9.184000     1.981600
H      10.439500     8.507500     1.398500
C       6.607500    10.929800     2.384100
C       7.348000    10.377200     3.421500
H       7.789600     9.567100     3.298400
C       7.429400    11.034100     4.644000
H       7.925200    10.664100     5.338600
C       6.769900    12.243700     4.829100
H       6.824100    12.682200     5.646800
C       6.029200    12.796300     3.790600
H       5.589700    13.606400     3.913700
C       5.948500    12.141000     2.568100
H       5.454100    12.511000     1.873500
C       1.959000     7.156100     3.357000
H       2.192600     7.733200     4.113800
C       2.463500     5.788500     3.659500
H       3.412800     5.819500     3.797500
H       2.265300     5.204900     2.923500
H       2.035200     5.459200     4.454200
C       0.518300     7.284900     3.127000
C      -0.016000     6.838300     1.924100
H       0.544600     6.507400     1.260500
C      -1.389100     6.887200     1.713600
H      -1.747700     6.588900     0.908600
C      -2.227700     7.382700     2.705000
H      -3.147500     7.415300     2.563500
C      -1.693200     7.829400     3.907900
H      -2.255000     8.160300     4.571500
C      -0.320200     7.780500     4.119500
H       0.037300     8.078800     4.924600
C       2.072400    10.484800     2.309300
H       1.701800     9.801800     2.906200
C       1.118700    10.556500     1.046600
H       1.147200     9.720300     0.575000
H       1.410600    11.262400     0.463500
H       0.220000    10.730900     1.334100
C       2.055200    11.807800     3.086800
C       1.584200    11.792100     4.394400
H       1.375800    10.982000     4.803800
C       1.423800    12.983700     5.090200
H       1.108500    12.972300     5.964300
C       1.735100    14.193300     4.478400
H       1.625800    14.990400     4.943000
C       2.204500    14.209300     3.170700
H       2.412800    15.018100     2.761300
C       2.364800    13.016300     2.473800
H       2.680100    13.027800     1.599700
C       4.835200     8.355900     3.680200
C       5.777200     7.368100     3.942400
H       6.056300     6.799100     3.261600
C       6.302500     7.229500     5.222500
H       6.932500     6.569300     5.397300
C       5.885100     8.080400     6.239100
H       6.236100     7.989100     7.095900
C       4.944800     9.069900     5.976900
H       4.665800     9.638800     6.657700
C       4.419100     9.206800     4.696900
H       3.789500     9.868600     4.522100
