46
Refcode: XIKCOK_comp_1 | Dataset: tmCAT | Charge: 1 | Potential Spins: [1, 3, 5]
Ir      3.526200    10.415200     5.772500
N       5.001100    13.099800     5.321200
C       4.082000    12.245600     5.960300
Cl      5.830400     9.840700     6.322800
N       3.533400    13.125100     6.859500
Cl      6.116200    15.587700     5.470000
C       5.060900    14.398400     5.962600
Cl      3.613500    15.655200     7.913300
C       4.137500    14.465700     6.913000
C       2.326200    12.648500     7.598500
H       1.531300    13.062800     7.233600
H       2.396600    12.890800     8.536100
C       2.248600    11.151800     7.456700
H       1.342800    10.770700     7.500900
C       3.293100    10.307100     7.901700
H       3.020500     9.441500     8.254900
H       3.987800    10.726400     8.429200
C       5.945600    12.752000     4.182600
H       5.744400    11.875800     3.855000
H       6.852500    12.770700     4.509100
H       5.849000    13.394000     3.479700
C       1.684200    10.177200     4.484700
C       2.845100    10.293000     3.559900
C       3.700300     9.362900     3.857300
C       3.161600     8.515600     4.835600
C       2.034800     8.908100     5.298000
C       0.481100    10.961000     4.508000
H      -0.120000    10.654100     3.827100
H       0.700900    11.886500     4.341800
H       0.059000    10.888300     5.366600
C       2.889700    11.525000     2.590900
H       2.575200    11.254900     1.721900
H       3.793300    11.839300     2.517700
H       2.330100    12.220500     2.932500
C       4.987700     9.133500     2.985900
H       4.759500     8.626200     2.204000
H       5.633300     8.641900     3.505300
H       5.356900     9.976400     2.731500
C       3.938500     7.143900     5.205100
H       3.634700     6.440200     4.627600
H       3.747900     6.909300     6.119400
H       4.881100     7.268400     5.097000
C       0.854100     8.336900     6.088100
H       0.390800     7.694000     5.551300
H       0.259000     9.047000     6.332100
H       1.186200     7.909800     6.885100
