123
Refcode: XIKMIQ_comp_0 | Dataset: tmCAT | Charge: -4 | Potential Spins: [1, 3, 5]
Pd      2.509200     4.833500    13.959400
Cl      0.603500     5.737500    13.011000
O       2.498200     6.910900    18.950800
N       2.858400     7.401900    15.486600
N       4.098300     5.961600    17.628000
H       4.279200     5.683200    16.812800
N       3.988500     7.516000    13.685800
C       2.918700     6.594800    17.851300
C       3.168400     6.693400    14.395000
C       4.660000     7.141900    12.457400
C       3.446100     8.669300    15.464300
C       6.512000     7.502500    17.558200
H       5.621700     7.871800    17.293000
C       2.070700     6.871200    16.603400
H       1.632500     6.031200    16.318600
H       1.360100     7.520800    16.832300
C       6.262300     6.498100    18.644200
C       5.076700     5.723800    18.680500
C       4.822900     4.748400    19.629800
C       3.923600     6.779400    11.335100
H       2.974000     6.757200    11.363000
C       4.145800     8.747600    14.333600
C       7.180800     6.267100    19.660500
H       7.992900     6.759100    19.674400
C       5.991100     6.496200    10.131800
H       6.447400     6.304800     9.319300
C       3.235900     9.667900    16.567100
H       2.275500     9.812900    16.698300
H       3.663800    10.515700    16.324200
H       3.631400     9.327600    17.396300
C       2.745700     3.953800    20.819100
H       3.249000     3.617400    21.589700
H       1.934100     3.418200    20.699100
H       2.500200     4.889500    20.972700
C       7.381600     8.702100    17.990900
H       7.015400     9.090800    18.814500
H       7.382200     9.378800    17.281800
H       8.299100     8.399600    18.155600
C       3.607200     3.853200    19.568300
H       3.052100     4.142300    18.786600
C       4.916000     9.884400    13.752800
H       5.876500     9.709400    13.845000
H       4.688200    10.710900    14.227500
H       4.692000     9.979100    12.803600
C       7.091300     6.809400    16.321400
H       7.969400     6.433300    16.539100
H       7.185900     7.461900    15.595500
H       6.488100     6.091100    16.039400
C       6.038700     7.122600    12.440700
H       6.532600     7.317800    13.228000
C       5.775400     4.573400    20.637600
H       5.625100     3.926700    21.316100
C       6.698100     6.812300    11.248500
H       7.647700     6.821900    11.220600
C       4.609900     6.451700    10.173600
H       4.123900     6.194500     9.400300
C       6.931600     5.325500    20.660000
H       7.562400     5.201800    21.357900
C       3.997800     2.410900    19.350600
H       4.551200     2.340400    18.543700
H       3.190900     1.866700    19.241700
H       4.506900     2.090000    20.123900
Cl      4.414800     3.929400    14.907800
O       2.520200     2.756000     8.968100
N       2.159900     2.265000    12.432300
N       0.920000     3.705300    10.290900
H       0.739200     3.983700    11.106100
N       1.029900     2.150900    14.233000
C       2.099700     3.072100    10.067500
C       1.849900     2.973500    13.523900
C       0.358300     2.525000    15.461500
C       1.572300     0.997600    12.454600
C      -1.493600     2.164400    10.360700
H      -0.603400     1.795100    10.625900
C       2.947700     2.795700    11.315500
H       3.385900     3.635700    11.600300
H       3.658300     2.146100    11.086600
C      -1.244000     3.168800     9.274700
C      -0.058300     3.943100     9.238400
C       0.195500     4.918500     8.289100
C       1.094800     2.887500    16.583800
H       2.044400     2.909700    16.555900
C       0.872500     0.919300    13.585300
C      -2.162400     3.399800     8.258400
H      -2.974500     2.907800     8.244400
C      -0.972800     3.170700    17.787100
H      -1.429100     3.362100    18.599600
C       1.782500    -0.001000    11.351800
H       2.742900    -0.146000    11.220600
H       1.354600    -0.848800    11.594700
H       1.387000     0.339300    10.522600
C       2.272600     5.713100     7.099800
H       1.769300     6.049500     6.329200
H       3.084200     6.248700     7.219800
H       2.518200     4.777400     6.946200
C      -2.363200     0.964800     9.928000
H      -1.997000     0.576100     9.104300
H      -2.363900     0.288100    10.637100
H      -3.280700     1.267300     9.763200
C       1.411100     5.813700     8.350500
H       1.966200     5.524600     9.132300
C       0.102300    -0.217500    14.166000
H      -0.858200    -0.042500    14.073900
H       0.330200    -1.044000    13.691400
H       0.326300    -0.312200    15.115300
C      -2.072900     2.857500    11.597500
H      -2.951000     3.233600    11.379700
H      -2.167500     2.205000    12.323400
H      -1.469700     3.575800    11.879500
C      -1.020400     2.544300    15.478200
H      -1.514200     2.349100    14.690900
C      -0.757100     5.093500     7.281200
H      -0.606800     5.740200     6.602800
C      -1.679700     2.854600    16.670400
H      -2.629400     2.845000    16.698300
C       0.408500     3.215200    17.745200
H       0.894500     3.472400    18.518600
C      -1.913200     4.341400     7.258900
H      -2.544000     4.465100     6.560900
C       1.020600     7.256000     8.568300
H       0.467200     7.326500     9.375200
H       1.827500     7.800200     8.677200
H       0.511400     7.576900     7.795000
