45
Refcode: XISCIL_comp_0 | Dataset: tmCAT | Charge: unknown | Potential Spins: [1, 3, 5]
Ti     17.147800     8.767800    12.260800
Cl     17.540100     8.195800    14.428900
Cl     15.825900    10.626900    12.464000
Si     16.937500     6.974000    10.033200
O      19.134900    11.562700    11.448300
N      16.015900     7.457900    11.445600
C      18.321500     8.144300    10.459800
C      18.149200     9.567500    10.310800
C      18.949900    10.244800    11.246600
C      20.564300     9.421100    13.093700
C      21.096200     8.291900    13.642100
C      20.745500     7.007200    13.168100
C      19.853300     6.836700    12.139000
C      19.278100     7.980800    11.529600
C      19.639600     9.268900    12.034700
C      17.482100     5.195000    10.031800
C      16.123800     7.444200     8.421700
C      14.616700     7.059800    11.797700
C      14.372700     5.604600    11.407700
C      13.645000     7.967000    11.035300
C      14.390700     7.216500    13.302200
C      18.467900    12.443600    10.531500
H      17.631200    10.083500     9.603900
H      20.789200    10.227600    13.407800
H      21.723600     8.391500    14.369300
H      21.171900     6.227000    13.601500
H      19.619500     5.937500    11.781500
H      18.235800     5.106900     9.434600
H      17.728500     4.885000    10.886300
H      16.809400     4.633300     9.706800
H      15.796000     8.294200     8.428500
H      16.770100     7.356100     7.708100
H      15.340500     6.875600     8.225400
H      14.979600     4.999400    11.827500
H      14.437000     5.466200    10.478700
H      13.514100     5.365500    11.673100
H      13.698200     7.830900    10.090100
H      13.840300     8.854800    11.220800
H      12.701700     7.733600    11.284500
H      14.545600     8.122600    13.598800
H      15.022500     6.613600    13.808700
H      13.467400     6.990000    13.493200
H      18.595700    12.149600     9.625600
H      17.480800    12.355500    10.638500
H      18.678900    13.282200    10.761800
