71
Refcode: XIXDAL_comp_0 | Dataset: tmCAT | Charge: unknown | Potential Spins: [1, 3, 5]
Sc      0.697800     1.663600     3.121700
Si      3.368700     1.629000     0.649700
Si      2.316300     1.947400     6.346400
N      -2.369000     0.792300     4.296400
N      -0.339400    -0.186900     3.823800
B      -1.771200     2.059500     3.728200
C      -0.988000     3.010100     4.582800
H      -0.984800     2.906200     5.576600
C      -0.230500     4.020600     3.979300
H       0.356200     4.593000     4.550800
C      -0.153900     4.148300     2.592500
H       0.479200     4.810800     2.193400
C      -0.901600     3.311700     1.748800
H      -0.780200     3.390600     0.759800
C      -1.679100     2.274000     2.250400
H      -2.156300     1.658100     1.624700
C      -1.578700    -0.290900     4.309800
C      -2.153900    -1.574100     4.883900
H      -1.576600    -2.328700     4.641600
H      -3.052300    -1.721100     4.520500
H      -2.204300    -1.501800     5.860100
C      -3.727600     0.836500     4.898700
H      -4.068700    -0.098900     4.988800
C      -3.669300     1.468000     6.279400
H      -2.990000     1.011700     6.819000
H      -4.542900     1.382900     6.713900
H      -3.436700     2.416100     6.194600
C      -4.665400     1.613600     3.979900
H      -4.367200     2.545100     3.921600
H      -5.575300     1.583500     4.342100
H      -4.654700     1.210900     3.087000
C       0.482900    -1.430200     3.733300
H       0.305200    -1.986200     4.544400
C       1.948600    -1.089800     3.702900
H       2.135700    -0.518800     2.929300
H       2.474400    -1.914600     3.634900
H       2.190600    -0.614800     4.525300
C       0.092900    -2.241300     2.497600
H      -0.868300    -2.433300     2.523100
H       0.594300    -3.082500     2.488000
H       0.301200    -1.726800     1.690000
C       1.606100     1.357100     1.098000
H       1.406800     0.418500     0.852200
H       1.079900     1.921700     0.477900
C       3.948700     3.331600     1.189200
H       3.337500     4.011100     0.836300
H       4.851200     3.493800     0.845800
H       3.957800     3.377700     2.167900
C       4.494400     0.355500     1.430500
H       4.395500     0.385500     2.405200
H       5.424200     0.550300     1.191500
H       4.253300    -0.537400     1.105400
C       3.657700     1.507700    -1.207200
H       3.332900     0.642000    -1.532300
H       4.615200     1.589300    -1.395300
H       3.173600     2.229800    -1.661400
C       2.377600     2.149000     4.508300
H       3.153100     1.617900     4.198800
H       2.606100     3.098300     4.342100
C       1.023100     0.718100     6.938500
H       0.145600     0.970200     6.583300
H       0.991500     0.722300     7.918100
H       1.257300    -0.179100     6.623100
C       1.913100     3.582100     7.175500
H       2.582800     4.250500     6.922600
H       1.917700     3.465100     8.149100
H       1.025600     3.883600     6.887500
C       3.955500     1.330500     7.035000
H       4.186700     0.477200     6.613500
H       3.876300     1.205200     8.004100
H       4.657000     1.987700     6.846100
