92
Refcode: XIXRAZ_comp_0 | Dataset: tmCAT | Charge: unknown | Potential Spins: [1, 3, 5]
Hf     -1.667100     5.186400    15.402900
O      -2.350900     4.740200    13.667000
N      -0.725700     5.594700    17.508400
N      -1.056600     3.353700    16.242500
C      -0.375500     4.566200    18.204300
C       0.241500     4.586600    19.576700
H      -0.036600     5.410500    20.049000
H       1.228700     4.602200    19.492800
C      -0.176200     3.371400    20.390900
H       0.291500     3.384000    21.263200
H      -1.149200     3.410700    20.564500
C       0.153700     2.080900    19.661500
H       1.131900     1.929300    19.691200
H      -0.288000     1.323100    20.120200
C      -0.298500     2.125900    18.229400
H      -0.395900     1.302100    17.766500
C      -0.573100     3.261600    17.561300
C      -0.608500     6.954400    18.065800
H      -0.904500     6.939500    19.011200
H      -1.217900     7.557200    17.569800
C       0.803500     7.520000    18.001900
H       1.392300     7.000500    18.604200
H       1.151600     7.429500    17.079700
C       0.830400     8.984800    18.411200
H       0.119100     9.467500    17.920800
H       0.628400     9.051900    19.377500
C       2.149200     9.657400    18.142800
H       2.859400     9.191000    18.631300
H       2.106800    10.590400    18.439700
H       2.341900     9.627600    17.181500
C      -1.285400     2.093900    15.594100
C      -2.567100     1.515600    15.632000
C      -2.771000     0.320500    14.938300
H      -3.632900    -0.080100    14.939700
C      -1.741000    -0.288100    14.249800
H      -1.903700    -1.092400    13.771300
C      -0.477700     0.265400    14.254100
H       0.227400    -0.169700    13.788200
C      -0.220600     1.456500    14.932500
C      -3.689200     2.117900    16.455300
H      -3.365400     2.997000    16.805000
C      -4.940400     2.387700    15.619000
H      -4.711700     2.977900    14.870100
H      -5.621000     2.817700    16.177600
H      -5.289900     1.540400    15.272000
C      -4.007400     1.232300    17.662500
H      -4.243400     0.331700    17.354400
H      -4.760000     1.614800    18.159900
H      -3.222300     1.182000    18.246400
C       1.174200     2.051000    14.961000
H       1.198000     2.724300    15.699400
C       1.482900     2.782700    13.662800
H       1.450400     2.150500    12.914900
H       2.376700     3.180000    13.715300
H       0.820400     3.490700    13.520300
C       2.236200     0.995900    15.266600
H       2.002300     0.528100    16.094500
H       3.108900     1.431800    15.372100
H       2.279100     0.352700    14.529300
C      -3.466900     6.128700    16.356300
H      -3.486100     7.084400    16.143700
H      -3.420600     6.011100    17.329000
H      -4.280700     5.700300    16.014800
C      -0.149300     6.697000    14.734500
H      -0.232400     6.838500    13.767900
H       0.751500     6.367600    14.939700
H      -0.302500     7.543900    15.204200
C      -2.750500     4.853800    12.293300
C      -3.781600     6.010700    12.190200
H      -3.978300     6.144500    11.219200
C      -5.109600     5.683700    12.879000
H      -4.941800     5.444800    13.815400
H      -5.537700     4.930100    12.421500
H      -5.698200     6.466700    12.842000
C      -3.244600     7.341000    12.729200
H      -3.911600     8.043400    12.587600
H      -2.419200     7.574400    12.257000
H      -3.059300     7.254100    13.688200
C      -3.363000     3.495900    11.866100
H      -4.084400     3.281000    12.524900
C      -2.355800     2.350700    11.922200
H      -2.830600     1.494700    11.856800
H      -1.865100     2.388800    12.770800
H      -1.725200     2.432600    11.176800
C      -4.019200     3.526600    10.476400
H      -3.351600     3.776700     9.804900
H      -4.747300     4.182800    10.473000
H      -4.377700     2.638500    10.264400
C      -1.499600     5.173900    11.466100
H      -1.129900     6.033900    11.753300
H      -1.738900     5.221800    10.517100
H      -0.830100     4.470600    11.599000
