94
Refcode: XIZWUZ_comp_0 | Dataset: tmCAT | Charge: unknown | Potential Spins: [1, 3, 5]
Zn      4.980600     2.624200     2.602800
N       5.818500     1.418300     4.289100
N       4.926700     1.638900     5.318500
N       5.603200     4.237300     3.826100
N       5.275900     4.021300     5.150000
N       3.140400     2.666600     3.392400
N       2.124900     3.653100     5.432500
C       6.186000     0.146200     4.391300
C       5.510400    -0.453800     5.465800
H       5.608900    -1.353000     5.754900
C       4.691700     0.477600     6.019000
C       7.195400    -0.526600     3.485500
C       8.139700    -1.360800     4.331600
H       8.547800    -0.793700     5.018500
H       8.840200    -1.740500     3.761600
H       7.638200    -2.084800     4.760000
C       6.430600    -1.404300     2.501300
H       5.910600    -2.071600     2.995100
H       7.063800    -1.858400     1.908300
H       5.825900    -0.847300     1.968400
C       8.000600     0.507700     2.688900
H       7.397100     1.016300     2.110100
H       8.670700     0.048100     2.140100
H       8.451000     1.118600     3.310200
C       3.566900     0.239900     7.034500
C       3.887200    -1.065500     7.774600
H       4.758200    -0.985900     8.215400
H       3.912600    -1.806500     7.132100
H       3.195500    -1.239000     8.445500
C       3.344100     1.328400     8.064900
H       4.200000     1.569100     8.475600
H       2.729300     1.003600     8.755300
H       2.957500     2.116600     7.629500
C       2.280200     0.043200     6.220400
H       1.544200    -0.189500     6.824000
H       2.411700    -0.680500     5.572500
H       2.064300     0.872700     5.746000
C       5.750300     5.008800     5.948300
C       6.406200     5.879200     5.106400
H       6.844200     6.682400     5.361900
C       6.310900     5.373000     3.824500
C       5.595100     5.080700     7.452600
C       6.204500     3.840400     8.093400
H       5.754700     3.040000     7.749900
H       6.091800     3.885900     9.065100
H       7.159100     3.796000     7.877300
C       4.140900     5.298700     7.867000
H       3.802300     6.119000     7.450700
H       4.088100     5.382700     8.842100
H       3.600100     4.536400     7.574600
C       6.413900     6.286900     7.956600
H       7.340600     6.205300     7.647200
H       6.397900     6.306700     8.935900
H       6.024100     7.115400     7.606500
C       6.902100     5.924200     2.524800
C       5.817200     6.074100     1.470700
H       6.198500     6.483900     0.665600
H       5.100300     6.644800     1.818000
H       5.454300     5.191800     1.248000
C       7.519700     7.303800     2.815800
H       8.204800     7.214400     3.510300
H       6.820300     7.916800     3.124400
H       7.928900     7.657000     1.998500
C       7.994900     4.977100     2.046000
H       7.612100     4.088500     1.892300
H       8.696500     4.916800     2.727800
H       8.378100     5.317400     1.210800
C       4.325000     2.951400     5.454100
H       4.078200     3.054500     6.416900
C       3.025500     3.116800     4.649000
C       2.001100     2.587900     2.490800
H       1.166400     2.558200     3.041200
C       1.934300     3.819700     1.582500
H       1.898200     4.629600     2.133100
H       1.131000     3.769100     1.023200
H       2.730200     3.847500     1.010800
C       2.073800     1.322100     1.672800
H       2.848800     1.364100     1.074500
H       1.256400     1.228100     1.141800
H       2.164800     0.551800     2.271100
C       0.804300     4.106700     5.027100
H       0.773300     4.206500     4.032500
C      -0.249800     3.106100     5.475200
H      -0.108400     2.253400     5.014900
H      -1.140900     3.451400     5.257400
H      -0.180100     2.970200     6.443500
C       0.568300     5.448800     5.684100
H       0.687000     5.364100     6.652300
H      -0.343500     5.749700     5.491100
H       1.209200     6.101400     5.331800
C       5.517600     2.300300     0.737500
H       5.347200     1.363200     0.506300
H       6.472500     2.493700     0.633700
H       5.000300     2.883100     0.143400
