54
Refcode: XOGTES_comp_0 | Dataset: tmCAT | Charge: 1 | Potential Spins: [1, 3, 5]
Ru      1.513800     5.515500     6.225500
Br     -0.138500     6.486600     7.898900
P       0.606200     3.405700     6.969400
C       3.426400     4.851700     7.211900
H       3.533000     4.057700     7.794100
C       3.148500     6.153700     7.643000
H       3.018700     6.435700     8.582800
C       3.124600     7.013400     6.508400
H       3.016300     7.997700     6.519000
C       3.413900     6.215300     5.382600
H       3.544300     6.549300     4.459300
C       3.582600     4.872300     5.799600
H       3.854000     4.109700     5.229400
C       0.870400     4.799300     4.209700
H       1.451900     5.027000     3.454700
H       0.500600     3.893400     4.162200
C       0.017300     5.799100     4.665800
H      -0.940500     5.621100     4.833700
C       0.573400     7.069500     4.892300
H      -0.002100     7.732100     5.325300
H       1.135200     7.439100     4.179500
C       0.190200     3.269400     8.744300
C       1.080400     3.741600     9.701300
H       1.829800     4.242500     9.434200
C       0.871700     3.480000    11.052300
H       1.483400     3.792100    11.692500
C      -0.238300     2.757200    11.450200
H      -0.389400     2.592900    12.362600
C      -1.121800     2.278000    10.506700
H      -1.868200     1.777000    10.777100
C      -0.911300     2.535400     9.146400
H      -1.518300     2.209600     8.506900
C       1.763200     2.006700     6.732200
C       2.354500     1.774200     5.490500
H       2.162500     2.343700     4.767000
C       3.226000     0.706400     5.314600
H       3.614800     0.558600     4.471300
C       3.525000    -0.134200     6.352500
H       4.105200    -0.862500     6.221900
C       2.963800     0.101300     7.598200
H       3.179200    -0.460000     8.321700
C       2.078300     1.163700     7.787400
H       1.693900     1.308800     8.633400
C      -0.935400     2.877000     6.147700
C      -2.056200     3.705600     6.223400
H      -1.992100     4.535500     6.658900
C      -3.262600     3.313000     5.660500
H      -4.011600     3.877000     5.717000
C      -3.361200     2.101400     5.020200
H      -4.179400     1.834500     4.641800
C      -2.260800     1.275900     4.933600
H      -2.334800     0.449000     4.493900
C      -1.039200     1.653800     5.491800
H      -0.292400     1.087000     5.425200
