99
Refcode: XOGVUM_comp_0 | Dataset: tmCAT | Charge: 0 | Potential Spins: [1, 3, 5]
Ni     -3.439000     7.051400     7.132900
S      -2.839900     5.751700    11.804700
S      -6.572200     3.666800     8.578000
S      -8.002400     6.357900    12.708400
O      -2.510000     6.378500     8.863200
O      -3.865200     3.652400     5.777900
H      -3.771800     2.843500     5.874700
O      -4.654500     5.346800     6.959300
O      -2.022700     4.303500     8.240200
N      -4.737800     4.688600    10.255500
N      -1.907900     6.307000     5.903500
C      -2.201200     5.194100     9.120400
C      -4.489900     4.139800     6.798100
N       3.061100     3.488800     1.714500
N      -5.398600     5.954000    12.178000
C      -6.663900     5.751900    11.778400
C      -6.040400     4.570700     9.984100
C       0.389100     5.701800     5.526000
H       1.259300     5.666800     5.851800
N      -7.049600     5.082200    10.685200
O      -7.828400     8.816500    15.707600
O      -9.416000     7.924800    14.421400
H      -9.919500     8.237900    14.987600
C      -2.183000     5.868600     4.669500
H      -3.058100     5.934800     4.362500
C      -4.488700     5.416900    11.347200
C      -0.631800     6.224000     6.309900
H      -0.420000     6.532100     7.161400
C      -1.970900     4.773100    10.571100
H      -1.020600     4.819400    10.756400
H      -2.242500     3.846800    10.668000
C       1.141600     4.634100     3.371600
C      -1.229100     5.323000     3.826500
H      -1.473200     5.017500     2.983000
C      -8.195300     8.114800    14.780900
C      -5.025000     3.152600     7.820900
H      -4.360800     3.032000     8.516700
H      -5.158200     2.295200     7.388300
C       0.098200     5.231300     4.245800
C      -7.165700     7.381000    13.936700
H      -6.613400     6.822600    14.506900
H      -6.590000     8.022500    13.491200
C       2.489700     4.945800     3.513200
H       2.768300     5.545400     4.167000
C       3.409500     4.352600     2.668400
H       4.309700     4.566000     2.769000
C       0.784600     3.731600     2.365300
H      -0.106600     3.499800     2.238300
C       1.770200     3.185000     1.559500
H       1.525500     2.587900     0.890200
S      -4.038100     8.351200     2.461100
S      -0.305800    10.436100     5.687800
S       1.124400     7.745000     1.557400
O      -4.368000     7.724400     5.402600
O      -3.012800    10.450500     8.487900
H      -3.106200    11.259400     8.391100
O      -2.223400     8.756100     7.306500
O      -4.855300     9.799400     6.025600
N      -2.140200     9.414300     4.010300
N      -4.970100     7.795900     8.362300
C      -4.676800     8.908800     5.145400
C      -2.388100     9.963100     7.467700
N      -9.939000    10.614100    12.551300
N      -1.479400     8.148900     2.087800
C      -0.214000     8.351000     2.487400
C      -0.837600     9.532200     4.281700
C      -7.267100     8.401100     8.739800
H      -8.137200     8.436100     8.414000
N       0.171600     9.020700     3.580600
O       0.950400     5.286400    -1.441800
O       2.538000     6.178100    -0.155600
H       3.041500     5.865000    -0.721800
C      -4.695000     8.234300     9.596300
H      -3.819900     8.168100     9.903300
C      -2.389300     8.686000     2.918600
C      -6.246200     7.878900     7.955900
H      -6.458000     7.570800     7.104400
C      -4.907100     9.329800     3.694700
H      -5.857400     9.283500     3.509400
H      -4.635500    10.256100     3.597800
C      -8.019600     9.468800    10.894200
C      -5.648900     8.779900    10.439300
H      -5.404800     9.085400    11.282800
C       1.317300     5.988100    -0.515100
C      -1.853000    10.950300     6.444900
H      -2.517200    11.070900     5.749100
H      -1.719800    11.807700     6.877500
C      -6.976100     8.871600    10.020000
C       0.287700     6.721900     0.329100
H      -0.264600     7.280300    -0.241100
H      -0.288000     6.080400     0.774600
C      -9.367700     9.157100    10.752600
H      -9.646300     8.557500    10.098800
C     -10.287500     9.750300    11.597400
H     -11.187600     9.536900    11.496800
C      -7.662600    10.371300    11.900500
H      -6.771400    10.603100    12.027500
C      -8.648100    10.917900    12.706300
H      -8.403500    11.515000    13.375600
