71
Refcode: XOQBUB_comp_0 | Dataset: tmCAT | Charge: 0 | Potential Spins: [1, 3, 5]
Pd      4.862600     8.650900     0.578800
Cl      6.047000     7.066300    -0.586500
N       5.798400    10.115600    -0.519200
C       5.145100     9.619900    -2.866900
H       4.583900     8.916400    -2.630500
Cl      3.688300     7.037700     1.726600
N       2.618600    11.812000     2.085000
N       7.057800    11.906800    -1.002100
C       3.060900    11.013700     1.099100
C       2.717900    11.106800    -0.295000
C       5.843400    10.273600    -1.876900
C       4.026700    10.296900     2.939700
C       8.204800    12.826600    -0.909200
H       8.312700    12.997900     0.050500
C       6.635600    11.048600    -0.024200
C       1.567700    12.883100     1.895100
H       1.460700    13.062800     0.937500
C       7.071500    11.171700     1.414300
C       6.683500    11.878600    -3.501300
H       7.193700    12.630300    -3.701300
C       3.126900    11.459400     3.295200
C       6.494000    11.309800    -2.182000
C       5.241400     9.940900    -4.093300
H       4.841400     9.418700    -4.751900
C       2.874700    12.262800    -0.988000
H       3.220900    13.016200    -0.565700
C       3.683400    11.081900     5.568200
H       3.526500    11.299800     6.457100
C       5.961000    11.096900    -4.436800
H       5.964100    11.363000    -5.327700
C       2.506300    12.319300    -2.367900
H       2.700200    13.092700    -2.848700
C       2.073500    10.182100    -0.913200
H       1.853700     9.432000    -0.408100
C       4.553900    10.044100     5.277200
H       5.061600     9.673200     5.964200
C       7.797000    14.242000    -1.533500
H       6.943600    14.511400    -1.186000
H       7.744600    14.167100    -2.489100
H       8.458700    14.897300    -1.299100
C       1.954500    11.406200    -2.939700
H       1.709300    11.489400    -3.832700
C       3.075400    11.762200     4.638800
H       2.575400    12.502300     4.897400
C       1.676000    10.167100    -2.202200
H       1.259600     9.432000    -2.592100
C       9.533200    12.257800    -1.355700
H       9.681800    11.414500    -0.923300
H      10.237600    12.866500    -1.119300
H       9.524200    12.133000    -2.307300
C       0.290200    12.294400     2.434600
H      -0.419900    12.933000     2.341600
H       0.405500    12.074800     3.361900
H       0.072300    11.499400     1.941600
C       1.837500    14.097300     2.569900
H       1.127800    14.721000     2.400200
H       2.667200    14.461500     2.252700
H       1.899500    13.931000     3.513400
N       3.833100    10.042400     1.573900
C       4.696300     9.508500     3.909400
H       5.174200     8.736800     3.705400
C       8.079500     9.975900     3.313400
H       8.481700     9.229100     3.695300
C       7.667800     9.937600     1.996100
H       7.759600     9.164200     1.487000
C       7.904500    11.050300     4.016500
H       8.201200    11.052000     4.897400
C       6.779100    12.299400     2.176000
H       6.298000    13.017900     1.832500
C       7.253700    12.284400     3.485200
H       7.165800    13.037800     4.024600
