70
Refcode: XOTLEZ_comp_0 | Dataset: tmCAT | Charge: unknown | Potential Spins: [1, 3, 5]
C       3.837000     2.506400     9.392700
C       5.890300     3.201700    10.057500
H       6.627400     3.413200    10.618500
C       5.849600     3.323100     8.719500
H       6.544200     3.637200     8.152400
C       4.089000     2.938800     6.954000
H       3.170600     2.569700     6.928800
H       4.661900     2.368700     6.381800
C       4.074400     4.359300     6.395500
H       5.005800     4.647700     6.223100
H       3.591500     4.362700     5.531400
C       3.927100     6.558600     7.437500
C       3.249100     7.454800     8.439400
C       2.392300     6.988700     9.434700
H       2.164000     6.066900     9.469900
C       1.870100     7.869100    10.379300
H       1.302900     7.544000    11.067800
C       2.177900     9.219100    10.316100
H       1.816500     9.818200    10.958700
C       3.012000     9.694900     9.315700
H       3.211400    10.622200     9.263000
C       3.554400     8.812200     8.389900
H       4.139900     9.138900     7.715800
C       4.323300     2.459800    11.853600
C       5.001900     1.449100    12.544900
C       4.673200     1.227900    13.882200
H       5.134700     0.553800    14.366600
C       3.689100     1.965700    14.525400
C       3.047800     2.977400    13.811200
H       2.369100     3.483900    14.241000
C       3.372800     3.268000    12.487400
C       6.084600     0.618200    11.908200
H       6.947300     1.071100    12.012200
H       5.888800     0.501300    10.954900
H       6.121300    -0.258700    12.343400
C       3.353000     1.727300    15.974300
H       3.284700     2.587600    16.439300
H       4.057900     1.187600    16.388500
H       2.497700     1.252800    16.037000
C       2.772400     4.470700    11.804600
H       2.262300     4.996100    12.456400
H       2.176000     4.174900    11.085600
H       3.488100     5.023900    11.428300
C       0.143700     0.458500     9.421300
H      -0.628100     1.012900     9.731300
C       0.369000    -0.813200    10.231500
H       0.320100    -1.596200     9.628500
H      -0.350700    -0.902400    10.905400
C       1.728700    -0.808300    10.943700
H       1.630700    -0.365800    11.823100
H       2.011200    -1.743200    11.105900
C       2.805300    -0.098900    10.153200
H       3.635100     0.086700    10.679500
C       3.030100    -0.234200     8.770600
H       3.986600    -0.118900     8.504000
C       2.252600    -1.189800     7.876100
H       1.931200    -1.953500     8.416400
H       2.856000    -1.544300     7.176300
C       1.053900    -0.502400     7.209300
H       1.351500    -0.090700     6.358900
H       0.371900    -1.186600     6.991000
C       0.416800     0.568800     8.079400
H      -0.194500     1.187500     7.586300
N       4.656700     2.709600    10.470000
N       4.588400     2.896300     8.334100
N       3.443500     5.306300     7.295500
O       4.898200     6.967800     6.800900
Cl      0.911600     3.669600     8.825000
Rh      2.033600     1.582500     9.178300
H       2.802900     5.073300     7.679000
