87
Refcode: XOXMIG_comp_0 | Dataset: tmCAT | Charge: unknown | Potential Spins: [1, 3, 5]
Pt     -5.220800     5.711400     3.180000
Cl     -5.630600     7.782500     2.146500
Cl     -6.504000     6.545100     4.974700
P      -4.982000     3.724400     4.198000
C      -3.517900     3.686600     5.279500
C      -3.176000     4.841100     5.940900
C      -2.096000     4.878300     6.825900
C      -1.355700     3.734700     7.019200
C      -1.690100     2.571400     6.378800
C      -2.776700     2.536500     5.489100
C      -6.354600     3.275500     5.314500
C      -6.125000     2.617400     6.499900
C      -7.189900     2.099100     7.242800
C      -8.479900     2.282800     6.804900
C      -8.737600     2.967200     5.640500
C      -7.664100     3.467900     4.902300
C      -4.971700     2.293700     3.036800
C      -6.265600     1.521900     2.992600
C      -6.502200     0.485400     3.879900
C      -7.716200    -0.199000     3.879900
C      -8.692700     0.146500     2.948300
C      -8.454600     1.163300     2.049400
C      -7.232500     1.841100     2.056400
C      -3.955700     1.950400     2.214800
C      -4.011000     0.747800     1.283200
C      -2.801800    -0.172700     1.457900
C      -2.628500     2.654500     2.198400
C      -1.435800     1.716500     2.384800
C      -1.488400     0.599100     1.339100
C      -2.459400     3.975200     1.949300
C      -1.095700     4.605000     2.014500
C      -0.330700     4.799600     0.864000
C       0.923900     5.407500     0.966500
C       1.416400     5.792300     2.196100
C       0.664300     5.606400     3.316300
C      -0.583000     5.011700     3.234800
P      -3.860000     5.109600     1.491200
C      -2.969400     6.553200     0.761500
C      -2.942100     6.734700    -0.614800
C      -2.229300     7.812700    -1.134200
C      -1.595400     8.698300    -0.307400
C      -1.659800     8.508100     1.066600
C      -2.343000     7.449700     1.588300
C      -4.752000     4.357900     0.083800
C      -6.070700     4.718700    -0.132700
C      -6.744100     4.277000    -1.259900
C      -6.090500     3.433000    -2.149500
C      -4.801200     3.054700    -1.951600
C      -4.108000     3.527000    -0.831400
H      -3.684100     5.630500     5.794200
H      -1.876400     5.678600     7.287000
H      -0.603800     3.754400     7.599100
H      -1.186100     1.782100     6.539500
H      -3.001100     1.731800     5.035000
H      -5.235500     2.512400     6.816600
H      -7.022400     1.622500     8.046200
H      -9.202600     1.930800     7.315000
H      -9.630000     3.098400     5.342400
H      -7.833700     3.946800     4.098800
H      -5.826500     0.236200     4.499400
H      -7.875400    -0.892100     4.508700
H      -9.521100    -0.319200     2.932000
H      -9.125600     1.406000     1.422900
H      -7.065900     2.523300     1.418300
H      -4.045400     1.064900     0.344700
H      -4.837900     0.236200     1.462500
H      -2.846900    -0.605700     2.345200
H      -2.827700    -0.881200     0.768500
H      -1.456300     1.327300     3.293000
H      -0.592800     2.226000     2.286900
H      -1.411300     0.986200     0.433200
H      -0.727600    -0.019700     1.476500
H      -0.661000     4.521900     0.016300
H       1.440700     5.554000     0.184000
H       2.278100     6.188100     2.263700
H       0.998800     5.888500     4.159400
H      -1.092100     4.880500     4.026600
H      -3.400100     6.133400    -1.190100
H      -2.184600     7.935200    -2.075000
H      -1.115800     9.435200    -0.670700
H      -1.223700     9.120300     1.648800
H      -2.384400     7.333900     2.529100
H      -6.517200     5.274100     0.496000
H      -7.639400     4.548100    -1.422900
H      -6.555900     3.111500    -2.913400
H      -4.373300     2.473000    -2.568700
H      -3.200800     3.279900    -0.694000
