69
Refcode: XOXXOX_comp_0 | Dataset: tmCAT | Charge: 0 | Potential Spins: [1, 3, 5]
Pt      1.615300     1.464500     3.216600
P       2.784300    -0.406000     3.007200
P       3.531700     2.509600     2.840300
S      -0.824100    -0.637000     4.121800
S      -0.563100     4.030300     3.729000
C       4.387800     0.024800     2.243100
C       4.883400     1.294200     2.936400
C      -1.459000    -0.111500     5.736600
C      -0.197300     4.146500     5.509000
O      -0.296500     0.612000     3.548900
O       0.181100    -1.593100     4.480300
O      -1.964600    -1.101300     3.409600
O       0.658800     3.377300     3.211900
O      -1.740000     3.227800     3.634200
O      -0.635100     5.379000     3.292800
F      -1.978500    -1.162400     6.380500
F      -2.416700     0.817400     5.630000
F      -0.505900     0.379500     6.502800
F       0.127200     2.970700     6.004600
F      -1.217800     4.624200     6.164800
F       0.826900     4.947300     5.727600
C       3.261100    -1.129600     4.586600
C       2.947000    -0.450500     5.772500
C       3.427800    -0.934000     6.983900
C       4.200700    -2.073300     7.024400
C       4.515400    -2.746500     5.862400
C       4.067600    -2.271000     4.630000
C       2.027000    -1.606900     1.888200
C       1.675300    -2.910000     2.268600
C       1.090800    -3.764000     1.347700
C       0.864400    -3.333100     0.055400
C       1.209700    -2.061100    -0.335400
C       1.780500    -1.190700     0.582500
C       3.624600     3.172500     1.165000
C       4.783900     3.815100     0.729200
C       4.855000     4.309700    -0.557000
C       3.793800     4.126600    -1.427000
C       2.661100     3.473900    -1.019700
C       2.566000     2.988600     0.272500
C       3.857100     3.846200     4.010100
C       4.042100     3.528600     5.348800
C       4.293400     4.535300     6.250200
C       4.321400     5.850700     5.859400
C       4.113800     6.160100     4.543100
C       3.902500     5.165400     3.599800
H       4.270600     0.193700     1.302700
H       5.019800    -0.682400     2.365900
H       5.089600     1.099800     3.848300
H       5.663400     1.642400     2.500700
H       2.404300     0.344600     5.735100
H       3.216600    -0.466700     7.801500
H       4.518300    -2.396700     7.861400
H       5.044700    -3.540500     5.899800
H       4.306600    -2.713400     3.818400
H       1.849700    -3.208000     3.159500
H       0.829300    -4.649200     1.617200
H       0.470000    -3.929300    -0.584000
H       1.066500    -1.768000    -1.242900
H       1.998500    -0.291700     0.329400
H       5.526500     3.918000     1.332700
H       5.638800     4.777700    -0.853500
H       3.850700     4.468700    -2.321000
H       1.932700     3.331600    -1.632200
H       1.771000     2.545000     0.569000
H       4.000900     2.610800     5.630300
H       4.450600     4.318700     7.172600
H       4.475400     6.551300     6.498800
H       4.128700     7.080600     4.267600
H       3.728800     5.386600     2.680400
