51
Refcode: XUDDIJ_comp_0 | Dataset: tmCAT | Charge: unknown | Potential Spins: [1, 3, 5]
Ru      3.841700    18.827300     4.404500
Cl      4.985100    16.710800     4.571900
O       5.360800    19.415800     3.123800
O       6.337000    19.131700     1.180200
N       3.131100    18.117700     2.515300
H       2.619600    18.763700     2.124500
C       5.407200    18.936400     1.959700
C       4.257900    17.990100     1.546700
H       4.686000    17.190200     1.604300
C       3.854100    18.136500     0.095300
H       4.628000    18.572100    -0.272000
H       3.161200    18.765500     0.009900
C       3.310700    16.919800    -0.583700
C       2.062900    16.947900    -1.215100
H       1.485900    17.644600    -1.137700
C       1.619100    15.830700    -1.912100
H       0.702100    15.864500    -2.047100
C       2.371100    14.696600    -1.949800
H       1.856100    13.934300    -2.384600
C       3.565600    14.647800    -1.310400
H       3.884800    13.832900    -1.002700
C       4.040000    15.770600    -0.635400
H       4.785000    15.659900    -0.105200
C       3.430600    20.900500     4.920100
C       4.322700    20.352200     5.869200
H       5.234000    20.831000     6.047900
C       4.016900    19.161700     6.542300
H       4.730000    18.786200     7.169700
C       2.787000    18.485800     6.314000
C       1.914600    19.035900     5.370900
H       0.980200    18.705400     5.146500
C       2.229700    20.230100     4.670000
H       1.725200    20.579400     3.951200
C       3.814100    22.177300     4.189500
H       4.800700    22.160400     4.030600
C       3.504800    23.345200     5.084900
H       4.193600    24.032400     4.977700
H       3.481000    23.044800     6.018100
H       2.630000    23.718900     4.842700
C       3.134000    22.291800     2.881000
H       3.365200    21.518200     2.325100
H       3.424200    23.112400     2.434300
H       2.164800    22.318100     3.018000
C       2.496800    17.203300     7.024800
H       1.996300    16.606200     6.431100
H       1.963800    17.387300     7.827000
H       3.339100    16.773300     7.284900
C       2.314900    16.880300     2.583200
H       2.060600    16.685100     1.624200
H       2.864600    16.270100     2.761900
H       1.693900    17.147000     3.137100
