73
Refcode: XUFTIC_comp_0 | Dataset: tmCAT | Charge: 0 | Potential Spins: [1, 3, 5]
Ru      1.447300     9.694400    12.923500
O       3.376900    10.021700    13.569900
O       1.139100     8.488700    14.601700
O       1.678100    11.505900    10.540600
O       0.459100    12.022300    14.594500
N       2.102700     8.101400    11.774100
N      -0.347300     8.868500    12.363700
C       4.448000     9.729700    12.869400
C       5.664600    10.429100    13.170600
C       6.800400    10.089400    12.465600
H       7.590100    10.543200    12.655000
C       6.824200     9.104200    11.484300
H       7.615100     8.902400    11.037400
C       5.670600     8.433500    11.184100
H       5.683700     7.765400    10.535700
C       4.457500     8.741900    11.848100
C       3.337200     7.939700    11.433600
H       3.521500     7.230200    10.860000
C       5.690800    11.530900    14.236400
C       7.069200    12.220400    14.305100
H       7.052500    12.899800    14.984200
H       7.270200    12.619000    13.456200
H       7.741200    11.569800    14.520700
C       4.670400    12.627800    13.904500
H       4.693000    13.303400    14.585500
H       3.790300    12.244200    13.862500
H       4.888000    13.021400    13.055600
C       5.411300    10.923000    15.611800
H       5.422000    11.616200    16.275600
H       6.085600    10.271200    15.817800
H       4.549100    10.499300    15.606100
C       0.009500     8.635400    15.273200
C      -0.005900     8.488700    16.691500
C      -1.197600     8.683000    17.350000
H      -1.200000     8.626600    18.278600
C      -2.409500     8.960000    16.701400
H      -3.188500     9.109200    17.189400
C      -2.420200     9.006400    15.339600
H      -3.225400     9.133000    14.892600
C      -1.236900     8.864800    14.600400
C      -1.316600     8.651700    13.186700
H      -2.119300     8.334500    12.840100
C       1.277300     8.092600    17.436800
C       1.751800     6.713700    16.926100
H       1.054900     6.066900    17.057800
H       2.534400     6.444200    17.410700
H       1.960000     6.772700    15.989500
C       2.376200     9.119200    17.231400
H       3.164700     8.844700    17.704400
H       2.083700     9.971600    17.563300
H       2.574800     9.191900    16.294700
C       1.028700     7.959700    18.950700
H       0.335400     7.314200    19.104600
H       0.761200     8.809600    19.306800
H       1.836300     7.671400    19.383100
C       1.012100     7.247700    11.251200
H       0.795600     6.584600    11.939700
C      -0.218800     8.156500    11.074000
H      -0.020200     8.814600    10.375400
C      -1.422400     7.334200    10.633300
H      -2.185900     7.917100    10.503200
H      -1.647200     6.689900    11.323500
C      -1.108400     6.602200     9.332000
H      -1.873100     6.065700     9.070600
H      -0.943100     7.250200     8.628100
C       0.104700     5.710900     9.490300
H       0.308000     5.291000     8.639500
H      -0.096300     5.009000    10.129400
C       1.322500     6.495600     9.969300
H       2.059900     5.883900    10.123600
H       1.592500     7.124900     9.282400
C       1.615100    10.807700    11.449200
C       0.801600    11.153600    13.970100
