105
Refcode: XUKREC_comp_0 | Dataset: tmCAT | Charge: 0 | Potential Spins: [1, 3, 5]
C      10.954900     4.799000    -1.329900
C       9.870800     5.615800    -1.364800
H       9.120100     5.417900    -0.818100
C       9.841000     6.751800    -2.198400
H       9.093900     7.337200    -2.202300
C      10.949300     6.991500    -3.024300
H      10.957100     7.752500    -3.594200
C      12.004300     6.153800    -3.012600
H      12.739900     6.330800    -3.586500
C      12.046200     5.029000    -2.181000
H      12.790200     4.439400    -2.192600
C      10.284600     1.968100    -1.421000
C      10.061200     2.135400    -2.766400
H      10.210200     2.981400    -3.171600
C       9.626400     1.083000    -3.520600
H       9.468300     1.216800    -4.447200
C       9.406300    -0.167300    -2.979700
H       9.095100    -0.883700    -3.522500
C       9.643500    -0.349900    -1.663400
H       9.552000    -1.215400    -1.285300
C      10.023500     0.715000    -0.862700
H      10.109300     0.591000     0.075600
C      12.509800     2.900600     0.083400
C      13.229500     2.061500    -0.779300
H      12.766800     1.729800    -1.539300
C      14.545600     1.669800    -0.630100
H      14.960800     1.172200    -1.326000
C      15.292800     1.986200     0.523400
H      16.162100     1.643300     0.696000
C      14.580700     2.910300     1.446200
H      15.053800     3.261600     2.190700
C      13.255500     3.283900     1.262100
C      12.560300     4.046300     2.398100
H      11.573900     3.895800     2.351600
C      12.795000     2.147900     3.921900
H      13.228100     1.601500     3.231700
H      11.825700     2.008500     3.887000
H      13.132600     1.885900     4.804000
C      12.479900     4.422700     4.627500
H      12.883300     4.313900     5.523200
H      11.507900     4.248400     4.693400
C      12.743600     5.865300     4.075000
C      12.864600     5.608800     2.514400
C      14.180600     6.081300     1.888200
C      13.943500     6.704400     0.624200
C      12.509800     6.905100     0.498200
C      11.882700     6.440900     1.669200
C      10.820800     7.069600     2.181000
C      10.711300     7.299500     3.650500
C      11.687400     6.836800     4.474400
C      12.121500     7.649400     5.594900
C      13.573100     7.440300     5.726700
C      13.976300     6.486900     4.724500
C      15.179800     6.669500     4.067300
C      15.257200     6.415800     2.584200
C      16.249500     7.427800     2.062700
C      16.005900     8.048000     0.837500
C      14.833900     7.638200     0.067900
C      14.288500     8.804900    -0.571900
C      12.984000     9.008400    -0.692100
C      12.075300     8.045200    -0.151200
C      10.912500     8.750500     0.397400
C      10.314000     8.301700     1.543200
C       9.886000     9.239800     2.648200
C      10.148500     8.641800     3.857900
C      10.554900     9.409800     4.943500
C      11.586700     8.912200     5.794600
C      12.505300    10.012000     6.178400
C      13.797500     9.829400     6.302500
C      14.426600     8.485700     6.091200
C      15.646900     8.690600     5.368100
C      16.048400     7.787400     4.393000
C      16.702700     8.229200     3.192900
C      16.956500     9.650900     2.946700
C      16.615700    10.230800     1.688600
C      16.249000     9.368000     0.649400
C      15.215700     9.929700    -0.190000
C      14.629000    11.226000     0.019400
C      13.194700    11.386300    -0.168700
C      12.390500    10.346500    -0.455600
C      11.123300    10.179200     0.197700
C      10.735800    11.127000     1.209700
C      10.109900    10.619700     2.438800
C      10.590900    11.390500     3.574900
C      10.775300    10.859400     4.802000
C      11.916100    11.168800     5.498000
C      12.875600    12.180800     4.982300
C      14.264200    11.953600     5.104400
C      14.748100    10.810600     5.750000
C      15.840800    10.094200     5.168400
C      16.475500    10.555600     4.030400
C      15.961300    11.751500     3.330600
C      14.912400    12.410800     3.832700
C      13.853100    12.884700     2.999100
C      12.580900    12.725800     3.706700
C      11.493600    12.375900     3.001000
C      11.562100    12.180800     1.521800
C      12.796700    12.314600     0.845200
C      13.928500    12.700700     1.599400
C      15.102100    11.999600     1.072100
C      16.029000    11.580000     1.911500
N      13.089300     3.532000     3.689200
P      10.800300     3.299200    -0.317900
Cl      7.945300     3.764800     3.142500
Au      9.402400     3.542700     1.406300
