96
Refcode: XUVBOF_comp_0 | Dataset: tmCAT | Charge: unknown | Potential Spins: [1, 3, 5]
Ir      6.195600     6.553000     7.349100
B       7.396400     9.260400     8.356600
H       7.779800    10.137800     8.645400
N       5.923300     9.152700     8.808200
N       5.212700     7.999300     8.549400
C       4.062000     8.081100     9.232500
C       4.023000     9.296600     9.922700
H       3.318300     9.615500    10.475000
C       5.208700     9.943300     9.643700
C       3.015500     7.005500     9.250800
H       3.222400     6.337300     8.565700
H       2.137900     7.400500     9.068000
H       3.003500     6.577400    10.132200
C       5.704100    11.261900    10.148400
H       6.006600    11.807200     9.392200
H       6.451800    11.114700    10.765200
H       4.979700    11.725600    10.617500
N       8.184000     8.103200     9.001500
N       7.775700     6.819200     8.773200
C       8.596800     6.018300     9.475200
C       9.543300     6.799400    10.148100
H      10.241800     6.486500    10.710900
C       9.261100     8.111900     9.831600
C       8.480800     4.529800     9.494700
H       8.347000     4.201500     8.580900
H       7.718300     4.269200    10.050700
H       9.302100     4.143300     9.864000
C       9.923300     9.369500    10.288800
H      10.235900     9.876700     9.511000
H      10.686800     9.146900    10.861900
H       9.282600     9.911600    10.794100
N       7.501600     9.116300     6.827700
N       6.977400     8.023000     6.177900
C       7.252300     8.161500     4.867300
C       7.981300     9.338300     4.687900
H       8.315200     9.676100     3.866200
C       8.125500     9.913300     5.927900
C       6.818500     7.237800     3.773000
H       6.469100     6.409600     4.163200
H       7.583600     7.029800     3.197500
H       6.117200     7.668600     3.239900
C       8.860800    11.158100     6.314700
H       9.665300    10.918900     6.821000
H       8.281200    11.721000     6.870200
H       9.117300    11.651000     5.507300
C       3.959900     7.634400     5.627300
C       4.608000     6.356200     6.096300
C       4.042600     5.184800     5.705200
C       2.932500     5.138600     4.725600
O       4.333100     8.360400     4.739400
O       2.907900     7.928100     6.414700
C       2.249900     9.169700     6.116600
H       1.625100     9.389400     6.837900
H       1.758400     9.083900     5.273100
H       2.918100     9.881300     6.033500
O       2.401100     6.097100     4.201900
O       2.593000     3.867200     4.450500
C       1.481000     3.668800     3.553600
H       1.383400     2.714000     3.360400
H       1.645000     4.154900     2.718900
H       0.660300     4.003400     3.971400
C       3.287200     3.200100     7.105100
C       4.370900     3.887700     6.331700
C       5.594900     3.334900     6.371000
C       5.926500     2.151100     7.240300
O       3.347100     2.076800     7.526300
O       2.247200     4.016900     7.326000
C       1.166600     3.442800     8.097400
H       0.436600     4.092000     8.170200
H       1.491200     3.212900     8.993300
H       0.840000     2.634700     7.650900
O       6.150100     2.299700     8.424800
O       6.104700     1.039200     6.555900
C       6.643000    -0.086300     7.300600
H       6.543900    -0.904700     6.771700
H       6.156800    -0.181900     8.146500
H       7.593300     0.069900     7.486300
C       8.623600     5.548300     5.739300
C       7.242500     5.189400     6.238100
C       6.840100     3.958100     5.858000
C       7.685600     2.984400     5.069000
O       9.037800     5.304900     4.625800
O       9.356200     6.143300     6.673000
C      10.683900     6.544600     6.301300
H      11.141400     6.922500     7.080600
H      10.634500     7.218600     5.592200
H      11.181700     5.766000     5.975800
O       7.402200     2.578300     3.977700
O       8.738400     2.566200     5.784200
C       9.541100     1.550500     5.140200
H      10.310100     1.333700     5.707600
H       9.858700     1.883900     4.275200
H       9.000600     0.746100     5.001600
O       5.423200     5.100100     8.665300
H       5.348800     5.276400     9.441400
H       5.700200     4.353100     8.597900
