88
Refcode: XUVCEW_comp_0 | Dataset: tmCAT | Charge: unknown | Potential Spins: [1, 3, 5]
Ir     10.706600    11.609200     8.606600
B      11.989900    10.787900     5.842600
H      12.348900    10.492500     4.871900
N       9.851200    10.443100     7.181700
N      10.559100    10.249800     6.007500
N      11.314900    12.912000     7.029300
N      11.927100    12.323900     5.942500
N      12.617100    10.673200     8.259800
N      12.877200    10.247600     6.983100
O      12.632000    13.676500    12.719500
O      11.564400    15.318800    11.634000
O       9.714200    13.890600    13.374100
O       8.068400    12.401000    13.119300
O      10.259300    10.651100    13.637700
O       9.150500     9.084600    12.480700
O       9.926900     8.176100     9.412800
O      11.592700     8.672300    10.822000
C       8.659100     9.863400     7.020600
C       8.586400     9.319000     5.755100
H       7.859700     8.868900     5.389100
C       9.789900     9.565800     5.138000
C       7.594700     9.823500     8.076200
H       7.962000    10.117900     8.913200
H       7.269400     8.926100     8.168600
H       6.870900    10.401900     7.823800
C      10.270900     9.206500     3.762600
H      10.364200    10.004500     3.236700
H       9.635400     8.620500     3.344200
H      11.120300     8.764000     3.825100
C      11.371700    14.237300     6.847000
C      12.027200    14.501100     5.655200
H      12.202500    15.339700     5.294200
C      12.366600    13.294200     5.110500
C      10.801600    15.223000     7.825100
H       9.859600    15.321800     7.667700
H      11.234400    16.073100     7.713900
H      10.945500    14.906300     8.720800
C      13.043300    12.982900     3.806400
H      13.740900    12.339800     3.952500
H      13.419900    13.786700     3.441600
H      12.400200    12.622400     3.190500
C      13.666800    10.306200     9.021800
C      14.569100     9.621200     8.229800
H      15.374000     9.249000     8.509700
C      14.059200     9.589400     6.960600
C      13.792900    10.687700    10.462200
H      14.260600    11.523800    10.532100
H      14.280700    10.007300    10.931900
H      12.917800    10.778000    10.848200
C      14.602000     8.959500     5.708900
H      14.026000     8.241500     5.436600
H      15.482700     8.616900     5.878800
H      14.643500     9.617200     5.010600
C       9.004000    12.627300     8.965600
C       8.743700    13.047400    10.271100
C       7.744300    13.986800    10.550900
H       7.628000    14.301300    11.417800
C       6.932400    14.443900     9.531500
H       6.260100    15.061400     9.712700
C       7.119300    13.987300     8.247300
H       6.552400    14.277900     7.569000
C       8.141900    13.097300     7.953800
H       8.260200    12.805700     7.078100
O      11.586900    12.855900     9.977900
C      11.024300    13.122200    11.053100
C       9.681700    12.531000    11.392900
C       9.829300    10.990900    11.322900
C      10.235100    10.439400    10.161100
C      11.825000    14.062700    11.943800
C      12.281900    16.321700    12.402200
H      12.322800    16.050000    13.321600
H      11.824400    17.162300    12.336000
H      13.172100    16.413000    12.054900
C       9.186400    13.015900    12.755800
C       7.530500    12.784100    14.403500
H       8.163300    12.567600    15.093000
H       6.710400    12.311900    14.562100
H       7.361800    13.728700    14.411000
C       9.783000    10.256000    12.609600
C       9.051800     8.265100    13.658900
H       9.921300     8.161800    14.051200
H       8.703800     7.403500    13.421600
H       8.463700     8.684600    14.292300
C      10.517500     8.965900    10.078700
C      12.104900     7.318900    10.724500
H      11.746200     6.788500    11.439100
H      13.062600     7.334400    10.787000
H      11.845500     6.938700     9.882600
