37
Refcode: XUWTUF_comp_0 | Dataset: tmCAT | Charge: unknown | Potential Spins: [1, 3, 5]
Pd      4.471900    -0.923400    10.309200
C       4.993900     0.243000    11.827600
C       7.491800     0.542200    11.804700
H       7.530000    -0.266000    11.252100
H       8.132700     0.465500    12.541900
H       7.714900     1.323600    11.257300
C       5.900900     1.459900    13.473700
H       6.553500     1.895200    14.009800
C       4.573200     1.473700    13.675800
H       4.102600     1.913100    14.373800
C       2.600700     0.445900    12.450300
H       2.114400     0.814600    13.242500
C       2.076200     1.162200    11.219200
C       2.622200     2.375400    10.825400
H       3.396100     2.711100    11.263900
C       2.046900     3.096700     9.798600
H       2.425500     3.927300     9.535400
C       0.925600     2.616500     9.151500
H       0.515600     3.131900     8.466900
C       0.401200     1.390100     9.500100
H      -0.344400     1.041000     9.026000
C       0.963800     0.664700    10.542100
H       0.590000    -0.171400    10.793800
C       2.392300    -1.042500    12.445400
C       1.497000    -1.643300    13.322600
H       0.977500    -1.110000    13.912900
C       1.365900    -3.020600    13.332000
H       0.770000    -3.442600    13.940400
C       2.113400    -3.775500    12.442800
H       2.041000    -4.722700    12.431900
C       2.970500    -3.124600    11.569000
H       3.470500    -3.638300    10.944400
Cl      3.710500    -2.314700     8.566200
Cl      6.001800     0.037600     8.899500
N       3.117400    -1.781400    11.578500
N       4.033200     0.710300    12.648200
N       6.148500     0.696800    12.345200
