68
Refcode: YADPUQ_comp_0 | Dataset: tmCAT | Charge: 0 | Potential Spins: [1, 3, 5]
Pt      4.793300     2.573100     3.165800
Cl      6.160300     3.505500     4.836100
Cl      3.743400     1.374800     4.810900
P       3.352800     1.847700     1.650900
N       5.744400     3.667000     1.727400
C       6.563300     4.822900     2.124100
C       5.928500     6.045600     2.358400
C       6.753900     7.137300     2.639700
H       6.363000     7.988200     2.801200
C       8.131800     7.002300     2.687900
H       8.675500     7.760300     2.864700
C       8.717000     5.769500     2.479600
H       9.662100     5.688600     2.521800
C       7.941600     4.637300     2.208900
C       4.425400     6.195800     2.296400
H       4.032100     5.297300     2.496100
C       3.878600     7.156000     3.327500
H       2.903100     7.205600     3.243500
H       4.264600     8.045800     3.183500
H       4.112900     6.839700     4.225800
C       3.966600     6.581100     0.917200
H       2.990900     6.669500     0.910300
H       4.236600     5.888300     0.279400
H       4.373500     7.434700     0.665200
C       8.600200     3.287100     2.014500
H       7.876300     2.595700     2.026300
C       9.301300     3.194700     0.655700
H       9.714500     2.310300     0.560600
H       9.992700     3.886200     0.596600
H       8.644800     3.326100    -0.060000
C       9.562200     2.961600     3.151100
H       9.970200     2.085100     2.993200
H       9.073200     2.945500     3.999600
H      10.262700     3.646300     3.192100
C       5.780700     3.468600     0.456200
H       6.258600     4.124700    -0.037700
C       5.202600     2.392400    -0.348700
C       4.157800     1.547100     0.059100
C       3.712000     0.560400    -0.816700
H       3.011300    -0.022800    -0.550300
C       4.281100     0.418400    -2.079800
H       3.968000    -0.261300    -2.665800
C       5.293000     1.253500    -2.482400
H       5.682900     1.152500    -3.343000
C       5.738700     2.243700    -1.627400
H       6.424100     2.834200    -1.916600
C       2.372300     0.357100     1.960700
C       3.008700    -0.792000     2.432100
H       3.938500    -0.774600     2.626400
C       2.284400    -1.958400     2.615900
H       2.722900    -2.741800     2.929800
C       0.942900    -1.991300     2.350000
H       0.447000    -2.788700     2.494400
C       0.318200    -0.873700     1.875800
H      -0.611200    -0.905900     1.680100
C       1.017500     0.312200     1.673700
H       0.571900     1.082800     1.342300
C       2.152700     3.172500     1.325900
C       1.776900     3.557500     0.041300
H       2.139300     3.114300    -0.718300
C       0.863200     4.600500    -0.120300
H       0.593300     4.867100    -0.990900
C       0.350100     5.247800     0.992100
H      -0.265600     5.962000     0.877700
C       0.724400     4.865400     2.269300
H       0.362800     5.310700     3.025800
C       1.630000     3.825800     2.438000
H       1.892900     3.560600     3.312100
