73
Refcode: YAHVIP_comp_0 | Dataset: tmCAT | Charge: unknown | Potential Spins: [1, 3, 5]
Ru     10.430800    -0.376300     6.050000
Cl      8.271900    -1.446800     6.448700
P      10.124000     1.621100     7.132200
P       9.622400     0.301300     4.029400
N       6.924700     1.089000     4.610400
N       5.676900     1.104000     4.060200
N       7.166300     0.107700     2.675300
N       7.931500     2.829500     5.919600
N       7.414000     4.018300     5.497300
N       9.558000     4.263000     6.179300
C       9.169900     1.701300     8.699100
C      11.685000     2.474300     7.587300
C      12.411700     3.197600     6.640800
H      12.059000     3.327700     5.790200
C       9.696400    -2.251600     2.945100
H       9.310700    -2.507800     3.751000
C       9.962800    -0.908200     2.695100
C       8.653500     0.556000     9.275800
H       8.811900    -0.275800     8.890300
C      10.576100    -2.833400     0.793300
H      10.786900    -3.480800     0.158800
C      10.835300    -1.504700     0.530200
H      11.208800    -1.253900    -0.284300
C      11.605600     2.147200     3.453200
H      12.175700     1.494500     3.790200
C       9.210400     2.991400     6.324000
C       7.800400     0.493600     3.772800
C      13.651200     3.724100     6.956700
H      14.124300     4.210300     6.321600
C      12.232300     2.302500     8.849500
H      11.755500     1.831700     9.494200
C       9.939200     4.104400     2.450400
H       9.377100     4.762400     2.109800
C      12.123200     3.366300     3.043200
H      13.039200     3.519100     3.090200
C      10.535100    -0.544800     1.485500
H      10.718600     0.349700     1.313700
C       9.408500     2.877600     2.838800
H       8.497200     2.716100     2.745100
C       7.107400     1.644000     5.937500
H       6.241300     1.863800     6.313800
H       7.520500     0.976600     6.507900
C      10.007100    -3.207300     1.991000
H       9.830000    -4.104200     2.158800
C       5.885900     0.499600     2.910600
H       5.201600     0.351000     2.298100
C       8.922600     2.941000     9.290300
H       9.268500     3.713900     8.907900
C       7.892800     0.655000    10.439300
H       7.546900    -0.112800    10.831400
C      11.288200     4.352900     2.567100
H      11.633400     5.181200     2.325500
C      10.235000     1.892100     3.365300
C      13.479700     2.822200     9.163800
H      13.837100     2.694400    10.011800
C       8.430200     4.830700     5.672800
H       8.381900     5.735200     5.464700
C      14.186800     3.529600     8.211200
H      15.026000     3.875700     8.417700
C      11.405500    -2.083500     7.071400
H      10.961400    -2.650900     7.658900
C      11.516200    -2.271500     5.664700
H      11.159000    -2.973200     5.170600
C      12.076700    -0.903300     7.425900
H      12.162400    -0.559700     8.286300
C      12.270000    -1.190300     5.162400
H      12.509100    -1.066100     4.272600
C       8.164500     3.021400    10.442200
H       8.001700     3.849800    10.833400
C       7.651200     1.882200    11.013800
H       7.140500     1.940900    11.788300
C      12.603700    -0.323800     6.230400
H      13.077400     0.473000     6.166700
