57
Refcode: YALGUQ_comp_0 | Dataset: tmCAT | Charge: unknown | Potential Spins: [1, 3, 5]
Au      4.486400     9.034100    13.733000
N       5.086700     8.987500    10.740700
N       3.389800     7.779700    11.223900
C       4.317000     8.578100    11.778700
C       4.612000     8.447100     9.549900
H       4.972400     8.586200     8.682900
C       3.554500     7.695900     9.858300
H       3.017800     7.197800     9.252800
C       6.226900     9.869200    10.825500
C       7.494500     9.299400    10.976900
C       8.572600    10.162000    10.960800
H       9.447400     9.807300    11.050100
C       8.415200    11.522500    10.817900
C       7.152100    12.052000    10.696400
H       7.045300    12.992000    10.603500
C       6.018200    11.226900    10.705300
C       7.672000     7.822100    11.153700
H       7.242500     7.539800    11.989900
H       8.625900     7.608200    11.189500
H       7.258900     7.352300    10.399800
C       9.651800    12.427000    10.823200
H       9.484300    13.212400    10.260400
H      10.419900    11.930400    10.469500
H       9.840700    12.715800    11.739700
C       4.638500    11.803500    10.591000
H       4.244400    11.540300     9.733400
H       4.688100    12.781700    10.642800
H       4.081500    11.464300    11.323500
C       2.263500     7.197300    11.941600
H       1.436900     7.681700    11.693300
H       2.403000     7.316900    12.915300
C       2.089400     5.775000    11.654000
C       1.885400     4.648300    11.396700
C       1.587900     3.252600    11.161400
C       2.415800     2.251600    11.673600
H       3.214800     2.482900    12.132800
C       2.070500     0.936600    11.514600
H       2.636200     0.258400    11.868400
C       0.924800     0.582500    10.851800
H       0.693400    -0.334400    10.758900
C       0.108600     1.563200    10.319400
H      -0.680200     1.317400     9.853100
C       0.431400     2.895100    10.460500
H      -0.127100     3.564700    10.087100
C       4.636000     9.335800    15.689900
C       4.673300     9.373100    16.892300
C       4.695200     9.300400    18.327600
C       5.201100    10.298300    19.111200
H       5.525200    11.094400    18.705700
C       5.247400    10.164600    20.497600
H       5.609600    10.868900    21.021100
C       4.790500     9.052300    21.106900
H       4.839100     8.968700    22.052000
C       4.261300     8.054100    20.354700
H       3.923500     7.273800    20.776300
C       4.213200     8.164800    18.968300
H       3.846800     7.456200    18.453800
