43
Refcode: YATXAV_comp_0 | Dataset: tmCAT | Charge: unknown | Potential Spins: [1, 3, 5]
Ir      3.565500    -1.518700     2.718300
O       0.573300    -0.711300     1.606900
O       4.423500    -0.648200     4.313800
N       2.088400    -0.224400     3.267200
C       4.855400    -2.065900     1.072100
C       3.445900    -2.220400     0.664600
C       2.851000    -3.165300     1.501200
C       3.914200    -3.610700     2.449700
C       5.110100    -2.948400     2.179800
C       5.881900    -1.229900     0.449500
C       2.812600    -1.543200    -0.516900
C       1.470700    -3.752000     1.466800
C       3.696600    -4.679400     3.500200
C       6.381400    -3.097100     2.928500
C       0.881300    -0.092200     2.612700
C      -0.073700     0.857600     3.235300
C       0.154600     1.509900     4.343100
C       1.459600     1.341200     5.023000
C       1.855600     1.986900     6.207100
C       3.089200     1.782500     6.745700
C       4.030700     0.915800     6.096400
C       3.633200     0.238500     4.977200
C       2.338300     0.468700     4.410600
H       6.582200    -1.787500     0.101900
H       5.489200    -0.725500    -0.267400
H       6.246600    -0.627400     1.101400
H       3.291700    -0.733800    -0.707900
H       2.852100    -2.125700    -1.278300
H       1.896600    -1.333800    -0.322100
H       1.346800    -4.206500     0.630300
H       1.368700    -4.376000     2.188700
H       0.815800    -3.054800     1.552100
H       3.952300    -5.536100     3.151300
H       4.237700    -4.472400     4.265400
H       2.773300    -4.701800     3.758700
H       6.888100    -2.285300     2.854600
H       6.200800    -3.277500     3.854100
H       6.884600    -3.824300     2.554200
H      -0.889600     0.993000     2.810100
H      -0.490100     2.080800     4.697000
H       1.265100     2.566100     6.632400
H       3.319900     2.209600     7.539000
H       4.890500     0.807700     6.435000
