94
Refcode: YEBVIL_comp_0 | Dataset: tmCAT | Charge: 0 | Potential Spins: [1, 3, 5]
Rh     -1.515500     2.933600     4.092500
P       0.721900     2.788600     3.496500
Cl     -1.515500     0.565400     4.092500
N       4.313500     1.988100     5.765500
O      -1.515500     5.894600     4.092500
C      -1.515500     4.733600     4.092500
C       1.756900     1.680400     4.534500
H       1.382000     0.787500     4.493600
H       2.644900     1.640500     4.144900
C       1.889800     2.074300     5.980000
C       0.767300     2.273700     6.769000
H      -0.076400     2.153100     6.397400
C       0.870800     2.642600     8.078600
H       0.105200     2.770300     8.591000
C       2.105800     2.823500     8.631900
H       2.179400     3.077100     9.524100
C       3.238800     2.635500     7.878900
H       4.073500     2.772100     8.263600
C       3.147000     2.241800     6.556200
C       4.750900     0.615400     5.909600
H       5.531800     0.470000     5.371000
H       4.051100     0.024800     5.624700
H       4.961700     0.441600     6.831200
C       5.385400     2.924600     5.981600
H       5.057000     3.818500     5.860500
H       6.089900     2.754300     5.351400
H       5.723200     2.823500     6.873800
C       1.707600     4.324600     3.380400
C       2.436700     4.628400     2.260700
H       2.451600     4.031300     1.548600
C       3.153100     5.815500     2.172300
H       3.624300     6.021200     1.398000
C       3.161500     6.675600     3.221600
H       3.660600     7.459600     3.172500
C       2.436800     6.397200     4.359300
H       2.440900     6.993100     5.073100
C       1.693400     5.216500     4.437900
H       1.189900     5.031600     5.197500
C       0.858400     2.110200     1.815600
C       1.763500     1.130500     1.443800
H       2.325500     0.741300     2.074100
C       1.818900     0.734200     0.090000
H       2.417700     0.072700    -0.171900
C       1.000500     1.310700    -0.833200
H       1.046700     1.037500    -1.720500
C       0.106900     2.289700    -0.469800
H      -0.437300     2.692200    -1.106600
C       0.032100     2.662100     0.849600
H      -0.593100     3.304100     1.103300
P      -3.752800     2.788600     4.688500
N      -7.344500     1.988100     2.419500
C      -4.787900     1.680400     3.650500
H      -4.413000     0.787500     3.691400
H      -5.675800     1.640500     4.040100
C      -4.920800     2.074300     2.205000
C      -3.798300     2.273700     1.416000
H      -2.954500     2.153100     1.787600
C      -3.901800     2.642600     0.106400
H      -3.136100     2.770300    -0.406000
C      -5.136800     2.823500    -0.446900
H      -5.210400     3.077100    -1.339100
C      -6.269800     2.635500     0.306100
H      -7.104400     2.772100    -0.078600
C      -6.178000     2.241800     1.628800
C      -7.781800     0.615400     2.275400
H      -8.562800     0.470000     2.814000
H      -7.082100     0.024800     2.560300
H      -7.992700     0.441600     1.353800
C      -8.416400     2.924600     2.203400
H      -8.088000     3.818500     2.324500
H      -9.120900     2.754300     2.833700
H      -8.754200     2.823500     1.311200
C      -4.738600     4.324600     4.804600
C      -5.467700     4.628400     5.924300
H      -5.482600     4.031300     6.636400
C      -6.184000     5.815500     6.012700
H      -6.655300     6.021200     6.787000
C      -6.192500     6.675600     4.963400
H      -6.691500     7.459600     5.012500
C      -5.467800     6.397200     3.825700
H      -5.471900     6.993100     3.111900
C      -4.724400     5.216500     3.747100
H      -4.220900     5.031600     2.987500
C      -3.889400     2.110200     6.369400
C      -4.794500     1.130500     6.741200
H      -5.356500     0.741300     6.110900
C      -4.849900     0.734200     8.095000
H      -5.448700     0.072700     8.356900
C      -4.031500     1.310700     9.018300
H      -4.077700     1.037500     9.905500
C      -3.137900     2.289700     8.654800
H      -2.593600     2.692200     9.291600
C      -3.063000     2.662100     7.335400
H      -2.437900     3.304100     7.081700
