92
Refcode: YEHPAE_comp_0 | Dataset: tmCAT | Charge: 0 | Potential Spins: [1, 3, 5]
V       8.948400     8.854200     5.335100
N       7.040500     7.868500     6.090900
O       8.063800    10.173600     5.275100
O       8.722200     7.636400     3.998000
O       9.521100     8.342700     6.996400
O      10.522400     9.442400     4.771200
C       7.634100     7.464100     3.187400
C       7.819000     7.342500     1.796000
C       6.648500     7.242900     1.036500
H       6.734800     7.174200     0.114600
C       5.366800     7.240900     1.567500
C       5.256200     7.270800     2.945800
H       4.410600     7.236000     3.329500
C       6.367300     7.351500     3.772100
C       9.204400     7.258900     1.165100
C       9.135900     7.102500    -0.353900
H       8.639000     6.309600    -0.572900
H      10.025700     7.030800    -0.707100
H       8.699000     7.867500    -0.736600
C      10.030400     8.526000     1.458200
H       9.541400     9.301000     1.172000
H      10.863900     8.481100     0.985400
H      10.201600     8.586700     2.399700
C       9.933400     6.035600     1.732500
H       9.998800     6.116300     2.687800
H      10.814200     5.983800     1.355400
H       9.442000     5.239700     1.512500
C       4.114400     7.181200     0.698300
C       3.245300     8.415400     0.946100
H       2.479500     8.389500     0.369900
H       3.756500     9.208300     0.766100
H       2.955500     8.423400     1.862800
C       3.301200     5.978800     1.050200
H       3.820700     5.185900     0.903600
H       2.514700     5.951900     0.500900
H       3.042500     6.025700     1.974100
C       4.425000     7.164200    -0.778800
H       4.888700     6.353400    -0.998500
H       4.977700     7.918300    -0.998500
H       3.607500     7.211100    -1.280100
C       6.190100     7.224000     5.234500
C       5.145700     6.440000     5.706200
H       4.609200     5.972900     5.107100
C       4.904200     6.353400     7.060300
H       4.213900     5.823400     7.389000
C       5.709700     7.070600     7.913800
H       5.544800     7.053700     8.829400
C       6.770200     7.821700     7.419100
C       8.989000     8.690300     8.187400
C       7.620900     8.560800     8.386500
C       7.044300     9.072800     9.557500
H       6.122200     9.022000     9.670800
C       7.813400     9.648600    10.548500
C       9.205900     9.613700    10.377000
H       9.740100     9.941500    11.065400
C       9.835100     9.118700     9.239300
C       7.204000    10.331000    11.782700
C       7.655900    11.797300    11.802700
H       8.612100    11.836100    11.883900
H       7.254300    12.246500    12.551700
H       7.386800    12.226600    10.986900
C       7.681300     9.627700    13.059200
H       8.641000     9.630700    13.085400
H       7.364000     8.721200    13.062500
H       7.337100    10.089900    13.828500
C       5.681100    10.294100    11.778500
H       5.348100    10.757300    12.551700
H       5.383300     9.381600    11.798800
H       5.352300    10.720500    10.983600
C      11.367700     9.044000     9.118800
C      11.787000     7.597600     8.807200
H      11.402000     7.325600     7.971700
H      11.476500     7.016800     9.503800
H      12.743200     7.546800     8.750900
C      11.865400     9.957400     7.994600
H      11.555200    10.852900     8.148500
H      11.528300     9.641600     7.153300
H      12.826000     9.949400     7.978300
C      12.063100     9.466300    10.414900
H      13.014300     9.414500    10.299400
H      11.795300     8.881600    11.127600
H      11.816000    10.368800    10.633300
C      11.090100    10.758300     4.596100
H      11.041900    11.231500     5.454200
C      10.322100    11.558200     3.571400
H      10.365100    11.113900     2.720500
H      10.706600    12.433800     3.496400
H       9.404800    11.632900     3.846700
C      12.534000    10.575000     4.239200
H      12.952200     9.998300     4.881200
H      12.975000    11.427700     4.239600
H      12.600400    10.181500     3.365500
