70
Refcode: YEJDAS_comp_0 | Dataset: tmCAT | Charge: unknown | Potential Spins: [1, 3, 5]
Pd      2.389500     2.073000    -2.555100
P       0.430000     2.709000    -3.647400
P       3.372400     0.806000    -4.200500
Si      1.096300     2.623200     0.405100
Si      4.013600     0.459000    -0.007000
F      -0.268800     2.985100    -0.288800
F       0.988100     1.061000     0.600600
O       1.633000     5.110800    -0.526600
O       3.638000     4.976400    -1.507600
O       5.625300     2.648100    -2.273700
O       5.545800     3.291100    -0.125000
C       1.572900     6.522500    -0.859500
C       2.718400     4.420500    -0.952800
C       2.561100     2.992600    -0.630500
C       3.688900     2.110700    -0.922900
C       5.021000     2.732600    -1.239900
C       6.849700     3.855800    -0.301200
C       1.002800     3.394300     2.092300
C      -0.135700     3.242600     2.865500
C      -0.239200     3.823300     4.123000
C       0.783700     4.564700     4.600200
C       1.906900     4.726400     3.867600
C       2.026800     4.135600     2.622400
C       2.934800    -0.916700    -0.602300
C       3.865600     0.695300     1.840400
C       5.784500    -0.034800    -0.290600
C       0.383000     2.860700    -5.468500
C      -0.246900     4.338400    -3.224700
C      -0.990600     1.616900    -3.473100
C       2.322200    -0.425400    -4.989500
C       4.853100    -0.204000    -3.879900
C       3.976400     1.827100    -5.553000
H       2.312000     6.972700    -0.496700
H       1.576600     6.614500    -1.815800
H       0.763100     6.890700    -0.523100
H       7.450400     3.196600    -0.588200
H       6.798400     4.557300    -0.951000
H       7.141400     4.230200     0.526600
H      -0.863800     2.736400     2.523800
H      -1.024000     3.700300     4.644300
H       0.719300     4.960300     5.461500
H       2.618000     5.256300     4.207500
H       2.828600     4.245100     2.125800
H       2.023600    -0.684100    -0.472000
H       3.095200    -1.068400    -1.525200
H       3.132400    -1.707700    -0.112700
H       4.086900    -0.116900     2.279000
H       4.464100     1.379400     2.117000
H       2.975200     0.942800     2.055300
H       5.968800    -0.825900     0.188400
H       5.930800    -0.160500    -1.211700
H       6.352000     0.669200     0.029900
H       0.916800     3.597100    -5.734500
H       0.716200     2.063500    -5.856000
H      -0.514700     3.000000    -5.745000
H      -0.298200     4.426700    -2.279000
H       0.312900     5.018700    -3.575200
H      -1.121200     4.424200    -3.594600
H      -1.199900     1.692800    -2.381100
H      -1.700000     1.862000    -3.839400
H      -0.712400     0.718900    -3.485400
H       1.488000    -0.032300    -5.214900
H       2.746200    -0.745000    -5.776700
H       2.178900    -1.150500    -4.390700
H       4.682400    -0.809700    -3.173700
H       5.083900    -0.686600    -4.667200
H       5.580500     0.366900    -3.642200
H       4.727900     2.333400    -5.257200
H       4.234300     1.274900    -6.280400
H       3.289400     2.421700    -5.834800
