54
Refcode: YEKPOW_comp_0 | Dataset: tmCAT | Charge: 0 | Potential Spins: [1, 3, 5]
Mo      2.426300     2.789100     1.472900
O       1.053800     3.900600     2.437400
C       0.442800     4.879400     1.785000
C      -0.496400     5.733700     2.521400
C      -1.074700     6.897600     1.915300
O      -0.839300     7.232800     0.622500
H      -0.236800     6.588000     0.245000
C      -1.872200     7.725600     2.665800
H      -2.262400     8.488400     2.256700
C      -2.125500     7.470900     4.031100
C      -2.858700     8.370800     4.846700
H      -3.210100     9.167400     4.467500
C      -3.067500     8.103600     6.175700
H      -3.553600     8.720600     6.708900
C      -2.565900     6.923200     6.757600
H      -2.720200     6.746800     7.678300
C      -1.859400     6.029900     6.002100
H      -1.535700     5.229500     6.399200
C      -1.602700     6.288900     4.625800
C      -0.790900     5.448100     3.836800
H      -0.435100     4.658000     4.226100
N       1.576200     4.224400    -0.003100
N       0.651300     5.120400     0.521800
O       3.029800     1.972400    -0.172300
O       3.771300     3.766000     1.832000
O       2.495600     1.484800     2.581000
C       3.233000     2.337500    -1.446500
C       4.032100     1.459100    -2.222000
H       4.422200     0.693900    -1.816200
C       4.242600     1.706600    -3.544100
H       4.756000     1.092400    -4.055300
C       3.712000     2.860900    -4.177500
C       2.931600     3.774300    -3.412900
C       2.666900     3.482600    -2.022100
C       1.796100     4.347200    -1.271600
H       1.356200     5.049600    -1.734900
C       3.975900     3.131000    -5.543300
H       4.479300     2.508200    -6.054100
C       3.519100     4.271500    -6.136400
H       3.704400     4.445100    -7.051700
C       2.770300     5.187400    -5.376400
H       2.464000     5.989000    -5.784300
C       2.472300     4.948800    -4.055600
H       1.952300     5.578000    -3.570000
O       0.465600     1.773800     0.753700
S      -0.651700     1.487600     1.759200
C      -2.084900     1.233200     0.745000
H      -2.263900     2.043200     0.223800
H      -2.857000     1.034100     1.314500
H      -1.925300     0.481500     0.136600
C      -0.395800    -0.201900     2.277900
H      -0.340800    -0.780900     1.488800
H      -1.144300    -0.488100     2.840900
H       0.438900    -0.264000     2.787900
