87
Refcode: YERYEC_comp_0 | Dataset: tmCAT | Charge: 1 | Potential Spins: [1, 3, 5]
C       8.191100    11.239800     1.633400
C       7.493500    12.415600     1.814100
H       7.641500    12.947600     2.587100
C       6.564600    12.814800     0.846300
H       6.093100    13.632400     0.958400
C       6.328400    12.043800    -0.256300
H       5.674800    12.316600    -0.890400
C       7.026000    10.881700    -0.458500
H       6.868300    10.359800    -1.235900
C       7.972100    10.465300     0.489700
C       8.837500     9.295500     0.374700
C       8.857000     8.404000    -0.691800
H       8.253800     8.517300    -1.416700
C       9.752900     7.352100    -0.696700
H       9.759500     6.738800    -1.421900
C      10.640500     7.189400     0.350000
H      11.247200     6.458400     0.342000
C      10.659000     8.083500     1.418100
H      11.285900     7.979400     2.123500
C       9.750700     9.120400     1.434500
C      13.069100    11.839500     6.538400
H      13.316200    10.891400     6.521800
H      12.504700    12.016100     7.320200
H      13.879900    12.387600     6.590800
C      11.932500    13.665800     5.289500
H      12.741100    14.201800     5.433500
H      11.296400    13.833900     6.015300
H      11.525200    13.914200     4.433500
C      12.301100    12.187500     5.268200
H      11.450700    11.661000     5.270200
C      13.092000    11.782000     4.044000
C      13.939500    12.696700     3.401500
H      13.929800    13.609000     3.666600
C      14.791300    12.289000     2.384300
H      15.330900    12.931000     1.939100
C      13.126400    10.442100     3.574000
C      14.029900    10.008000     2.606100
C      14.863500    10.974900     2.017900
H      15.487300    10.709300     1.352200
C      14.086200     8.385700     0.688500
H      13.305300     8.877900     0.358500
H      13.982700     7.433000     0.479100
H      14.895300     8.728500     0.255300
C      14.201500     8.565300     2.203600
H      13.477100     8.030400     2.638000
C      15.555900     8.032100     2.694900
H      16.279500     8.533300     2.264000
H      15.634900     7.082600     2.466500
H      15.616000     8.141100     3.666500
C       9.233500     8.302300     5.656000
C       8.960700     9.006000     6.847300
C       6.828600     7.842600     6.908100
H       6.003500     7.669000     7.344900
C       7.126500     7.202200     5.739800
H       6.490500     6.601800     5.367000
C       8.340900     7.403500     5.074300
C       7.733400     8.757500     7.468400
H       7.511400     9.208600     8.274500
C       9.956600     9.953100     7.498000
H      10.705600    10.105500     6.853000
C      10.537800     9.329400     8.758400
H       9.827900     9.215700     9.423700
H      11.234500     9.916200     9.120900
H      10.926300     8.456500     8.541600
C       9.333700    11.310100     7.830000
H       8.669100    11.199200     8.541400
H       8.897700    11.673800     7.030200
H      10.033600    11.926500     8.128800
C       8.628000     6.644300     3.805700
H       9.501300     6.969200     3.441400
C       8.751500     5.131300     4.063700
H       9.445900     4.969400     4.735100
H       8.991300     4.676900     3.228800
H       7.894300     4.785100     4.389000
C       7.547400     6.905600     2.754000
H       6.698300     6.519100     3.056600
H       7.810200     6.492100     1.905900
H       7.440000     7.871100     2.628700
C      11.684400     7.903800     5.649400
H      11.693200     7.202100     6.289400
C      12.753800     8.511800     5.103800
H      13.666300     8.316400     5.283700
C      10.916200     9.467300     4.214900
N      12.271300     9.483500     4.228000
N      10.558600     8.507700     5.084100
O       9.168100    11.935600     4.441600
Au      9.562600    10.451500     2.928400
