52
Refcode: YEXTIG_comp_0 | Dataset: tmCAT | Charge: unknown | Potential Spins: [1, 3, 5]
Ru      4.525300     1.540100     4.247200
Cl      4.599600     3.249800     5.945100
Cl      4.494600     3.269200     2.559700
P       2.262300     1.612800     4.432000
O       1.462800     2.947300     4.783300
O       1.562300     1.014000     3.136800
O       1.622500     0.666600     5.551300
C       5.613400     0.133200     5.585200
C       4.564900    -0.550100     4.947600
C       4.434700    -0.530500     3.526900
C       5.359800     0.169400     2.731600
C       6.477900     0.780200     3.393700
C       6.604800     0.778800     4.769200
C       5.731300     0.142600     7.091300
C       5.278900     0.198300     1.219000
C       6.231400    -0.870700     0.674900
C       3.872200     0.000700     0.674900
C       1.786200     4.261700     4.245600
C       1.137900     4.475900     2.909000
C       1.877700     0.982200     6.954400
C       1.531700    -0.208500     7.773800
C       0.117400     0.892400     3.040500
C      -0.223000     0.654300     1.603600
H       3.930100    -0.984400     5.452600
H       3.705200    -0.955400     3.170000
H       7.047600     1.230400     2.915200
H       7.314600     1.244900     5.153800
H       5.124800    -0.347400     7.485600
H       5.710100     1.085700     7.420600
H       6.591200    -0.123000     7.353800
H       5.606500     1.064000     0.917300
H       6.198400    -0.904700    -0.246000
H       7.173300    -0.832400     1.080700
H       5.951200    -1.766000     0.922500
H       3.270700     0.571800     0.948900
H       3.488300    -0.875800     0.843500
H       3.837700     0.079600    -0.279400
H       2.701700     4.350000     4.231300
H       1.453500     4.863900     4.951800
H       1.426900     3.850600     2.224600
H       1.360800     5.370500     2.530400
H       0.162100     4.494700     2.962600
H       1.251800     1.672000     7.257200
H       2.776100     1.230400     7.048100
H       1.655300    -0.043400     8.768400
H       2.053900    -1.013300     7.520800
H       0.529400    -0.209900     7.731600
H      -0.194100     0.144800     3.574100
H      -0.322700     1.737100     3.409000
H       0.122300     1.433100     1.089500
H      -1.128000     0.521100     1.447900
H       0.186900    -0.224400     1.288000
