125
Refcode: YEYBIO_comp_0 | Dataset: tmCAT | Charge: 0 | Potential Spins: [1, 3, 5]
Y       2.970900    -7.036100    -4.201800
O       4.800400    -5.869700    -5.133600
N       2.856700    -5.114000    -2.859100
N       1.338000    -7.433500    -2.409300
N       4.588000    -7.782300    -2.642200
N       3.933100    -9.219800    -4.917700
N       1.720700    -7.154500    -6.080000
H       1.935100    -7.918800    -6.418800
C       5.139700    -7.354000    -1.493300
H       4.864300    -6.593500    -1.032700
C       6.166500    -8.187100    -1.077600
H       6.694400    -8.086200    -0.319500
C       6.250200    -9.193700    -2.016300
H       6.841500    -9.912400    -2.009600
C       5.277700    -8.923000    -2.975400
C       4.907400    -9.618300    -4.153700
H       5.376600   -10.386200    -4.386900
C       3.690500   -10.049000    -6.083700
C       2.662100   -11.010100    -6.025800
C       2.485700   -11.826000    -7.146500
H       1.813200   -12.469600    -7.139400
C       3.282600   -11.701700    -8.258600
H       3.161500   -12.276400    -8.978200
C       4.256100   -10.733200    -8.314000
H       4.785300   -10.656900    -9.074700
C       4.461000    -9.860700    -7.235600
C       1.812100   -11.191000    -4.779600
H       1.759200   -10.321000    -4.331200
C       0.389800   -11.640200    -5.076000
H       0.401800   -12.537300    -5.415900
H      -0.001000   -11.054400    -5.727900
H      -0.130100   -11.610600    -4.268100
C       2.450000   -12.170500    -3.803000
H       3.346400   -11.890000    -3.606900
H       2.467700   -13.046700    -4.193800
H       1.937800   -12.192700    -2.990200
C       5.522500    -8.780300    -7.343700
H       5.407700    -8.169900    -6.586000
C       5.379000    -7.961900    -8.631600
H       4.506700    -7.562000    -8.662400
H       5.494100    -8.537800    -9.390500
H       6.047200    -7.272800    -8.647600
C       6.922800    -9.374600    -7.255300
H       7.045100   -10.010800    -7.964100
H       7.030500    -9.815200    -6.407700
H       7.573200    -8.674400    -7.336300
C       3.370600    -3.867700    -2.753300
H       3.967000    -3.497300    -3.361700
C       2.901300    -3.208100    -1.626600
H       3.109900    -2.343000    -1.359500
C       2.066300    -4.090500    -0.986200
H       1.604800    -3.939100    -0.193200
C       2.041000    -5.259500    -1.749600
C       1.319500    -6.454400    -1.575000
H       0.798200    -6.541800    -0.809800
C       0.537100    -8.595700    -2.085700
C       0.998200    -9.521100    -1.142600
C       0.193800   -10.632300    -0.878100
H       0.474900   -11.255000    -0.248900
C      -0.991800   -10.825500    -1.518500
H      -1.496600   -11.586000    -1.344700
C      -1.443300    -9.890300    -2.431600
H      -2.263300   -10.019500    -2.849100
C      -0.699700    -8.765500    -2.736200
C       2.283000    -9.331600    -0.349200
H       2.750200    -8.548900    -0.709500
C       3.216000   -10.527700    -0.451300
H       3.382700   -10.725800    -1.374400
H       2.810300   -11.288200    -0.029700
H       4.046600   -10.323400    -0.014900
C       1.962100    -9.055900     1.139600
H       1.564300    -9.836100     1.530400
H       1.350200    -8.317600     1.203500
H       2.771800    -8.840600     1.608400
C      -1.245000    -7.693600    -3.659200
H      -0.483900    -7.233400    -4.071200
C      -2.126200    -8.236300    -4.776600
H      -2.943300    -8.576000    -4.405500
H      -1.665100    -8.943900    -5.233900
H      -2.326900    -7.531200    -5.397300
C      -2.031300    -6.671000    -2.842800
H      -1.466900    -6.306800    -2.158200
H      -2.789600    -7.098000    -2.440500
H      -2.330800    -5.963400    -3.421100
C       0.579400    -6.668600    -6.730100
C       0.130900    -5.354300    -6.477100
C      -1.034100    -4.900200    -7.081900
H      -1.333100    -4.041300    -6.886800
C      -1.760900    -5.668100    -7.955500
H      -2.533500    -5.337100    -8.354100
C      -1.315000    -6.936800    -8.227100
H      -1.795200    -7.458600    -8.829600
C      -0.179600    -7.473400    -7.643500
C       0.905100    -4.399400    -5.596400
H       1.660800    -4.899000    -5.222700
C       0.101500    -3.857900    -4.429600
H      -0.220500    -4.588900    -3.896600
H      -0.642100    -3.350900    -4.762100
H       0.660800    -3.291800    -3.892900
C       1.486800    -3.245100    -6.414300
H       2.098900    -2.744200    -5.869000
H       0.775800    -2.670400    -6.708500
H       1.949600    -3.595800    -7.180300
C       0.248200    -8.893500    -7.994900
H       0.719800    -9.255300    -7.217400
C      -0.907600    -9.837300    -8.300600
H      -1.360800    -9.542000    -9.093300
H      -1.522200    -9.839800    -7.562900
H      -0.568500   -10.724600    -8.439500
C       1.232600    -8.893500    -9.157200
H       2.011800    -8.386500    -8.915000
H       0.818200    -8.496000    -9.925400
H       1.488000    -9.795500    -9.360800
C       6.126200    -5.777600    -4.515800
H       6.584100    -6.631600    -4.572700
H       6.046000    -5.530300    -3.580900
C       6.878500    -4.737800    -5.263200
H       7.814800    -4.977700    -5.349000
H       6.812400    -3.875100    -4.825200
C       6.206700    -4.713200    -6.600100
H       6.578100    -5.390000    -7.187700
H       6.301100    -3.844400    -7.020600
C       4.771000    -5.006000    -6.288100
H       4.289600    -4.187700    -6.091900
H       4.340100    -5.449100    -7.035400
