111
Refcode: YEYPEZ_comp_0 | Dataset: tmCAT | Charge: unknown | Potential Spins: [1, 3, 5]
Ni     -0.409300     3.039100     9.914300
O      -0.507800     2.078800     8.302400
N      -2.530800     4.516900     8.576000
N      -0.804600     5.766100     8.734400
C      -0.033600     3.849700    11.689400
C       0.785700     2.713000    11.465000
C       0.082300     1.577900    11.100800
C      -0.284200     0.319600    11.143900
C      -1.046500    -0.256700     9.931000
C      -0.120100    -0.228800     8.741900
C       0.123200     0.921800     8.080700
C       2.268600     2.834800    11.259800
C       0.043200    -0.575100    12.316700
C       1.071100    -0.005900    13.265900
C      -1.673500    -1.599100    10.250000
C      -2.830400    -1.627600    11.025800
C      -3.391200    -2.831100    11.431900
C      -2.824300    -4.018600    11.058600
C      -1.704000    -4.014100    10.272400
C      -1.125000    -2.813800     9.871900
C       1.122500     0.960700     6.963900
C       2.250700     0.140200     6.962100
C       3.171900     0.198600     5.929000
C       3.001200     1.067300     4.881700
C       1.894000     1.902500     4.875600
C       0.970200     1.856200     5.911400
C      -1.274100     4.535600     9.082500
C      -2.836000     5.699900     7.922000
C      -1.751900     6.484800     8.015700
C      -3.484900     3.464900     8.842300
C      -3.789300     2.556300     7.839100
C      -4.745000     1.582300     8.134400
C      -5.348900     1.527400     9.370700
C      -5.023100     2.430300    10.346900
C      -4.087900     3.437200    10.112600
C      -3.136200     2.606100     6.476100
C      -4.057700     3.287000     5.465500
C      -2.749100     1.218800     5.974400
C      -3.793900     4.473600    11.178300
C      -4.732700     5.665500    11.041300
C      -3.856200     3.917100    12.604700
C       0.395200     6.343600     9.276400
C       0.244700     7.211900    10.366200
C       1.401500     7.777900    10.883600
C       2.634700     7.464000    10.367800
C       2.754700     6.575100     9.310600
C       1.637000     6.000700     8.726600
C      -1.098000     7.505800    11.011300
C      -1.111500     7.205800    12.508800
C      -1.531200     8.944000    10.780500
C       1.762200     5.065100     7.539100
C       3.119200     4.375100     7.455800
C       1.480600     5.823300     6.246900
H       0.416300     4.730700    11.690700
H      -0.739300     3.761100    12.377300
H      -1.795700     0.374100     9.732500
H       0.297600    -1.031700     8.455500
H       2.729400     2.687500    12.112800
H       2.479300     3.730900    10.924000
H       2.563900     2.165700    10.608700
H      -0.790200    -0.753200    12.820800
H       0.375000    -1.441000    11.971200
H       0.734400     0.832100    13.646300
H       1.903400     0.167800    12.780700
H       1.240900    -0.647500    13.985600
H      -3.243000    -0.810300    11.282000
H      -4.173000    -2.830100    11.971200
H      -3.204400    -4.841500    11.343400
H      -1.319100    -4.838100     9.997000
H      -0.343100    -2.828400     9.331700
H       2.389200    -0.468000     7.678000
H       3.932500    -0.370700     5.946900
H       3.630900     1.097100     4.170300
H       1.766600     2.511300     4.156900
H       0.223100     2.444200     5.901500
H      -3.654400     5.913400     7.491000
H      -1.652700     7.359500     7.662000
H      -4.984000     0.946100     7.469700
H      -5.997600     0.855600     9.548100
H      -5.441100     2.368700    11.199200
H      -2.301400     3.152200     6.553300
H      -4.896000     2.784800     5.396500
H      -3.619700     3.311500     4.589700
H      -4.249000     4.202300     5.762500
H      -2.237600     1.303500     5.142700
H      -3.560200     0.694500     5.808000
H      -2.201500     0.768300     6.649500
H      -2.862400     4.804600    11.025500
H      -5.659200     5.364900    11.145700
H      -4.618600     6.071100    10.157300
H      -4.524000     6.326100    11.733500
H      -4.786300     3.717500    12.836800
H      -3.498500     4.581400    13.229500
H      -3.322300     3.096800    12.657800
H       1.339600     8.391200    11.605200
H       3.414100     7.861100    10.739700
H       3.618100     6.356300     8.981800
H      -1.776500     6.913300    10.579400
H      -2.020600     7.319200    12.855500
H      -0.506300     7.822500    12.970400
H      -0.816300     6.284200    12.660500
H      -0.870900     9.552100    11.175100
H      -2.403900     9.094100    11.201800
H      -1.597900     9.114200     9.818000
H       1.064200     4.355000     7.635300
H       3.331400     3.967500     8.321900
H       3.807700     5.034400     7.226600
H       3.090600     3.680600     6.764400
H       2.165300     6.512300     6.115200
H       0.598700     6.247300     6.302200
H       1.495800     5.198800     5.492700
