63
Refcode: YEZBEK_comp_0 | Dataset: tmCAT | Charge: 1 | Potential Spins: [1, 3, 5]
Ru      4.264200     1.663300     1.616000
Cl      5.015300     2.921400    -0.309900
N       5.540200     2.553800     2.984500
C       6.593400     3.334300     2.606700
C       7.589200     3.644700     3.455300
C       7.607100     3.107100     4.754500
C       8.699000     3.325900     5.626900
C       8.705400     2.771300     6.870100
C       7.671300     1.916500     7.258600
C       6.616500     1.667200     6.441000
C       6.526200     2.308300     5.176400
C       5.431300     2.126800     4.259800
N       3.700100     0.805400     3.367100
C       2.721500    -0.132300     3.462400
C       2.218400    -0.529200     4.661500
C       2.589800     0.156000     5.841500
C       1.968200    -0.084800     7.090600
C       2.256600     0.736100     8.164500
C       3.102700     1.824900     8.014300
C       3.752100     2.055600     6.848600
C       3.555800     1.178700     5.743700
C       4.215900     1.346600     4.492200
N       5.507200     0.097500     1.060800
C       6.726400    -0.196700     1.523200
C       7.458200    -1.253300     1.054800
C       6.916100    -2.033500     0.077500
C       5.665200    -1.784200    -0.413600
C       4.954200    -0.707200     0.112000
N       3.104600     0.728600     0.354000
C       3.599900    -0.340900    -0.311100
C       2.846400    -0.922600    -1.313500
C       1.646200    -0.369700    -1.652000
C       1.148700     0.753000    -1.002400
C       1.918500     1.282200     0.056000
N       2.575300     2.815200     1.766400
C       1.580000     2.430400     0.920100
C       0.337000     3.052800     0.930900
C       0.080900     4.024600     1.874800
C       1.084400     4.401100     2.731800
C       2.330100     3.780400     2.665100
H       6.618200     3.714200     1.656700
H       8.380200     4.240000     3.158500
H       9.503800     3.951700     5.339700
H       9.435300     3.001900     7.544700
H       7.733700     1.475500     8.164500
H       5.890200     1.017600     6.746100
H       2.359500    -0.559700     2.610200
H       1.554700    -1.356800     4.708000
H       1.276300    -0.865000     7.222900
H       1.852700     0.542700     9.082200
H       3.196800     2.476200     8.796200
H       4.413300     2.849300     6.769900
H       7.145400     0.390100     2.288400
H       8.405400    -1.492500     1.370700
H       7.455100    -2.815400    -0.298000
H       5.297200    -2.425300    -1.144200
H       3.153100    -1.746900    -1.835500
H       1.104400    -0.797100    -2.383800
H       0.240500     1.187200    -1.323000
H      -0.428800     2.730600     0.298000
H      -0.837200     4.511400     1.883200
H       0.880200     5.121900     3.444600
H       3.045100     4.087400     3.313500
