91
Refcode: YIBDUJ_comp_0 | Dataset: tmCAT | Charge: 0 | Potential Spins: [1, 3, 5]
Ru      4.757900     4.153200     1.509200
P       6.459900     2.794400     1.173300
P       4.107300     2.330100     0.470600
O       7.706300     3.159200     0.182500
O       7.330300     1.908100     2.226900
O       2.966500     1.354800     1.094300
O       3.748000     2.023100    -1.093600
N       5.582800     1.520200     0.504600
C       3.412700     5.897300     1.009200
H       2.634600     5.854500     0.416100
C       3.382500     5.688200     2.381300
H       2.586200     5.509400     2.921300
C       4.695400     5.925800     2.871700
H       4.965200     5.939100     3.813600
C       5.488100     6.260500     1.795300
H       6.428900     6.527600     1.848400
C       4.711800     6.242400     0.607300
H       5.004300     6.503900    -0.292100
C       5.985400     0.189200     0.062000
H       6.921600     0.061800     0.240800
H       5.825200     0.104600    -0.881700
H       5.477000    -0.472500     0.532900
C       7.747600     4.337200    -0.573600
C       7.223600     4.320100    -1.866100
C       7.307100     5.483800    -2.593700
H       6.964600     5.501800    -3.457700
C       7.880600     6.610400    -2.083800
H       7.899800     7.388000    -2.593700
C       8.427300     6.609400    -0.825000
H       8.824600     7.383300    -0.495700
C       8.394900     5.451400    -0.030100
C       6.664800     3.058500    -2.471600
H       6.683900     2.354900    -1.820000
H       7.194200     2.807500    -3.231100
H       5.757100     3.211500    -2.749500
C       9.044100     5.422900     1.329600
H       9.439700     6.278600     1.513800
H       9.725900     4.746900     1.343800
H       8.381400     5.224200     1.995300
C       8.556700     2.304500     2.788500
C       9.735700     1.836800     2.193600
C      10.926300     2.239900     2.761900
H      11.727400     1.956600     2.386600
C      10.951800     3.041400     3.861400
H      11.768900     3.330400     4.201300
C       9.781400     3.429200     4.474000
H       9.815400     3.952100     5.242400
C       8.557300     3.046100     3.957000
C       9.708600     0.907000     1.009200
H       8.800000     0.742500     0.752500
H      10.130700     0.077000     1.244600
H      10.179000     1.309100     0.276200
C       7.267700     3.410200     4.647500
H       6.528500     3.054700     4.151800
H       7.188400     4.365700     4.697100
H       7.264600     3.043300     5.534500
C       2.321200     1.575300     2.319300
C       1.198600     2.392000     2.345900
C       0.531700     2.517500     3.571000
H      -0.200100     3.086000     3.638300
C       0.942900     1.819700     4.656300
H       0.469900     1.892900     5.453100
C       2.042400     1.010600     4.594400
H       2.315200     0.554300     5.357500
C       2.763700     0.856600     3.408200
C       0.706100     3.114600     1.118900
H      -0.078000     3.620300     1.340200
H       0.492100     2.475700     0.435500
H       1.390000     3.708800     0.802000
C       3.959100    -0.045600     3.335600
H       4.107100    -0.453500     4.190700
H       4.732700     0.466800     3.089500
H       3.805400    -0.727300     2.677000
C       2.476000     2.061200    -1.687300
C       1.732700     0.877500    -1.759900
C       0.495200     0.942200    -2.395500
H      -0.033300     0.178700    -2.450300
C       0.047000     2.110600    -2.937200
H      -0.792400     2.140100    -3.335600
C       0.816100     3.240100    -2.901800
H       0.503100     4.024400    -3.291300
C       2.065900     3.224800    -2.285700
C       2.223900    -0.440200    -1.200400
H       3.084400    -0.315600    -0.796700
H       2.293800    -1.083800    -1.908600
H       1.605700    -0.757700    -0.538200
C       2.950500     4.442700    -2.344100
H       2.488100     5.152000    -2.799100
H       3.756900     4.229800    -2.818600
H       3.169200     4.723200    -1.451800
H       4.532000     3.146900     2.832800
