71
Refcode: YIDDUN_comp_0 | Dataset: tmCAT | Charge: unknown | Potential Spins: [1, 3, 5]
Ir      7.284000     7.228200    18.587600
Cl      5.550600     8.025600    17.093400
S       4.940600     8.286800    20.528200
F       6.621900     7.210000    22.845000
F       6.332900     7.740300    25.460100
F       4.504600     9.500700    26.314300
F       2.870200    10.738800    24.526800
O       4.664300     6.880100    20.444100
O       3.995200     9.205200    19.930200
N       8.188400     9.078000    18.105000
N       6.463000     8.535100    20.101400
C       6.927700     5.112800    18.250700
C       7.355700     5.264000    19.595900
C       8.634700     5.921500    19.610100
C       9.044300     6.084100    18.235200
C       7.989600     5.613400    17.374500
C       5.645500     4.501200    17.812900
C       6.661100     4.685600    20.793800
C       9.433900     6.223800    20.832800
C      10.364800     6.647600    17.779700
C       7.992000     5.577900    15.890000
C       4.839900     8.672600    22.293500
C       5.655900     8.063300    23.215400
C       5.538500     8.324400    24.568100
C       4.599600     9.228100    25.002600
C       3.790800     9.851200    24.077400
C       3.877800     9.580900    22.740600
C       8.213100     9.993200    19.290600
C       6.806400     9.974900    19.863200
C       8.693000    11.395100    18.939300
C       9.808300    11.915100    19.575900
C      10.241100    13.199000    19.298400
C       9.566400    13.988200    18.374800
C       8.459000    13.464700    17.730400
C       8.014300    12.179700    18.008000
C       6.747300    10.813200    21.139100
C       7.482600    10.465100    22.264500
C       7.395600    11.242800    23.421400
C       6.626700    12.372100    23.455300
C       5.915300    12.743200    22.317300
C       5.959300    11.960900    21.161300
H       9.125700     9.183400    17.881600
H       7.799600     9.732000    17.504400
H       4.987600     4.608900    18.503800
H       5.345300     4.941000    17.014400
H       5.771600     3.565500    17.636600
H       6.630700     3.728100    20.718400
H       7.141700     4.929600    21.588800
H       5.766000     5.030400    20.844100
H       9.964000     7.009500    20.679700
H       8.838300     6.379600    21.569400
H      10.010300     5.483900    21.037500
H      10.208300     7.429900    17.246500
H      10.898200     6.883600    18.542400
H      10.829500     5.991300    17.256200
H       8.713700     5.022400    15.583100
H       7.159300     5.220500    15.573500
H       8.108600     6.467800    15.550900
H       3.306200     9.992000    22.133600
H       8.826300     9.617500    19.954400
H       6.186800    10.345900    19.203300
H      10.269800    11.389400    20.189700
H      10.983600    13.541500    19.741600
H       9.861000    14.848300    18.181400
H       8.004800    13.987000    17.107900
H       7.267800    11.840600    17.568900
H       8.027100     9.711400    22.243200
H       7.879400    10.991900    24.174200
H       6.566000    12.877200    24.232200
H       5.407600    13.522000    22.333400
H       5.474600    12.210600    20.408900
