66
Refcode: YIMNOX_comp_0 | Dataset: tmCAT | Charge: 0 | Potential Spins: [1, 3, 5]
W       0.234400     1.318100     0.681400
O       2.966300     3.445700     3.419800
O      -1.479000     3.101700     4.306100
N       1.850400     2.423000     1.657600
N      -0.805500     1.809800     2.547300
C      -1.157100     0.321600     0.021400
O      -2.013900    -0.473000    -0.368600
C       1.188500     1.017100    -0.848500
O       1.726600     0.800200    -1.932800
C       0.975600    -0.379500     1.185400
O       1.467500    -1.381600     1.448500
C      -0.548000     2.868000    -0.144800
O      -1.190200     3.621400    -0.726800
C       3.324500     2.243500     1.378200
C       3.651300     3.088600     0.231400
C       3.451600     4.574900     0.323100
C       5.031300     2.802500    -0.508300
C       3.935300     2.456700     2.831900
C       5.297100     3.109100     3.019600
C       3.865900     1.273200     3.711200
C       1.777800     3.137200     2.804400
C      -2.035300     1.159200     3.004100
C      -1.693600    -0.192600     3.622100
C      -0.602500    -0.325300     4.487800
C      -2.849100    -1.065700     4.017200
C      -2.667500     2.301500     3.988900
C      -3.298100     1.764900     5.357700
C      -3.575400     2.995100     3.079600
C      -0.553000     2.826800     3.265600
C       0.566200     3.774700     3.447300
C       0.896300     4.171100     4.822900
C       0.122200     5.042300     2.549900
H       3.740500     1.318100     1.012200
H       2.872200     2.787600    -0.453400
H       2.502500     4.750700     0.808200
H       3.454900     5.055400    -0.643700
H       4.245600     4.982500     0.930800
H       5.141900     1.735000    -0.614500
H       5.841800     3.191400     0.090000
H       5.049500     3.266200    -1.484500
H       6.063000     2.454800     2.633000
H       5.477000     3.296100     4.067800
H       5.315300     4.043900     2.478700
H       4.544400     0.523500     3.333300
H       2.860700     0.876800     3.721500
H       4.154800     1.548000     4.714900
H      -2.804500     0.906800     2.289300
H      -1.277600    -0.581400     2.705000
H       0.219500     0.293500     4.161200
H      -0.282300    -1.355500     4.532300
H      -0.926000    -0.005600     5.467400
H      -3.661300    -0.962800     3.311000
H      -3.182500    -0.747800     4.994300
H      -2.538800    -2.097700     4.060100
H      -4.176300     1.172200     5.154600
H      -3.567200     2.604400     5.982600
H      -2.563500     1.159200     5.865100
H      -4.082200     3.800900     3.590400
H      -4.303400     2.297700     2.693000
H      -2.994400     3.398900     2.262700
H       0.039600     4.655300     5.268600
H       1.743100     4.840400     4.851200
H       1.129100     3.271800     5.373200
H       0.904600     5.788300     2.550700
H      -0.765900     5.451800     3.009300
H      -0.099000     4.756300     1.532500
