50
Refcode: YIRXUU_comp_0 | Dataset: tmCAT | Charge: unknown | Potential Spins: [1, 3, 5]
Cu      2.014600     9.808900     0.451700
Br      3.054500    11.765600    -0.736900
S       2.148300     9.540400     3.662300
S       0.799600     9.610600    -2.479600
N       4.175300     9.122400     2.274100
N       0.087500     7.917400    -0.786800
C       2.889600     9.460000     2.106900
C       4.639600     8.941800     3.588200
C       5.940400     8.668700     4.002100
H       6.638700     8.526700     3.374000
C       6.177700     8.613200     5.364800
H       7.058900     8.440800     5.676300
C       5.152800     8.803400     6.289800
H       5.348400     8.757100     7.218200
C       3.855800     9.059800     5.881900
H       3.156100     9.180200     6.511700
C       3.617700     9.134300     4.509800
C       5.037800     8.864100     1.105900
H       5.981300     9.050300     1.344000
H       4.782200     9.469200     0.366100
C       4.905300     7.449100     0.659600
H       4.037900     7.121300     0.458200
C       5.941600     6.616300     0.525600
H       6.803600     6.939100     0.761200
C       5.835200     5.212400     0.029000
H       4.897200     5.005900    -0.168100
H       6.167900     4.597400     0.715900
H       6.370500     5.112700    -0.785900
C       0.848600     9.022500    -0.861900
C      -0.541500     7.493300    -1.963500
C      -1.383300     6.388200    -2.121400
H      -1.594900     5.820600    -1.389200
C      -1.898600     6.151300    -3.386800
H      -2.466100     5.401700    -3.528500
C      -1.595700     6.999400    -4.458600
H      -1.965400     6.815500    -5.314500
C      -0.777800     8.089800    -4.301600
H      -0.577300     8.662900    -5.032900
C      -0.246700     8.331900    -3.030100
C      -0.084000     7.177900     0.490700
H      -1.044100     6.978900     0.622100
H       0.211100     7.753800     1.239900
C       0.689000     5.898700     0.528200
H       0.546100     5.263500    -0.163000
C       1.561600     5.611000     1.477100
H       1.745900     6.285600     2.120500
C       2.279800     4.312400     1.617900
H       1.953200     3.843400     2.414900
H       3.240700     4.480100     1.708400
H       2.116800     3.761700     0.825200
