73
Refcode: YISVOM_comp_0 | Dataset: tmCAT | Charge: 0 | Potential Spins: [1, 3, 5]
C       9.907800    10.964600     6.130000
H      10.877300    11.053100     6.240600
C       9.638000    10.896100     4.639700
C      10.137300    11.950300     3.846500
C       9.917800    11.936300     2.468300
H      10.258600    12.620000     1.939900
C       9.194100    10.909700     1.882300
H       9.029900    10.920300     0.967700
C       8.712400     9.860600     2.662100
H       8.238100     9.163200     2.268600
C       8.946800     9.861900     4.033800
H       8.633100     9.156600     4.552600
C      10.313000     8.739900     7.245600
H      11.234300     8.680600     7.130000
C       9.395000     6.518100     8.597100
H      10.117600     5.870200     8.460100
C       9.132100     6.957300    10.073800
H       9.160300     6.195700    10.675000
H       9.784500     7.614000    10.364700
C       7.704300     7.573000    10.015100
H       7.719600     8.504700    10.281800
H       7.096800     7.090000    10.596600
C       7.272100     7.431000     8.518300
C       8.213800     8.351600     7.786700
C       9.504400     7.808100     7.830400
C       7.962000     6.064700     8.143800
C       7.398200     4.871900     8.919800
H       7.441900     5.052600     9.860900
H       7.915000     4.087300     8.721200
H       6.484900     4.726300     8.664400
C       7.872600     5.731100     6.653200
H       8.219900     6.463100     6.139300
H       6.955400     5.579600     6.414200
H       8.385600     4.940600     6.471000
C       5.782300     7.571000     8.268100
H       5.306700     6.926200     8.796500
H       5.598700     7.420800     7.337300
H       5.499100     8.456300     8.510800
C       9.969000    13.196100     7.277300
H      10.864300    13.207400     7.529300
C       8.872000    15.670900     7.701300
H       9.485900    16.071300     8.351000
C       8.795800    16.366700     6.301900
H       8.756800    17.332100     6.392700
H       9.558300    16.129500     5.750700
C       7.477800    15.805400     5.706000
H       7.654100    15.305600     4.893600
H       6.859400    16.524400     5.503400
C       6.893400    14.870300     6.814000
C       7.882300    13.735200     6.855600
C       9.092300    14.224700     7.385800
C       7.350500    15.633000     8.110700
C       6.703000    17.019300     8.254700
H       6.855100    17.528500     7.455600
H       7.091300    17.477000     9.003800
H       5.758900    16.918300     8.395600
C       7.098500    14.837500     9.393400
H       7.498800    13.968300     9.314100
H       6.153100    14.742900     9.530700
H       7.485500    15.301600    10.138900
C       5.411500    14.539700     6.687600
H       4.902600    15.354000     6.673800
H       5.138200    14.004600     7.437100
H       5.260000    14.053800     5.875100
Cl      5.444500    11.363200     8.555300
Cl      5.485500    10.081600     5.067500
N       8.185600     9.547300     7.196300
N       9.504600     9.776200     6.862400
N       7.986100    12.479700     6.444800
N       9.300900    12.143600     6.732400
O      10.812600    12.922400     4.480000
Zn      6.683700    10.879700     6.769600
H      10.998000    13.596200     3.993500
