45
Refcode: YITVOM_comp_0 | Dataset: tmCAT | Charge: -4 | Potential Spins: [1, 3, 5]
I       6.846600     2.006500     9.770700
Ni      6.448000     0.000000     8.342000
C       7.695000     0.668200     7.074000
N       7.384200     1.408200     5.937800
C       8.537200     1.779100     5.290500
H       8.600300     2.337300     4.488000
C       9.549500     1.240000     5.956200
H      10.498600     1.304600     5.724300
N       9.018200     0.578200     7.029000
C       9.770000    -0.166400     7.996600
H      10.413500     0.428200     8.437100
H      10.251000    -0.892700     7.547800
H       9.161300    -0.541800     8.665700
C       6.049500     1.815500     5.559100
H       5.400800     1.281800     6.064600
H       5.918000     1.620000     4.608100
C       5.774800     3.240000     5.792700
H       6.448000     3.782800     5.328900
H       5.836700     3.432800     6.750300
C       4.400100     3.608200     5.292200
H       4.366600     3.498200     4.317800
H       4.208000     4.541000     5.522400
H       3.733400     3.024600     5.709300
I       6.049400    -2.006500     6.913300
C       5.201000    -0.668200     9.610000
N       5.511800    -1.408200    10.746200
C       4.358800    -1.779100    11.393500
H       4.295700    -2.337300    12.196000
C       3.346500    -1.240000    10.727800
H       2.397400    -1.304600    10.959700
N       3.877800    -0.578200     9.655000
C       3.126000     0.166400     8.687400
H       2.482500    -0.428200     8.246900
H       2.645000     0.892700     9.136200
H       3.734700     0.541800     8.018300
C       6.846500    -1.815500    11.124900
H       7.495200    -1.281800    10.619400
H       6.978000    -1.620000    12.075900
C       7.121200    -3.240000    10.891300
H       6.448000    -3.782800    11.355100
H       7.059300    -3.432800     9.933700
C       8.495900    -3.608200    11.391800
H       8.529400    -3.498200    12.366200
H       8.688000    -4.541000    11.161600
H       9.162600    -3.024600    10.974700
