57
Refcode: YIVHEQ_comp_0 | Dataset: tmCAT | Charge: -4 | Potential Spins: [1, 3, 5]
Ni     24.039100     6.869100    -0.000300
I      22.261300     8.312100     0.993100
C      24.536400     6.287100     1.742700
N      25.529900     6.780700     2.524900
C      26.437800     7.857000     2.107500
C      26.142000     9.113800     2.905700
C      27.884200     7.414000     2.230500
C      25.556800     6.138900     3.759900
C      24.568800     5.226300     3.740600
N      23.952700     5.328600     2.500700
C      22.890500     4.430900     2.023700
C      21.687800     4.478600     2.953500
C      23.443800     3.018700     1.873600
H      26.307800     8.059800     1.182700
H      26.708300     9.829400     2.617700
H      26.236000     8.967300     3.818400
H      25.223600     9.393000     2.723100
H      28.473600     8.115000     1.960400
H      28.048000     6.647300     1.686800
H      28.080800     7.187500     3.140800
H      26.166600     6.313400     4.475700
H      24.334900     4.628300     4.445600
H      22.598500     4.722000     1.162000
H      20.998500     3.900500     2.628500
H      21.337300     5.371800     2.990000
H      21.933100     4.208900     3.827300
H      22.763800     2.432800     1.559400
H      23.758700     2.705100     2.717700
H      24.169100     3.014200     1.254000
I      25.816700     5.425900    -0.993100
C      23.541600     7.451000    -1.742700
N      22.548100     6.957300    -2.524900
C      21.640200     5.881100    -2.107500
C      21.936000     4.624200    -2.905700
H      21.369700     3.908700    -2.617700
H      21.842000     4.770800    -3.818400
H      22.854400     4.345100    -2.723100
C      20.193800     6.324100    -2.230500
H      19.604400     5.623100    -1.960400
H      20.030000     7.090800    -1.686800
H      19.997200     6.550600    -3.140800
H      21.770200     5.678200    -1.182700
C      22.521200     7.599200    -3.759900
C      23.509200     8.511700    -3.740600
N      24.125300     8.409400    -2.500700
C      25.187500     9.307200    -2.023700
C      26.390200     9.259400    -2.953500
H      27.079500     9.837500    -2.628500
H      26.740700     8.366300    -2.990000
H      26.144900     9.529200    -3.827300
C      24.634200    10.719300    -1.873600
H      25.314200    11.305200    -1.559400
H      24.319300    11.032900    -2.717700
H      23.908900    10.723800    -1.254000
H      25.479500     9.016000    -1.162000
H      23.743100     9.109800    -4.445600
H      21.911400     7.424700    -4.475700
