107
Refcode: YIWBAI_comp_1 | Dataset: tmCAT | Charge: -4 | Potential Spins: [1, 3, 5]
Pd      8.625000     5.173700     5.542500
C       3.581500     4.276500     7.153600
H       3.010500     3.791800     7.737400
N       8.422600     7.563600     7.456500
C       9.840000     7.789500     7.532500
C      10.611600     7.113300     8.487800
C       4.669500     4.958300     7.690100
C       5.208200     5.687300     5.452300
H       5.772700     6.176800     4.864100
C       3.883300     5.444500    10.044400
H       3.795900     6.393900     9.816900
H       4.124500     5.356400    10.989700
H       3.031200     4.989500     9.881200
C      12.505800     8.448000     7.780800
H      13.422700     8.673900     7.877000
C      10.395500     8.764500     6.717100
H       9.854000     9.207500     6.074600
N       6.539900     6.513300     7.312100
C       5.157500     3.326300     9.536700
H       5.362200     3.243800    10.490900
H       5.893600     2.950600     9.009900
H       4.329800     2.838400     9.338000
C       4.976100     4.810000     9.178000
H       5.837500     5.282700     9.366900
C      11.738700     9.096900     6.833300
H      12.124400     9.758700     6.269700
C      11.953400     7.473800     8.590500
H      12.501000     7.039600     9.233800
C       6.200500     7.754200     8.038000
H       5.636500     7.566800     8.830400
H       5.733000     8.400000     7.451400
C       7.566200     8.263800     8.441700
H       7.632100     9.246800     8.349300
H       7.791100     8.005000     9.371300
C       4.136100     4.978300     4.939700
H       3.970400     4.969500     4.003900
C       7.814800     6.514900     6.857400
C       3.305600     4.282100     5.801300
H       2.552200     3.811000     5.464900
C      10.040300     6.007700     9.362200
H       9.079700     5.886000     9.109700
C      10.084500     6.409100    10.844100
H      11.015900     6.547700    11.118300
H       9.686100     5.696900    11.386600
H       9.580800     7.239100    10.972000
C       5.468400     5.692900     6.810400
C      10.753300     4.678700     9.127200
H      10.687500     4.435900     8.180800
H      10.332400     3.981700     9.672800
H      11.697000     4.764400     9.378000
C       9.296500     3.646000     4.280200
H      10.089500     3.224600     4.671200
H       9.524100     4.022500     3.405300
H       8.589700     2.976200     4.172400
C      13.668500     4.276500     3.931400
H      14.239500     3.791800     3.347700
N       8.827400     7.563600     3.628600
C       7.410000     7.789500     3.552500
C       6.638400     7.113300     2.597200
C      12.580500     4.958300     3.394900
C      12.041800     5.687300     5.632800
H      11.477300     6.176800     6.220900
C      13.366700     5.444500     1.040700
H      13.454100     6.393900     1.268100
H      13.125500     5.356400     0.095300
H      14.218800     4.989500     1.203800
C       4.744300     8.448000     3.304200
H       3.827300     8.673900     3.208000
C       6.854500     8.764500     4.368000
H       7.396000     9.207500     5.010400
N      10.710100     6.513300     3.772900
C      12.092500     3.326300     1.548400
H      11.887800     3.243800     0.594200
H      11.356400     2.950600     2.075100
H      12.920200     2.838400     1.747000
C      12.273900     4.810000     1.907100
H      11.412500     5.282700     1.718200
C       5.511400     9.096900     4.251800
H       5.125600     9.758700     4.815300
C       5.296600     7.473800     2.494600
H       4.749000     7.039600     1.851200
C      11.049500     7.754200     3.047100
H      11.613500     7.566800     2.254700
H      11.517000     8.400000     3.633700
C       9.683800     8.263800     2.643300
H       9.618000     9.246800     2.735800
H       9.459000     8.005000     1.713700
C      13.113900     4.978300     6.145300
H      13.279600     4.969500     7.081100
C       9.435200     6.514900     4.227600
C      13.944400     4.282100     5.283800
H      14.697800     3.811000     5.620100
C       7.209700     6.007700     1.722800
H       8.170300     5.886000     1.975400
C       7.165600     6.409100     0.241000
H       6.234100     6.547700    -0.033300
H       7.563900     5.696900    -0.301500
H       7.669200     7.239100     0.113100
C      11.781600     5.692900     4.274600
C       6.496700     4.678700     1.957800
H       6.562500     4.435900     2.904300
H       6.917600     3.981700     1.412200
H       5.553000     4.764400     1.707100
C       7.953500     3.646000     6.804900
H       7.160500     3.224600     6.413800
H       7.725900     4.022500     7.679700
H       8.660300     2.976200     6.912600
