71
Refcode: YOBZIZ_comp_0 | Dataset: tmCAT | Charge: 0 | Potential Spins: [1, 3, 5]
Ni      9.235700     6.372500     6.511500
P      10.344900     7.977800     7.530400
C      11.410500     6.975700     8.588200
C      12.091300     7.378400     9.730000
C      12.819000     6.487400    10.505000
C      13.557600     6.910500    11.749200
C      12.835700     5.156400    10.087200
C      12.174100     4.727000     8.957500
C      11.440900     5.622500     8.158800
N      10.688300     5.272700     7.043300
C      10.939100     4.083600     6.341900
C      12.200400     3.483800     6.205000
C      12.351300     2.333400     5.447900
C      11.280100     1.735900     4.781800
C      11.498000     0.518200     3.915800
C      10.045900     2.341600     4.894000
C       9.866100     3.501400     5.647100
P       8.365900     4.505900     5.730200
C       9.489600     9.158600     8.649400
C       8.467200     8.389400     9.479700
C       8.837700    10.316200     7.888400
C      11.441300     8.983300     6.440700
C      12.216000     8.047200     5.519200
C      12.371200     9.911700     7.200100
C       7.192700     3.683400     6.888000
C       6.853900     2.253400     6.488800
C       7.740900     3.761200     8.307500
C       7.615300     4.385500     4.053000
C       8.538100     5.055000     3.045500
C       6.202100     4.956900     3.992200
Cl      7.638900     7.656500     5.838300
H      12.047000     8.292400    10.000200
H      13.753900     7.722900    11.778100
H      14.335500     6.463600    11.941900
H      13.082100     6.764500    12.448200
H      13.272300     4.566900    10.609200
H      12.134800     3.825800     8.740500
H      12.926900     3.876000     6.585900
H      13.219100     1.956900     5.324700
H      12.097700    -0.089200     4.254100
H      11.826700     0.746700     3.089700
H      10.764400     0.011100     3.777600
H       9.341700     1.998200     4.437300
H      10.132000     9.550600     9.205100
H       7.774600     7.987000     8.904300
H       8.077700     8.970000    10.107400
H       8.874000     7.711800     9.940700
H       8.366600    10.887900     8.503800
H       9.483100    10.871200     7.406400
H       8.224600     9.985200     7.180000
H      10.863400     9.483700     5.923300
H      11.615300     7.433200     4.988200
H      12.763700     8.547600     4.845300
H      12.823500     7.522300     5.985800
H      12.850400    10.397500     6.614200
H      12.972500     9.451400     7.751800
H      11.879300    10.553600     7.744400
H       6.465100     4.240400     6.855400
H       6.217900     1.900100     7.095200
H       7.597200     1.736300     6.530800
H       6.506400     2.195400     5.610600
H       7.150000     3.387800     8.893900
H       8.518600     3.220700     8.348900
H       7.929700     4.636000     8.557400
H       7.592500     3.499300     3.853600
H       8.228300     4.970300     2.151600
H       9.382400     4.669400     3.065900
H       8.588400     5.973300     3.235600
H       5.819700     4.847700     3.091200
H       6.170600     5.906400     4.291300
H       5.621900     4.502300     4.559400
