97
Refcode: YOJYEC_comp_0 | Dataset: tmCAT | Charge: 0 | Potential Spins: [1, 3, 5]
Ti      5.440300    13.809500     4.717000
O       6.027400    13.054700     6.307600
O       6.673300    15.022100     4.124200
N       7.588900    12.441800     4.206200
C       7.503200    11.509600     3.031000
C       6.468500    10.404900     3.223800
C       8.816500    10.890900     2.573600
C       9.263700    11.142600     1.279600
C      10.382200    10.500600     0.773800
C      11.085100     9.599000     1.549300
C      10.658500     9.325800     2.843600
C       9.520400     9.953300     3.343200
C       7.897100    11.783200     5.486800
C       7.281200    12.553500     6.683000
C       8.178900    13.621400     7.288500
C       9.371400    13.230500     7.894900
C      10.211300    14.147800     8.492300
C       9.869700    15.495500     8.494400
C       8.679400    15.902200     7.909700
C       7.842700    14.968600     7.309100
C       8.547700    13.551000     3.952300
C       7.882900    14.813300     3.399300
C       7.554300    14.732200     1.911100
C       8.807800    16.004200     3.660400
H       7.213800    12.081400     2.307600
H       9.629200    15.858100     3.211300
H       8.954700    11.703200     5.658500
H       8.954700    13.791000     4.818900
H       7.474900    10.869100     5.511300
H       7.181100    11.858600     7.456600
H       6.735000     9.708600     3.864200
H       8.388900    16.807900     3.284900
H       7.224700    15.612900     1.550900
H       8.976400    16.096400     4.603800
H      11.098100     8.722600     3.409400
H      11.870600     9.199200     1.173600
H      10.630200    10.656700    -0.109400
H       9.204900     9.710400     4.256600
H       6.278000     9.997000     2.356600
H       7.072300    15.250300     6.945300
H       6.811200    14.060400     1.766000
H       8.388900    14.457600     1.364200
H       9.291900    13.260900     3.334000
H       8.791400    11.737700     0.679200
H       5.636100    10.677400     3.567900
H       8.432400    16.890800     7.937800
H       9.542200    12.305900     7.896300
H      11.087200    13.827300     8.990600
H      10.488800    16.174100     8.951000
O       4.853100    13.054700     3.126400
O       4.207200    15.022100     5.309800
N       3.291600    12.441800     5.227800
C       3.377300    11.509600     6.403000
C       4.412000    10.404900     6.210200
C       2.064000    10.890900     6.860400
C       1.616800    11.142600     8.154400
C       0.498300    10.500600     8.660200
C      -0.204600     9.599000     7.884700
C       0.222000     9.325800     6.590400
C       1.360100     9.953300     6.090800
C       2.983400    11.783200     3.947200
C       3.599300    12.553500     2.751000
C       2.701600    13.621400     2.145500
C       1.509100    13.230500     1.539100
C       0.669200    14.147800     0.941700
C       1.010800    15.495500     0.939600
C       2.201100    15.902200     1.524300
C       3.037800    14.968600     2.124900
C       2.332800    13.551000     5.481700
C       2.997600    14.813300     6.034700
C       3.326200    14.732200     7.522900
C       2.072700    16.004200     5.773600
H       3.666700    12.081400     7.126400
H       1.251300    15.858100     6.222700
H       1.925800    11.703200     3.775500
H       1.925800    13.791000     4.615100
H       3.405600    10.869100     3.922700
H       3.699400    11.858600     1.977400
H       4.145500     9.708600     5.569800
H       2.491600    16.807900     6.149100
H       3.655800    15.612900     7.883100
H       1.904100    16.096400     4.830200
H      -0.217600     8.722600     6.024600
H      -0.990100     9.199200     8.260400
H       0.250300    10.656700     9.543400
H       1.675600     9.710400     5.177400
H       4.602500     9.997000     7.077400
H       3.808200    15.250300     2.488700
H       4.069300    14.060400     7.668000
H       2.491600    14.457600     8.069800
H       1.588600    13.260900     6.100000
H       2.089100    11.737700     8.754800
H       5.244400    10.677400     5.866100
H       2.448100    16.890800     1.496200
H       1.338300    12.305900     1.537700
H      -0.206700    13.827300     0.443400
H       0.391700    16.174100     0.483000
