90
Refcode: YONFUE_comp_0 | Dataset: tmCAT | Charge: 1 | Potential Spins: [1, 3, 5]
Au     12.749000     1.351800     6.600800
P      13.727900    -0.654800     6.391400
N      11.673500     3.103300     6.703000
C      10.955400     3.962800     6.740400
C       9.992800     5.062700     6.754600
H       9.903900     5.430200     5.850800
H      10.308500     5.763700     7.363100
H       9.123600     4.730500     7.058900
C      15.448300    -0.704700     7.022800
C      16.135300     0.404000     7.528200
C      17.471300     0.239100     7.915000
H      17.953800     0.984100     8.251500
C      18.102700    -0.999200     7.817000
H      19.000800    -1.098600     8.109600
C      17.420200    -2.089000     7.288400
H      17.851500    -2.929600     7.191700
C      16.110800    -1.933000     6.909300
H      15.639500    -2.679200     6.558600
C      15.541700     1.778200     7.744800
C      15.603900     2.753500     6.749400
C      15.123700     4.049700     7.031800
H      15.130400     4.705300     6.343300
C      14.641300     4.395700     8.297900
C      14.614700     3.430500     9.264800
H      14.285600     3.658300    10.126100
C      15.054800     2.116700     9.036600
C      16.204200     2.467800     5.384100
H      16.359800     1.481200     5.320900
C      15.268300     2.863000     4.237900
H      14.383500     2.469100     4.387500
H      15.632800     2.534500     3.389500
H      15.188200     3.839500     4.203100
C      17.571400     3.161200     5.259000
H      17.453600     4.131500     5.328600
H      17.971500     2.942200     4.391300
H      18.162700     2.851600     5.978400
C      14.141100     5.829100     8.497700
H      13.398600     6.019100     7.855600
C      13.625400     6.020400     9.976500
H      12.829500     5.467900    10.117100
H      13.400800     6.961700    10.124800
H      14.327900     5.748600    10.604400
C      15.239400     6.852200     8.321100
H      15.933000     6.707500     8.996700
H      14.865900     7.753200     8.424200
H      15.628400     6.761600     7.426300
C      15.019300     1.122500    10.188000
H      15.128200     0.207600     9.799900
C      13.694300     1.142700    10.952500
H      13.665400     1.930400    11.535300
H      13.618700     0.331000    11.496600
H      12.949600     1.179200    10.315600
C      16.186400     1.359100    11.136900
H      17.028900     1.288600    10.641800
H      16.168600     0.687100    11.849900
H      16.110800     2.253900    11.528800
C      13.743200    -1.278600     4.662100
H      13.627600    -2.271500     4.698200
C      15.032600    -0.987900     3.864000
H      15.163800    -0.010100     3.789200
H      15.810700    -1.367900     4.342300
C      14.937000    -1.600700     2.474100
H      14.868100    -2.584800     2.554100
H      15.759600    -1.390600     1.966200
C      13.714300    -1.064600     1.707000
H      13.827700    -0.095600     1.538100
H      13.645400    -1.522700     0.832900
C      12.444900    -1.292400     2.493500
H      12.271500    -2.263900     2.560500
H      11.684600    -0.878400     2.013900
C      12.538300    -0.698400     3.900100
H      11.704600    -0.897300     4.397800
H      12.629400     0.285700     3.836900
C      12.865100    -1.964400     7.374700
H      13.383100    -2.812600     7.270300
C      12.847300    -1.607000     8.867700
H      12.391600    -0.737400     8.991500
H      13.778800    -1.511400     9.191300
C      12.129200    -2.683000     9.698000
H      12.660600    -3.517300     9.680000
H      12.069200    -2.381000    10.639200
C      10.744200    -2.968700     9.182300
H      10.172900    -2.172100     9.317700
H      10.353000    -3.719900     9.692900
C      10.775400    -3.324800     7.698400
H       9.848300    -3.460700     7.376000
H      11.268900    -4.174200     7.574600
C      11.444500    -2.223700     6.865500
H      11.477900    -2.499300     5.915300
H      10.913200    -1.391800     6.927400
