47
Refcode: YORWUY_comp_0 | Dataset: tmCAT | Charge: unknown | Potential Spins: [1, 3, 5]
Ni      2.005500    10.382400     0.543900
As      3.055000     8.382400     1.040800
Br      1.624100    11.068800     2.737800
C       2.119500    10.198300    -1.436300
H       2.962700     9.882400    -1.796500
H       1.341700     9.830400    -1.884300
C       2.056800    11.543000    -1.078200
C       0.959700    11.891900    -0.301400
H       0.084300    11.672000    -0.656200
H       0.994600    12.752700     0.146400
C       3.238300    12.481800    -1.235000
H       4.053200    11.975900    -1.217700
H       3.241000    13.115600    -0.515000
H       3.168500    12.948600    -2.072100
C       4.589400     8.647800     2.199300
C       5.229400     9.876400     2.163300
H       4.921100    10.544300     1.594900
C       6.329000    10.112400     2.978000
H       6.762700    10.934200     2.947000
C       6.774600     9.131600     3.827200
H       7.507600     9.292600     4.376600
C       6.143000     7.911900     3.872000
H       6.453900     7.251100     4.447300
C       5.047500     7.663000     3.061900
H       4.620400     6.837200     3.096900
C       3.788100     7.302100    -0.399800
C       5.128200     6.957200    -0.456400
H       5.710000     7.229100     0.215300
C       5.597700     6.202400    -1.522600
H       6.502400     5.990400    -1.569100
C       4.763300     5.770500    -2.492300
H       5.092300     5.257600    -3.195100
C       3.430400     6.088400    -2.444100
H       2.852100     5.787500    -3.107200
C       2.953100     6.861200    -1.398600
H       2.051400     7.087200    -1.372800
C       1.989000     7.061200     1.994200
C       1.134100     7.480100     2.974600
H       1.083500     8.386800     3.174400
C       0.344600     6.591300     3.677300
H      -0.219400     6.898200     4.350800
C       0.393100     5.282600     3.384500
H      -0.148700     4.685800     3.846100
C       1.221400     4.829700     2.421700
H       1.253000     3.921000     2.228800
C       2.031800     5.721500     1.715500
H       2.603700     5.404600     1.054100
