60
Refcode: YOZDUN_comp_0 | Dataset: tmCAT | Charge: 1 | Potential Spins: [1, 3, 5]
Ni      5.948900     5.807900    10.397000
P       5.580300     6.343600    12.466500
P       6.659300     5.828000     8.341100
O       5.830700     7.962400    12.588200
O       7.377400     7.291700     8.121900
N       5.246300     4.057700    10.437600
C       6.427600     8.460100    11.435200
C       6.582300     7.581600    10.354100
C       7.206700     8.119400     9.228000
C       6.748600     5.647700    13.682500
H       6.541600     6.030000    14.583000
C       6.591800     4.127400    13.745500
H       6.776200     3.743600    12.862300
H       5.676700     3.903600    14.015100
H       7.223300     3.760800    14.399400
C       8.172800     6.048200    13.292100
H       8.797800     5.746100    13.983100
H       8.226000     7.022700    13.206000
H       8.406400     5.632600    12.435400
C       3.871400     6.166400    13.078600
H       3.616800     5.202500    13.003200
C       3.694300     6.586600    14.537100
H       3.960200     7.523300    14.640600
H       4.253900     6.023100    15.110300
H       2.755100     6.482500    14.794300
C       2.961600     6.968300    12.136500
H       2.026600     6.854100    12.409700
H       3.076100     6.645900    11.218500
H       3.200700     7.917300    12.181300
C       7.993600     4.643200     7.941300
H       7.621400     3.719500     8.037600
C       9.119500     4.806300     8.971400
H       9.817300     4.139300     8.799700
H       8.758600     4.677800     9.873600
H       9.501600     5.704800     8.897900
C       8.513800     4.789200     6.511000
H       8.874900     5.691100     6.385300
H       7.779400     4.639900     5.879300
H       9.220700     4.129000     6.351100
C       5.443400     5.801000     6.983200
H       5.915000     6.042000     6.135500
C       4.841800     4.408500     6.815600
H       4.393000     4.144400     7.646900
H       5.553900     3.767700     6.611600
H       4.191000     4.419700     6.082100
C       4.359600     6.855300     7.246900
H       3.732600     6.874700     6.494100
H       4.777900     7.734900     7.348100
H       3.874700     6.627000     8.067500
C       4.823400     2.998700    10.448500
C       4.283200     1.648000    10.463000
H       4.188100     1.343600    11.389300
H       4.891400     1.047700     9.984600
H       3.406700     1.643000    10.025100
C       6.844200     9.779100    11.409400
H       6.718100    10.344800    12.162100
C       7.453700    10.254300    10.250400
H       7.746500    11.156800    10.213000
C       7.641600     9.429900     9.147100
H       8.057300     9.758100     8.357800
