63
Refcode: YOZKEF_comp_1 | Dataset: tmCAT | Charge: 1 | Potential Spins: [1, 3, 5]
C       7.717700    -3.104700     1.399800
C       6.643800    -2.238400     1.304500
H       6.060000    -2.292600     0.583800
C       6.445300    -1.282700     2.301800
H       5.706400    -0.719200     2.268300
C       7.355400    -1.177300     3.344200
C       8.429000    -2.075000     3.437900
H       9.020800    -2.022500     4.153900
C       8.603400    -3.043900     2.461000
H       9.309300    -3.647500     2.518800
C       6.046900     0.275200     6.781700
C       5.864000    -1.113300     6.827800
H       5.589000    -1.575000     6.069100
C       6.096400    -1.795500     8.016400
H       5.977500    -2.717600     8.055300
C       6.503900    -1.103300     9.141700
H       6.645200    -1.564400     9.936900
C       6.704400     0.269000     9.099700
H       6.990000     0.723100     9.860000
C       6.476200     0.961400     7.917800
H       6.609900     1.881500     7.883700
C       4.850800     2.166000     5.561800
C       3.992800     2.433100     6.616200
H       3.994300     1.894300     7.374800
C       3.125300     3.522100     6.522900
H       2.552900     3.732500     7.224900
C       3.131300     4.285000     5.367700
H       2.564600     5.017300     5.284100
C       3.990700     3.944800     4.339700
H       3.970600     4.447300     3.558200
C       5.765800     1.025500     5.540900
C       7.007900     4.140700     2.368500
C       8.006900     3.182800     2.770200
C       7.990000     2.109000     1.794900
C       6.945400     2.360800     0.874600
C       6.312500     3.623000     1.241200
C       6.558300     1.514900    -0.302200
H       6.961800     1.870300    -1.098600
H       5.603100     1.517800    -0.398400
H       6.863200     0.615500    -0.163700
C       9.010300     1.021500     1.738500
H       8.649800     0.268800     1.264300
H       9.244000     0.755400     2.631200
H       9.793400     1.340900     1.284000
C       9.010600     3.355600     3.870800
H       9.789800     3.796900     3.526600
H       9.257100     2.495300     4.217000
H       8.626400     3.884900     4.574000
C       6.753900     5.459500     3.018000
H       7.340100     6.120300     2.641000
H       6.915500     5.386900     3.962500
H       5.842000     5.719000     2.867900
C       5.222000     4.311700     0.456400
H       4.462300     4.456500     1.023700
H       4.966100     3.760100    -0.286000
H       5.544800     5.154800     0.132200
Cl      3.990100     1.278800     2.120900
Cl      7.946500    -4.317800     0.156000
N       7.310900    -0.170200     4.325700
H       7.592100    -0.400200     5.073000
N       6.302700     0.770600     4.368900
N       4.853100     2.919900     4.423700
Ir      6.057800     2.249600     2.865100
