49
Refcode: YOZNIL_comp_0 | Dataset: tmCAT | Charge: 1 | Potential Spins: [1, 3, 5]
Au      2.184200     0.503900     5.766300
N       3.557800     3.150400     5.915400
N       3.907100     1.963300     7.715800
N       0.970200    -0.995300     5.051200
C       3.299800     1.962100     6.517000
C       4.343700     3.934300     6.766600
C       4.869900     5.214300     6.607500
C       5.613600     5.709600     7.670000
C       5.822300     4.955800     8.835000
C       5.294700     3.687600     8.989800
C       4.551500     3.187300     7.918500
C       3.115600     3.539500     4.575000
C       4.176600     3.276700     3.531000
C       3.908500     0.824900     8.649800
C       2.615800     0.699300     9.426800
H       2.669600    -0.054900    10.018500
H       1.885500     0.574400     8.816500
H       2.471700     1.498500     9.940100
C       0.620800    -1.061200     3.741300
C      -0.120400    -2.100700     3.234500
C      -0.556200    -3.141400     4.067100
C      -0.221800    -3.021500     5.426100
C       0.519000    -1.963300     5.875100
C      -1.319600    -4.287700     3.552800
C      -1.937500    -4.222600     2.296200
C      -2.673500    -5.303200     1.800400
C      -2.808700    -6.450300     2.564300
C      -2.188800    -6.537000     3.802300
C      -1.453200    -5.465300     4.292700
H       4.698100     5.674400     5.960100
H       5.948500     6.488600     7.563200
H       6.381300     5.284800     9.539000
H       5.387200     3.236800     9.656700
H       2.826500     4.503000     4.596800
H       2.266100     3.131900     4.482400
H       3.869800     3.509000     2.726700
H       4.959900     3.808700     3.815400
H       4.335300     2.390100     3.489500
H       4.024300     0.010000     8.132100
H       4.666300     0.971500     9.314500
H       0.972400    -0.372100     3.171300
H      -0.369200    -1.980500     2.312600
H      -0.489700    -3.603900     6.076700
H       0.778700    -1.830700     6.887500
H      -1.967700    -3.436600     1.793800
H      -3.054300    -5.179900     1.025500
H      -3.275700    -7.150400     2.251500
H      -2.252000    -7.280300     4.349400
H      -1.149000    -5.542000     5.045800
