138
Refcode: YUTQAG_comp_0 | Dataset: tmCAT | Charge: 0 | Potential Spins: [1, 3, 5]
Pd      2.057100     0.117400     6.240000
Cl      2.513300    -1.898600     5.276900
Cl      1.593400     2.171100     7.133500
C       2.066400     2.488000     1.507000
H       1.927200     3.423400     1.211100
H       1.212600     2.150000     1.873800
O       3.076300     2.453100     2.529000
C       2.784500     1.607000     3.618200
H       2.482100     0.723900     3.286300
H       2.056200     1.999500     4.162800
C       4.010100     1.441300     4.453800
N       3.861400     0.804600     5.651200
C       4.918900     0.604000     6.455600
C       6.189300     1.016100     6.056500
H       6.940900     0.863500     6.617300
C       6.343200     1.652800     4.828100
H       7.204100     1.931900     4.543300
C       5.261700     1.873000     4.039800
H       5.360700     2.320100     3.206700
C       4.666500    -0.146100     7.736300
H       4.055200     0.379400     8.309500
H       4.228700    -1.009600     7.529900
O       5.882800    -0.390300     8.442600
C       6.077900     0.412100     9.611400
H       5.217500     0.545100    10.080100
H       6.437800     1.299600     9.357700
C       7.047900    -0.296500    10.509100
C       8.375600     0.091600    10.635900
C       9.242200    -0.636700    11.461500
H      10.153900    -0.383800    11.553500
C       8.743500    -1.729100    12.139200
H       9.330700    -2.230700    12.693700
C       7.452700    -2.110700    12.044700
H       7.132100    -2.860800    12.530800
C       6.609500    -1.386800    11.221500
O       5.282900    -1.698600    11.041200
C       4.725700    -2.775800    11.789800
H       4.872300    -2.631900    12.758400
H       5.156800    -3.628400    11.531100
C       3.261900    -2.823700    11.491300
H       2.864200    -1.938500    11.684100
H       2.833200    -3.486600    12.088200
C       2.973300    -3.194400    10.052800
H       3.162600    -2.396400     9.495700
H       3.623300    -3.892200     9.787900
C       1.604300    -3.687200     9.686000
H       1.511400    -4.524500    10.208200
H       0.996900    -3.037400    10.128600
C       0.919900    -3.990300     8.391600
H       0.051700    -4.456900     8.481100
H       0.865700    -3.229300     7.762400
C       2.096600    -4.893000     8.185200
H       2.924600    -4.398100     7.956400
H       2.259200    -5.494900     8.953600
C       1.502400    -5.603900     7.012700
H       1.428300    -6.558900     7.257600
H       2.167300    -5.551600     6.276600
C       0.180600    -5.202700     6.422100
H       0.127800    -4.217100     6.484200
H      -0.518300    -5.564600     7.023900
C      -0.222000    -5.573400     5.014600
H       0.591300    -5.457800     4.461300
H      -0.406800    -6.545900     5.033200
C      -1.345100    -4.956300     4.231200
H      -2.186500    -5.034800     4.746000
H      -1.459300    -5.449100     3.379500
C      -1.071300    -3.469200     3.926600
H      -1.937400    -2.998200     3.844500
H      -0.587700    -3.072300     4.693800
C      -0.276300    -3.222800     2.683200
H      -0.790300    -3.554200     1.903600
H       0.566000    -3.741700     2.731700
C       0.055600    -1.761800     2.471800
H      -0.780600    -1.256000     2.315200
H       0.479400    -1.402100     3.291200
C       0.987500    -1.554700     1.299300
H       1.797100    -2.112900     1.402500
H       0.536100    -1.805500     0.455100
O       1.347000    -0.154400     1.274500
C       2.146000     0.290000     0.264800
C       2.480200     1.639700     0.327000
C       3.239600     2.180500    -0.711200
C       3.693000     1.406400    -1.773100
H       4.201800     1.788000    -2.479300
C       3.383500     0.067600    -1.765600
H       3.709600    -0.479700    -2.470600
C       2.617200    -0.516800    -0.778400
H       2.414900    -1.443500    -0.804500
O       8.722200     1.199300     9.938400
C      10.118100     1.574300     9.911000
H      10.650300     0.865700     9.467100
H      10.457600     1.687700    10.833600
C      10.244300     2.823700     9.177400
H      11.201500     3.070100     9.117700
H       9.776800     3.541100     9.677300
C       9.678100     2.743100     7.808400
H       8.694100     2.651500     7.880600
H      10.021600     1.921000     7.375800
C       9.988200     3.920500     6.914500
H       9.734000     4.753500     7.384500
H      10.964700     3.951100     6.754100
C       9.313600     3.879100     5.649900
H       8.339300     3.953200     5.809100
H       9.482500     2.998200     5.230900
C       9.719500     4.934500     4.707400
H       9.535500     5.811000     5.127700
H      10.697400     4.871200     4.573200
C       9.106600     4.910500     3.462800
H       8.953200     3.972900     3.189300
H       9.704700     5.331300     2.793900
C       7.804200     5.641000     3.492700
H       7.936300     6.517500     3.932800
H       7.159300     5.124200     4.034800
C       7.225800     5.863400     2.128700
H       7.361200     5.060900     1.565400
H       7.673700     6.633100     1.691000
C       5.761000     6.142500     2.289100
H       5.630400     7.121500     2.336300
H       5.460100     5.758700     3.150700
C       4.887500     5.595200     1.193600
H       4.923800     4.605200     1.228500
H       3.952300     5.863400     1.375200
C       5.240400     6.026900    -0.180300
H       6.130000     5.651900    -0.396600
H       5.333000     7.012500    -0.174100
C       4.292300     5.654000    -1.304300
H       4.566900     6.151200    -2.115000
H       3.385100     5.968000    -1.059400
C       4.200200     4.177800    -1.661200
H       3.723000     4.064500    -2.521600
H       5.107600     3.791900    -1.753200
O       3.484100     3.512800    -0.603000
N       0.298200    -0.595300     6.902000
C      -0.640400    -1.042300     7.358300
C      -1.847500    -1.617900     7.941500
H      -2.444100    -1.921000     7.225300
H      -2.303800    -0.937600     8.481100
H      -1.606200    -2.378900     8.509700
