129
Refcode: YUXREP_comp_0 | Dataset: tmCAT | Charge: unknown | Potential Spins: [1, 3, 5]
Hf      4.543600     0.638100    16.415000
O       4.920100    -1.218300    16.920100
O       6.395500     0.794400    17.914700
O       5.019800     2.468100    15.874800
O       6.567600     0.446600    15.019500
C       7.650800     1.534200    17.730700
H       7.877200     2.013500    18.567700
H       7.535000     2.208100    17.013900
C       8.773800     0.597800    17.366300
H       8.660100    -0.252000    17.860200
H       9.634000     0.998000    17.647600
C       8.826900     0.301900    15.872400
H       8.947000     1.167700    15.408000
H       9.647800    -0.227000    15.709600
C       7.740000    -0.387000    15.219200
H       7.484200    -1.172600    15.763900
H       8.052100    -0.716100    14.338100
C       5.771000    -2.183100    17.327700
C       6.397800    -2.100800    18.578100
C       7.257900    -3.137700    18.965500
H       7.679700    -3.081300    19.815500
C       7.520800    -4.243000    18.167500
C       6.902300    -4.278700    16.921900
H       7.079800    -5.012500    16.345500
C       6.030700    -3.274900    16.482200
C       8.369300    -5.410700    18.682300
C       7.502400    -6.197600    19.676600
H       8.070500    -6.801400    20.199600
H       6.833900    -6.721500    19.186200
H       7.048700    -5.573800    20.282100
C       8.817900    -6.314800    17.604200
H       9.437300    -5.838300    17.013900
H       8.042000    -6.619200    17.087700
H       9.271900    -7.090800    17.994800
C       9.557800    -4.930400    19.455300
H      10.103400    -4.348800    18.886700
H      10.091400    -5.698600    19.743900
H       9.255200    -4.428600    20.240900
C       6.166600     0.364500    19.243500
C       6.140300    -0.997300    19.549300
C       5.905600    -1.323800    20.890000
H       5.878800    -2.240500    21.139300
C       5.711200    -0.357300    21.868700
H       5.560300    -0.611300    22.771300
C       5.739100     0.980800    21.513900
H       5.611100     1.649200    22.176600
C       5.950700     1.345300    20.202900
H       5.948700     2.263000    19.956600
C       5.400900    -3.406400    15.143900
C       6.181000    -3.769700    14.049700
H       7.114000    -3.914700    14.162300
C       5.605400    -3.922100    12.790400
H       6.147900    -4.159200    12.048600
C       4.261100    -3.731800    12.618900
H       3.873900    -3.834800    11.757800
C       3.463500    -3.390000    13.702900
H       2.528000    -3.270900    13.585100
C       4.028200    -3.220800    14.953300
H       3.478600    -2.976500    15.690100
C       5.884000     3.413900    15.450500
C       6.541200     3.281400    14.222200
C       7.402600     4.295400    13.789100
H       7.837600     4.196600    12.949200
C       7.649300     5.441100    14.533600
C       7.004200     5.527200    15.776500
H       7.163000     6.292400    16.315100
C       6.141200     4.545100    16.259100
C       8.519000     6.595300    14.018900
C       9.545900     7.014700    15.069400
H       9.086100     7.245500    15.902800
H      10.045500     7.794400    14.743900
H      10.167700     6.274900    15.232200
C       9.265700     6.232300    12.736500
H       8.619900     6.013000    12.033400
H       9.842600     5.456600    12.903600
H       9.815800     6.993500    12.452300
C       7.615700     7.787600    13.712400
H       7.148500     8.061300    14.529100
H       6.958200     7.532400    13.031700
H       8.158000     8.532900    13.381100
C       6.285700     0.795400    13.687900
C       6.278700     2.139700    13.299300
C       6.001600     2.402200    11.952700
H       5.988300     3.303400    11.653600
C       5.743800     1.389200    11.042100
H       5.574300     1.599300    10.130200
C       5.735200     0.073100    11.462700
H       5.546800    -0.623700    10.846300
C       5.999900    -0.221100    12.782300
H       5.988300    -1.125200    13.075100
C       5.535700     4.686100    17.613700
C       6.338600     5.037700    18.693300
H       7.269000     5.172100    18.556800
C       5.811100     5.194600    19.962000
H       6.378800     5.431600    20.685800
C       4.477800     5.009700    20.175100
H       4.115500     5.119700    21.046000
C       3.653400     4.661900    19.122800
H       2.723200     4.533400    19.270800
C       4.179400     4.501700    17.849400
H       3.606300     4.264000    17.131100
C       3.027100     0.120500    14.828800
H       3.511000    -0.331800    14.092900
H       2.406900    -0.546400    15.219200
C       2.194100     1.200600    14.217000
C       2.675200     1.960800    13.179500
H       3.552900     1.788900    12.855900
C       1.933400     2.964100    12.589000
H       2.294500     3.443100    11.851100
C       0.704400     3.272400    13.044700
H       0.194200     3.957100    12.625900
C       0.200700     2.597300    14.108100
H      -0.652400     2.829300    14.453100
C       0.935800     1.558100    14.698300
H       0.568700     1.090300    15.438400
C       3.015100     1.152900    17.959600
H       3.471800     1.666700    18.671900
H       2.358300     1.761500    17.539100
C       2.245900     0.040700    18.619800
C       2.605200    -0.434900    19.875900
H       3.327400    -0.022500    20.336400
C       1.940400    -1.493000    20.473700
H       2.216500    -1.798900    21.330300
C       0.884100    -2.106500    19.839400
H       0.434800    -2.836800    20.247400
C       0.492300    -1.647400    18.608900
H      -0.245800    -2.050900    18.168400
C       1.171400    -0.588100    17.999800
H       0.892100    -0.289400    17.141900
