213
Refcode: YUZNIR_comp_0 | Dataset: tmCAT | Charge: 0 | Potential Spins: [1, 3, 5]
N      -5.588400     8.469200    23.549000
C      -3.483700     7.574900    24.409600
H      -3.574500     7.939400    25.326200
H      -2.903300     6.773200    24.446000
C      -4.840600     7.215000    23.852700
H      -4.734000     6.677700    23.026500
H      -5.343400     6.674900    24.514200
C      -5.899800     8.281500    21.128400
H      -5.321700     7.485800    21.014300
H      -6.568500     8.294600    20.397900
C      -6.587400     8.239900    22.469700
H      -7.287200     8.938700    22.507900
H      -7.021300     7.359500    22.596800
C      -6.389100    10.536700    24.590100
H      -7.088500    10.719900    23.912600
H      -6.658900    10.960400    25.441800
C      -6.216700     9.036500    24.777900
H      -5.642900     8.859100    25.563300
H      -7.097700     8.612500    24.935000
Cl     -2.604400    11.571500    22.010900
Mo     -4.146400     9.955800    22.793100
N      -2.894500     8.596700    23.502200
C      -1.487000     8.646900    23.520200
C      -0.777700     8.523600    24.732000
H      -1.252400     8.434600    25.551400
C       0.596700     8.534100    24.734400
N       1.331100     8.425900    25.970500
C       1.941400     7.261300    26.415600
C       1.623200     5.923200    25.792100
H       1.656700     6.032200    24.798700
C       0.205700     5.448500    26.169900
H       0.181900     5.219500    27.122100
H      -0.026400     4.658400    25.637400
H      -0.436900     6.164300    25.990000
C       2.667800     4.880900    26.183500
H       3.556700     5.190900    25.913000
H       2.466500     4.032800    25.735200
H       2.651200     4.749700    27.154700
C       2.756000     7.611100    27.459900
H       3.292300     7.017700    27.972600
C       2.657800     9.023500    27.646600
H       3.121100     9.535200    28.298600
C       1.777700     9.508600    26.713700
C       1.255500    10.901200    26.466000
H       1.204900    11.036600    25.477300
C      -0.149000    11.110400    27.042700
H      -0.768500    10.469700    26.633100
H      -0.448800    12.023300    26.849400
H      -0.128800    10.971300    28.011100
C       2.198000    11.957900    27.036700
H       2.279000    11.834900    28.005200
H       1.840500    12.850100    26.849400
H       3.082300    11.865300    26.621300
C       1.316400     8.622900    23.549900
H       2.265400     8.615600    23.557000
C       0.615100     8.725500    22.344900
N       1.361700     8.738500    21.113000
C       1.609900     7.620600    20.319900
C       1.183900     6.230700    20.727400
H       0.317000     6.310200    21.218800
C       0.943500     5.347500    19.498400
H       0.329200     5.803200    18.883500
H       0.551200     4.495600    19.781500
H       1.795000     5.181700    19.043500
C       2.192800     5.556100    21.663600
H       3.058800     5.478800    21.209900
H       1.869400     4.662200    21.903300
H       2.296700     6.094600    22.475300
C       2.317400     8.051600    19.232900
H       2.626000     7.506200    18.519000
C       2.512400     9.440000    19.354100
H       2.976300     9.992600    18.735300
C       1.919100     9.860200    20.518200
C       1.726100    11.245600    21.074400
H       1.362600    11.161000    22.001100
C       3.054800    12.009800    21.149400
H       3.686300    11.514300    21.710700
H       2.899200    12.896700    21.535900
H       3.427100    12.107100    20.246700
C       0.695100    12.008300    20.224500
H       1.011000    12.060600    19.298400
H       0.582100    12.912500    20.581600
H      -0.162900    11.536400    20.249700
C      -0.759900     8.768600    22.327700
H      -1.218000     8.880800    21.503300
N      -5.088200     9.515600    21.105000
C      -4.901400    10.068900    19.808100
C      -4.668100     9.227900    18.715200
H      -4.663000     8.284900    18.836100
C      -4.445000     9.767400    17.454500
N      -4.101000     8.880900    16.374600
C      -4.953700     7.950500    15.787800
C      -6.428800     7.897000    16.088900
H      -6.540800     7.800400    17.078700
C      -7.076200     6.686400    15.417700
H      -6.991100     6.768200    14.444200
H      -8.024200     6.646000    15.659200
H      -6.626900     5.868100    15.715500
C      -7.160600     9.179600    15.649100
H      -6.783300     9.950300    16.124500
H      -8.114200     9.101400    15.860700
H      -7.049200     9.303600    14.684200
C      -4.193900     7.224100    14.912400
H      -4.508400     6.517500    14.361200
C      -2.868800     7.700100    14.966300
H      -2.139500     7.367200    14.456000
C      -2.808700     8.724100    15.878200
C      -1.652500     9.551700    16.348200
H      -1.971400    10.496200    16.432700
C      -0.511100     9.536800    15.327000
H      -0.127000     8.636100    15.279900
H       0.180800    10.174000    15.602900
H      -0.858200     9.792000    14.447100
C      -1.128600     9.111500    17.720900
H      -1.852600     9.164800    18.379700
H      -0.394700     9.700500    17.994500
H      -0.803300     8.188700    17.665500
C      -4.504800    11.138700    17.252700
H      -4.354600    11.505300    16.388200
C      -4.789200    11.971600    18.329600
N      -4.911500    13.383200    18.114500
C      -6.094700    14.044100    17.784600
C      -7.369400    13.315600    17.461900
H      -7.391000    12.466000    17.988500
C      -7.430700    12.964500    15.969500
H      -7.474400    13.788900    15.439900
H      -8.226600    12.421000    15.792600
H      -6.629100    12.459200    15.721400
C      -8.595600    14.146100    17.833500
H      -8.567400    14.358400    18.788700
H      -9.408100    13.633800    17.635900
H      -8.598100    14.976400    17.312900
C      -5.795500    15.374900    17.712900
H      -6.407200    16.070400    17.502500
C      -4.416600    15.543500    18.006600
H      -3.944900    16.367800    18.021100
C      -3.887900    14.307200    18.263800
C      -2.471200    13.894200    18.578000
H      -2.504400    13.041300    19.096900
C      -1.678400    13.640600    17.299500
H      -2.136200    12.961000    16.761600
H      -0.780600    13.323400    17.529200
H      -1.609700    14.473100    16.785300
C      -1.799100    14.944100    19.437100
H      -1.813100    15.806000    18.972400
H      -0.871400    14.680000    19.609600
H      -2.278100    15.025600    20.288200
C      -4.966700    11.446900    19.605400
H      -5.132500    12.028200    20.338600
N      -5.080700    11.076000    24.138100
C      -4.787800    12.397100    24.573200
C      -5.786000    13.388400    24.564900
H      -6.659800    13.176500    24.259300
C      -5.499400    14.675000    25.002900
N      -6.512800    15.688800    24.940300
C      -7.109800    16.148100    23.765000
C      -6.648300    15.712900    22.395600
H      -6.564200    14.715400    22.398200
C      -5.281100    16.305400    22.053300
H      -5.340600    17.282700    22.051500
H      -5.002900    15.993400    21.165400
H      -4.624400    16.018400    22.721300
C      -7.672500    16.103700    21.323400
H      -8.529400    15.668800    21.515100
H      -7.350200    15.818000    20.442300
H      -7.793600    17.076600    21.325500
C      -8.036900    17.074100    24.134000
H      -8.607900    17.554400    23.545100
C      -8.008700    17.202400    25.546400
H      -8.552400    17.785700    26.064100
C      -7.065400    16.341000    26.037400
C      -6.669000    16.021900    27.454300
H      -5.669900    15.998600    27.492500
C      -7.144100    17.115600    28.415400
H      -6.786500    17.981200    28.129700
H      -6.827900    16.914600    29.321000
H      -8.123600    17.149500    28.411200
C      -7.179500    14.656900    27.901200
H      -8.160400    14.660700    27.904500
H      -6.850700    14.464400    28.802400
H      -6.858700    13.969400    27.282100
C      -4.234600    14.986700    25.494200
H      -4.039500    15.869600    25.785500
C      -3.255000    13.993700    25.555300
N      -1.990400    14.335300    26.143200
C      -0.801800    14.546800    25.457800
C      -0.675500    14.369000    23.964200
H      -1.285600    13.630900    23.675500
C      -1.075300    15.648400    23.242800
H      -1.991300    15.890500    23.491800
H      -1.025800    15.507000    22.273800
H      -0.465300    16.371900    23.497700
C       0.761700    13.987100    23.605300
H       1.370200    14.698300    23.894800
H       0.835100    13.867300    22.635300
H       0.999700    13.150500    24.057800
C       0.113500    15.017200    26.361400
H       1.014900    15.251700    26.173800
C      -0.520200    15.093700    27.622600
H      -0.115600    15.388400    28.429000
C      -1.809200    14.675700    27.486300
C      -2.891300    14.543800    28.528900
H      -3.699200    14.147000    28.091200
C      -2.450000    13.603600    29.669500
H      -2.231300    12.722000    29.300300
H      -3.177400    13.515400    30.319700
H      -1.659100    13.977100    30.112300
C      -3.278800    15.911400    29.105300
H      -2.502300    16.311600    29.549200
H      -4.003900    15.799100    29.753700
H      -3.578400    16.498300    28.381600
C      -3.520600    12.717100    25.077900
H      -2.837400    12.056900    25.092100
