67
Refcode: ZABVOQ_comp_0 | Dataset: tmCAT | Charge: unknown | Potential Spins: [1, 3, 5]
Co     -1.525200    12.021500    -2.836000
P      -3.292000    10.798500    -2.662800
N       0.166500    12.932100    -2.635200
N      -1.064100    11.371200    -1.150100
C       0.858900    13.650800    -3.544600
H       0.534400    13.670300    -4.437700
C       1.999200    14.353600    -3.259800
H       2.447000    14.845400    -3.937700
C       2.487100    14.333200    -1.958000
H       3.257900    14.836200    -1.724300
C       1.844100    13.578300    -1.026200
H       2.171600    13.543900    -0.134700
C       0.711400    12.859600    -1.378700
C       0.002700    11.959700    -0.507200
C       0.315300    11.678900     0.816800
H       1.029400    12.133500     1.246000
C      -0.411000    10.744500     1.496800
H      -0.215500    10.549300     2.405400
C      -1.444700    10.082600     0.838200
H      -1.935200     9.404800     1.289400
C      -1.756900    10.404300    -0.455500
C      -2.801600     9.709800    -1.260600
H      -3.590200     9.513600    -0.693400
H      -2.446700     8.852600    -1.606700
C      -4.858600    11.636100    -2.047800
C      -4.487800    12.259000    -0.699600
H      -4.299500    11.547800    -0.051100
H      -5.233600    12.805700    -0.376100
H      -3.692300    12.822400    -0.808000
C      -5.241600    12.766600    -2.990500
H      -4.483100    13.380200    -3.088000
H      -6.010400    13.251000    -2.623600
H      -5.475700    12.395700    -3.866500
C      -6.047500    10.693400    -1.832700
H      -6.360200    10.357800    -2.699500
H      -6.774500    11.179600    -1.390000
H      -5.770700     9.939400    -1.270800
C      -3.688300     9.571300    -4.031100
C      -2.350300     9.239400    -4.671400
H      -1.926500    10.064000    -4.990300
H      -2.490200     8.631300    -5.426800
H      -1.768900     8.808900    -4.008900
C      -4.588100    10.185800    -5.100200
H      -5.471300    10.370800    -4.716300
H      -4.682400     9.559200    -5.847800
H      -4.189900    11.020700    -5.422100
C      -4.348600     8.276200    -3.541500
H      -3.767500     7.842000    -2.882100
H      -4.488100     7.672800    -4.301500
H      -5.212000     8.486300    -3.126700
C      -1.989800    12.919100    -4.538200
H      -1.293400    12.702500    -5.207000
H      -2.845800    12.545400    -4.866500
C      -2.127100    14.448500    -4.454400
H      -2.909500    14.671600    -3.889800
H      -1.320900    14.820300    -4.015100
C      -2.293400    15.092700    -5.798000
C      -1.238700    15.710100    -6.451500
H      -0.381400    15.726800    -6.042800
C      -1.413200    16.302300    -7.686600
H      -0.675800    16.720700    -8.118500
C      -2.636700    16.289300    -8.291900
H      -2.751400    16.703000    -9.140100
C      -3.698600    15.676600    -7.674300
H      -4.551000    15.665400    -8.093700
C      -3.524700    15.077900    -6.445300
H      -4.262100    14.644600    -6.032000
