122
Refcode: ZAWHUD_comp_0 | Dataset: tmCAT | Charge: 1 | Potential Spins: [1, 3, 5]
Pt      1.438500    -4.111500    -3.770200
P       0.278600    -4.831700    -1.982700
P       3.298900    -3.501800    -2.469300
O       6.074500     0.933200   -11.589700
N       2.381200    -3.733600    -5.623600
N       5.640800    -5.221000    -5.356800
C      -0.195000    -3.835800    -5.004400
C      -1.544600    -4.110800    -4.833200
H      -1.818600    -4.677200    -4.120100
C      -2.497200    -3.575100    -5.682900
H      -3.415300    -3.784100    -5.557700
C      -2.113500    -2.728800    -6.725300
H      -2.773200    -2.346000    -7.291700
C      -0.775500    -2.445900    -6.934400
H      -0.509000    -1.872900    -7.644200
C       0.177800    -3.016000    -6.088000
C       1.616100    -2.916200    -6.392600
C       2.189100    -2.183300    -7.426800
H       1.645200    -1.616600    -7.962000
C       3.555900    -2.273600    -7.683700
C       4.268400    -3.265600    -7.000300
H       5.177900    -3.430400    -7.220900
C       3.658600    -4.007500    -6.007300
C       4.309400    -5.250500    -5.500100
C       3.552700    -6.418800    -5.398000
H       2.610300    -6.401300    -5.518200
C       4.213800    -7.615000    -5.114800
H       3.730900    -8.430300    -5.044000
C       5.588000    -7.589900    -4.936900
H       6.067100    -8.383900    -4.734400
C       6.245500    -6.373700    -5.063700
H       7.185800    -6.360900    -4.933600
C       4.226700    -1.424200    -8.701400
C       5.550000    -1.037600    -8.526800
H       6.008500    -1.313600    -7.741300
C       6.227100    -0.256400    -9.468700
H       7.132200    -0.001900    -9.330400
C       5.543500     0.139700   -10.609900
C       4.216700    -0.240900   -10.802600
H       3.754700     0.043000   -11.583100
C       3.568300    -1.026000    -9.872200
H       2.670500    -1.298300   -10.025300
C       7.398800     1.458500   -11.383900
H       7.647000     2.022700   -12.144700
H       8.034900     0.717500   -11.304800
H       7.413900     1.991200   -10.562200
C      -0.623400    -6.336500    -2.506300
C       0.040700    -7.221900    -3.359300
H       0.940100    -7.048400    -3.609600
C      -0.602300    -8.347700    -3.841800
H      -0.140200    -8.957800    -4.405000
C      -1.931900    -8.582500    -3.496000
H      -2.386600    -9.339300    -3.846800
C      -2.590900    -7.717500    -2.643000
H      -3.493500    -7.885400    -2.399300
C      -1.928400    -6.593200    -2.142400
H      -2.378500    -6.004400    -1.547900
C      -0.979900    -3.798000    -1.190600
C      -1.497700    -2.660700    -1.821300
H      -1.172000    -2.396800    -2.672700
C      -2.492800    -1.920600    -1.192200
H      -2.842600    -1.145900    -1.615400
C      -2.977700    -2.302000     0.042800
H      -3.668400    -1.795700     0.454500
C      -2.464200    -3.414800     0.683400
H      -2.784700    -3.665300     1.541300
C      -1.475800    -4.158400     0.057600
H      -1.129400    -4.930400     0.490700
C       1.321400    -5.395300    -0.584600
C       1.501300    -6.788400    -0.367200
H       0.983600    -7.413500    -0.859600
C       2.403000    -7.228600     0.536800
H       2.521100    -8.163100     0.650500
C       3.172600    -6.342200     1.315700
C       4.170000    -6.799400     2.200000
H       4.318900    -7.733200     2.292300
C       4.926800    -5.926200     2.927900
H       5.607600    -6.254000     3.504300
C       4.697900    -4.537900     2.824200
H       5.201100    -3.932600     3.356000
C       3.752800    -4.066000     1.964600
H       3.622500    -3.127600     1.888800
C       2.955300    -4.943100     1.174100
C       2.031200    -4.481100     0.184400
C       1.973200    -3.005700    -0.037900
C       1.316700    -2.172300     0.915600
C       0.553700    -2.714400     1.974400
H       0.503700    -3.656600     2.081500
C      -0.118400    -1.897200     2.852100
H      -0.644500    -2.276800     3.545400
C      -0.027800    -0.512200     2.725300
H      -0.495000     0.046400     3.334600
C       0.721500     0.053100     1.735700
H       0.793700     0.999400     1.681300
C       1.393800    -0.756400     0.787100
C       2.167700    -0.213300    -0.252000
H       2.267800     0.730000    -0.314500
C       2.785700    -1.023900    -1.185700
H       3.288800    -0.632400    -1.888800
C       2.673200    -2.435100    -1.101700
C       4.342700    -2.365100    -3.425200
C       3.696200    -1.355100    -4.162900
H       2.748400    -1.300300    -4.151400
C       4.427800    -0.436900    -4.908900
H       3.985300     0.241000    -5.404600
C       5.818200    -0.525100    -4.920400
H       6.327000     0.102600    -5.421100
C       6.459800    -1.517000    -4.212400
H       7.408100    -1.572200    -4.238700
C       5.739600    -2.438100    -3.458100
H       6.193300    -3.112500    -2.965800
C       4.398300    -4.761700    -1.753800
C       4.173100    -6.079300    -2.109500
H       3.467800    -6.285500    -2.712200
C       4.957500    -7.108400    -1.602300
H       4.807000    -8.004900    -1.875600
C       5.957700    -6.810800    -0.698200
H       6.489000    -7.507600    -0.331000
C       6.186000    -5.491900    -0.324400
H       6.882100    -5.289100     0.289800
C       5.409100    -4.474300    -0.841500
H       5.564800    -3.576900    -0.573100
