75
Refcode: ZEJQIR_comp_0 | Dataset: tmCAT | Charge: -2 | Potential Spins: [1, 3, 5]
Pd      6.355500    11.233100    14.118900
I       4.119500    10.200300    13.174300
O       6.000800    15.493900    14.167600
C       6.205500    14.241300    14.639000
N       5.842800    13.266500    13.872100
C       5.213900    13.882700    12.649100
C       5.711300    15.333800    12.760700
H       6.524500    15.472300    12.213000
H       5.013800    15.972200    12.467800
C       3.695900    13.841200    12.781800
H       3.421100    14.374300    13.557700
H       3.404500    12.914800    12.902000
H       3.287400    14.209500    11.970400
C       5.715400    13.207000    11.366600
H       5.358600    12.295900    11.316500
H       6.695800    13.173800    11.376300
H       5.413700    13.719300    10.587000
S       8.256100    11.899600    15.222600
C       7.723700    13.172400    16.317900
C       6.823400    14.195600    15.967000
C       6.527600    15.241100    16.862300
H       5.924300    15.927900    16.607400
C       7.119300    15.266000    18.118700
H       6.916600    15.966600    18.729000
C       8.013100    14.259300    18.479400
H       8.421400    14.278700    19.337200
C       8.311100    13.223600    17.594200
H       8.920300    12.545100    17.857200
N       7.480800     8.670200    13.087800
C       7.075300     9.380200    14.180800
N       7.390800     8.589800    15.238100
C       7.990600     7.410800    14.805300
H       8.299400     6.701800    15.357600
C       8.055100     7.460900    13.459900
H       8.420400     6.801500    12.880900
C       7.374900     9.075800    11.704600
C       8.228100    10.069300    11.225100
C       8.115400    10.426600     9.876000
H       8.677800    11.112000     9.534100
C       7.212100     9.815900     9.027400
C       6.397700     8.799600     9.534800
H       5.777300     8.371700     8.955800
C       6.473500     8.392500    10.875000
C       9.266100    10.717300    12.085900
H       9.498400    10.117800    12.824700
H       8.913900    11.557800    12.445000
H      10.066500    10.900100    11.550300
C       7.131200    10.217500     7.571200
H       7.783500     9.699600     7.053900
H       7.329800    11.172900     7.484600
H       6.229300    10.037500     7.231500
C       5.638400     7.250100    11.369600
H       6.206100     6.460900    11.494000
H       4.938600     7.049400    10.713600
H       5.224800     7.493800    12.223500
C       7.147000     8.829300    16.641500
C       8.249100     9.058500    17.476400
C       8.013900     9.176200    18.848500
H       8.743400     9.356200    19.428600
C       6.734700     9.035000    19.391900
C       5.678100     8.796800    18.529700
H       4.803800     8.712300    18.890700
C       5.849200     8.676200    17.143100
C       9.664000     9.136100    16.956800
H      10.045800     8.234600    16.916700
H      10.201900     9.692700    17.556600
H       9.661100     9.529300    16.059000
C       6.518000     9.058500    20.884600
H       6.541900     8.141900    21.232100
H       5.647600     9.460100    21.082700
H       7.226300     9.586100    21.309400
C       4.662400     8.344000    16.282900
H       4.964100     7.873200    15.478900
H       4.204200     9.170700    16.025600
H       4.045300     7.770800    16.784900
