106
Refcode: ZEJQOW_comp_0 | Dataset: tmCAT | Charge: unknown | Potential Spins: [1, 3, 5]
Zr      2.171600     1.495300     4.147100
O       0.403300     2.341500     4.412600
C       3.925700     3.237700     4.492700
C       4.649700     2.125600     3.974500
C       4.199500     1.895400     2.654700
C       3.210300     2.863400     2.343600
C       3.050400     3.705500     3.477900
C       4.105900     3.890400     5.831800
C       5.823600     1.456200     4.620300
C       4.791600     0.914800     1.682100
C       2.516200     3.018100     1.014600
C       2.194200     4.931400     3.564600
C      -0.522700     3.262500     4.769700
C      -1.215300     4.009300     3.785900
C      -2.053300     5.051300     4.215400
C      -2.209200     5.305800     5.575000
C      -1.607700     4.510400     6.547000
C      -0.765000     3.464200     6.144600
C       2.660700     0.504500     6.113600
C       3.881500    -0.080400     6.718800
C       4.575500     0.555900     7.751200
C       5.731400     0.002600     8.298000
C       6.217600    -1.208800     7.847400
C       5.534600    -1.853900     6.827000
C       4.399100    -1.306400     6.271400
C       1.699400    -0.161300     2.657700
C       0.966900    -1.113500     3.522900
C      -0.336500    -0.847900     3.959000
C      -0.985900    -1.665500     4.866800
C      -0.359200    -2.768400     5.380000
C       0.920800    -3.067000     4.961300
C       1.571100    -2.268700     4.044700
C      -1.067900     3.692900     2.336500
C      -1.220800     2.384900     1.879900
C      -1.136600     2.069800     0.533200
C      -0.911400     3.071200    -0.399300
C      -0.764700     4.380400     0.032500
C      -0.839000     4.691900     1.382200
C      -2.847000     5.905400     3.278300
C      -3.828300     5.371900     2.450800
C      -4.582500     6.202300     1.626400
C      -4.355900     7.555100     1.613000
C      -3.383900     8.096300     2.434300
C      -2.638400     7.282600     3.267300
C      -1.914500     4.794100     7.982400
C      -1.754300     6.080900     8.484000
C      -2.052200     6.374700     9.812600
C      -2.504600     5.382000    10.655400
C      -2.680300     4.097600    10.164800
C      -2.390500     3.801300     8.842200
C      -0.158700     2.549200     7.152500
C       0.740900     3.010600     8.113500
C       1.203600     2.159600     9.110000
C       0.783000     0.845400     9.159300
C      -0.096800     0.374500     8.200400
C      -0.561000     1.215500     7.201000
H      -2.741300     6.043700     5.848800
H       4.252100     1.384100     8.087600
H       6.191300     0.464700     8.989600
H       7.000600    -1.590300     8.227600
H       5.855200    -2.688200     6.505400
H       3.956000    -1.768900     5.569000
H      -0.788800    -0.083100     3.620800
H      -1.874000    -1.459800     5.136300
H      -0.799500    -3.320900     6.014600
H       1.360400    -3.833700     5.308500
H       2.447100    -2.504900     3.760700
H       4.696700     3.339600     6.387000
H       3.234900     3.980300     6.270800
H       4.503600     4.777700     5.711100
H       5.818600     0.501900     4.397900
H       5.766700     1.564000     5.592700
H       6.653200     1.864800     4.294600
H       5.570600     1.317800     1.246400
H       4.122400     0.680500     1.005300
H       5.068400     0.106200     2.161300
H       1.611500     3.366400     1.158100
H       2.464500     2.146100     0.570500
H       3.021200     3.641700     0.452100
H       2.734200     5.721800     3.356000
H       1.831000     5.012700     4.471100
H       1.457600     4.861700     2.923300
H      -1.387200     1.691300     2.507900
H      -1.232500     1.169200     0.249700
H      -0.858600     2.862800    -1.323900
H      -0.611900     5.071200    -0.602800
H      -0.733300     5.593500     1.661900
H      -3.984900     4.434900     2.447600
H      -5.257200     5.829700     1.069900
H      -4.864500     8.117800     1.041900
H      -3.228500     9.033400     2.426100
H      -1.980200     7.665100     3.836100
H      -1.436800     6.769300     7.911100
H      -1.943400     7.260800    10.139200
H      -2.694900     5.576400    11.566400
H      -3.002400     3.413300    10.739800
H      -2.516400     2.917400     8.518200
H       1.038600     3.911900     8.087600
H       1.813900     2.484900     9.762400
H       1.095600     0.268500     9.846400
H      -0.383900    -0.531000     8.227600
H      -1.159000     0.879800     6.544200
H       2.367700     1.169500     6.785300
H       2.000700    -0.231100     6.169600
H       1.132700     0.166500     1.915900
H       2.523800    -0.564900     2.288300
