134
Refcode: ZEVPUN_comp_0 | Dataset: tmCAT | Charge: unknown | Potential Spins: [1, 3, 5]
Ni     39.116400     1.884100     0.218900
P      37.323100     0.656300    -0.394600
P      40.812600     3.334600     0.545100
C      38.396900     3.220900    -0.844600
N      37.938000     4.098700    -1.445900
B      37.158100     5.222900    -2.293500
C      39.804200     0.600000     1.475600
C      40.735900    -0.357200     1.183900
C      41.275600    -1.217600     2.129600
C      40.887300    -1.168600     3.441200
H      41.260700    -1.747600     4.097000
C      39.931300    -0.235800     3.761500
C      39.424700     0.621100     2.810200
F      41.172600    -0.489100    -0.105600
F      42.185600    -2.145700     1.730700
F      39.472100    -0.166900     5.036900
F      38.476700     1.510600     3.226900
C      37.333400     0.555700    -2.226800
H      37.161100     1.484900    -2.552800
C      36.296100    -0.337400    -2.932200
H      35.437700     0.141300    -3.037000
H      36.139100    -1.167400    -2.415500
C      36.918100    -0.665400    -4.322000
H      36.964300    -1.644900    -4.459300
H      36.372000    -0.269700    -5.046500
C      38.328000    -0.060700    -4.325800
H      38.971600    -0.673600    -4.760500
H      38.339000     0.806700    -4.802500
C      38.671600     0.127200    -2.850200
H      39.358600     0.828900    -2.730100
H      38.998700    -0.716800    -2.447900
C      35.780900     1.577200     0.003800
H      35.791600     2.396700    -0.570000
C      35.697100     2.078000     1.466100
H      36.003900     1.381000     2.099000
H      36.243700     2.894000     1.593800
C      34.214500     2.376800     1.649100
H      33.976300     2.434000     2.608100
H      33.957300     3.222000     1.201100
C      33.553600     1.176700     0.985700
H      32.620700     1.388000     0.728300
H      33.545000     0.398100     1.597600
C      34.408900     0.880200    -0.259300
H      33.981300     1.248000    -1.073400
H      34.531500    -0.095700    -0.377500
C      37.034500    -1.062300     0.186800
H      36.194800    -1.370500    -0.259300
C      38.122300    -2.075600    -0.202100
H      37.963100    -2.434000    -1.109600
H      39.018500    -1.657700    -0.173500
C      38.001200    -3.175300     0.846500
H      37.370600    -3.873400     0.537600
H      38.883900    -3.595600     1.004700
C      37.506800    -2.550800     2.080000
H      38.262200    -2.374500     2.695800
H      36.869000    -3.157800     2.533700
C      36.806900    -1.232800     1.713900
H      37.204000    -0.475100     2.213400
H      35.841000    -1.279500     1.921700
C      41.398500     3.934100    -1.090500
H      40.642500     4.467600    -1.468000
C      41.688700     2.832100    -2.131500
H      42.170300     2.076800    -1.712000
H      40.844800     2.492400    -2.522300
C      42.551200     3.494000    -3.202900
H      43.390700     2.985000    -3.332500
H      42.066200     3.527900    -4.064600
C      42.856100     4.905400    -2.707200
H      42.245300     5.563800    -3.126600
H      43.792200     5.156400    -2.916900
C      42.635300     4.847000    -1.187700
H      42.452000     5.744800    -0.814100
H      43.413000     4.451300    -0.722600
C      40.071200     4.806200     1.361200
H      39.405100     5.165700     0.709200
C      40.980100     6.012100     1.734900
H      41.926200     5.727300     1.815000
H      40.917900     6.721900     1.046700
C      40.444700     6.519900     3.092300
H      41.057000     6.263100     3.826300
H      40.352600     7.505200     3.084700
C      39.072900     5.852200     3.275400
H      38.841700     5.768100     4.234300
H      38.362100     6.363500     2.814000
C      39.270400     4.485200     2.636700
H      38.402700     4.064900     2.415500
H      39.778700     3.881600     3.233400
C      42.376800     3.024700     1.460400
H      42.911100     3.860600     1.340300
C      42.331400     2.815800     2.926500
H      41.661100     2.127000     3.170500
H      42.116300     3.657500     3.401200
C      43.765800     2.341800     3.254400
H      44.404700     3.098300     3.244800
H      43.803300     1.894700     4.137100
C      44.054700     1.365900     2.131500
H      43.743600     0.457600     2.373600
H      45.027200     1.329700     1.944600
C      43.295600     1.883000     0.915100
H      42.751700     1.161600     0.509000
H      43.924200     2.234400     0.234500
C      36.420700     4.342700    -3.446900
C      35.081900     3.970300    -3.363000
H      34.555000     4.305400    -2.650000
C      34.501900     3.124000    -4.295300
H      33.585900     2.882300    -4.205700
C      35.238500     2.630200    -5.351500
H      34.840700     2.048800    -5.988300
C      36.552700     2.990900    -5.467800
H      37.069400     2.672200    -6.199900
C      37.138800     3.820900    -4.524100
H      38.060400     4.039200    -4.611800
C      38.242100     6.286400    -2.842600
C      38.148100     6.897000    -4.104700
H      37.456600     6.621500    -4.695700
C      39.027800     7.890500    -4.516500
H      38.920700     8.285000    -5.374400
C      40.055700     8.309600    -3.698600
H      40.666400     8.977300    -3.988400
C      40.179100     7.738700    -2.449800
H      40.875700     8.018900    -1.866500
C      39.289100     6.756900    -2.043800
H      39.395400     6.383300    -1.176300
C      36.148300     5.953700    -1.252600
C      35.461200     7.107100    -1.670100
H      35.610300     7.430500    -2.550900
C      34.573400     7.794700    -0.848400
H      34.129300     8.571100    -1.168700
C      34.342700     7.339400     0.442300
H      33.732700     7.794700     1.008500
C      35.012500     6.212900     0.898000
H      34.874200     5.903500     1.786400
C      35.884200     5.539300     0.051500
H      36.318900     4.759500     0.375600
