51
Refcode: ZEXVOP_comp_0 | Dataset: tmCAT | Charge: unknown | Potential Spins: [1, 3, 5]
Ir      1.354800     4.051400     5.032500
O       1.696100     0.759400     4.652700
O       0.617800     4.051400     2.959900
N       2.778300     2.719900     4.179600
C      -0.610000     4.051400     6.021800
C       0.107900     5.222000     6.428300
C       1.331900     4.757900     7.046300
C      -1.920000     4.051400     5.284800
C      -0.461900     6.610200     6.460100
C       2.371400     5.668600     7.671000
C       2.690000     1.352000     4.156700
C       3.764800     0.610100     3.543100
C       4.820500     1.221400     2.947300
C       4.890900     2.641800     2.928800
C       3.835600     3.340600     3.557200
C       5.930900     3.362600     2.286400
H      -2.639400     4.051400     5.916800
H      -1.948200     4.796800     4.679300
H      -1.156600     6.688000     5.800700
H      -0.825100     6.799800     7.329500
H       0.238000     7.237300     6.262000
H       2.205700     5.759400     8.612000
H       2.339600     6.534000     7.254800
H       3.240600     5.281300     7.534200
H       3.723700    -0.320900     3.540900
H       5.504400     0.716300     2.568100
H       6.615200     2.900800     1.856900
H       0.229200     3.289700     2.809100
O       1.696100     7.343300     4.652700
N       2.778300     5.382800     4.179600
C       2.690000     6.750700     4.156700
C       3.764800     7.492600     3.543100
C       4.820500     6.881300     2.947300
C       4.890900     5.460900     2.928800
C       3.835600     4.762100     3.557200
C       5.930900     4.740100     2.286400
H       3.723700     8.423600     3.540900
H       5.504400     7.386400     2.568100
H       6.615200     5.201900     1.856900
H       0.229200     4.813000     2.809100
C       0.107900     2.880700     6.428300
C       1.331900     3.344800     7.046300
C      -0.461900     1.492500     6.460100
C       2.371400     2.434100     7.671000
H      -1.948200     3.305900     4.679300
H      -1.156600     1.414700     5.800700
H      -0.825100     1.302900     7.329500
H       0.238000     0.865400     6.262000
H       2.205700     2.343300     8.612000
H       2.339600     1.568700     7.254800
H       3.240600     2.821400     7.534200
