34
Refcode: ZIHFAZ_comp_0 | Dataset: tmCAT | Charge: 0 | Potential Spins: [1, 3, 5]
Ti      7.825200     8.990100     3.316800
Cl      8.080800    10.697200     4.857500
Cl      6.621300    10.270100     1.873100
Cl      7.943200     7.203600     1.838500
O       6.536700     8.298900     4.351300
N       9.066300     7.764800     4.598700
N      10.376600     7.450800     4.423900
N      10.803100     6.765000     5.431100
N       9.767600     6.608600     6.271900
H       9.796100     6.173300     7.036600
C       6.314400     7.858900     5.615500
C       5.043900     7.962900     6.166100
H       4.347200     8.383900     5.677300
C       4.793200     7.454100     7.421900
H       3.924000     7.526700     7.797700
C       5.816300     6.833300     8.146100
H       5.640000     6.478200     9.009500
C       7.069300     6.737000     7.609800
H       7.754000     6.298200     8.102100
C       7.368000     7.276600     6.338500
C       8.685100     7.215500     5.767700
O       9.670100     9.654600     2.597200
C      10.089000     9.498600     1.190400
H       9.403100     9.861900     0.576800
H      10.241800     8.545400     0.972800
C      11.366700    10.281400     1.084600
H      11.186800    11.222300     0.834800
H      11.974000     9.880200     0.412700
C      11.953600    10.192100     2.464100
H      12.601100    10.923300     2.627000
H      12.402900     9.322100     2.607900
C      10.739300    10.332500     3.336900
H      10.887800     9.902600     4.217000
H      10.518500    11.287000     3.480800
