56
Refcode: ZIHZOH_comp_0 | Dataset: tmCAT | Charge: 1 | Potential Spins: [1, 3, 5]
Ir      3.265100     2.153300    13.404100
Br      1.127500    -0.363400    11.853400
Cl      4.277200     1.498600    11.352900
N       1.509400     2.374800    12.238600
N       2.158600     4.548300    12.414600
H       2.038300     5.413500    12.310300
C       4.153600     2.300400    15.389000
C       4.858300     1.323600    14.610400
C       3.959400     0.201300    14.397000
C       2.732100     0.514100    14.987200
C       2.806400     1.882500    15.510500
C       4.786600     3.465300    16.083600
H       5.063100     3.197400    16.985200
H       4.141300     4.199300    16.144300
H       5.572000     3.760700    15.575900
C       6.318400     1.338900    14.266200
H       6.613000     2.264300    14.135400
H       6.463900     0.830200    13.440900
H       6.830900     0.932000    14.995000
C       4.322500    -1.080700    13.710300
H       3.506000    -1.571900    13.481400
H       4.875600    -1.626600    14.308300
H       4.825900    -0.882700    12.891100
C       1.541700    -0.378500    15.163200
H       1.658200    -1.186800    14.622800
H       0.733700     0.095200    14.875100
H       1.456300    -0.625700    16.108500
C       1.721800     2.532300    16.309400
H       1.731100     2.174600    17.221900
H       0.854500     2.347400    15.893600
H       1.873200     3.500400    16.335800
C       0.688700     1.461400    11.654700
C      -0.400400     1.780800    10.896300
H      -0.954200     1.101500    10.530300
C      -0.683800     3.130600    10.672000
H      -1.444500     3.385500    10.164400
C       0.145700     4.075700    11.193700
H      -0.015700     5.000000    11.044200
C       1.211000     3.664400    11.935000
C       3.253200     4.108500    13.034400
C       4.254600     5.201300    13.282000
H       4.746700     4.990200    14.113600
H       3.761900     6.046900    13.434600
C       5.292400     5.433200    12.140500
C       6.419600     4.395100    12.248000
H       6.043100     3.493800    12.163900
H       6.862900     4.483700    13.117000
H       7.071000     4.545000    11.531600
C       5.880400     6.832200    12.402200
H       6.661600     6.971200    11.826000
H       6.149200     6.903400    13.341200
H       5.204700     7.513700    12.202800
C       4.675200     5.381800    10.749900
H       5.324900     5.707800    10.092700
H       3.874700     5.947300    10.726500
H       4.430100     4.457500    10.536500
