85
Refcode: ZOSKIE_comp_0 | Dataset: tmCAT | Charge: unknown | Potential Spins: [1, 3, 5]
Br      1.005900     6.113700    12.616200
Ni      2.848200     6.781200    11.453700
N       4.730800     6.488400    12.022900
N       5.674700     6.830500    11.093000
N       3.173300     6.054500     9.624600
N       4.327500     6.462900     9.023500
N       3.267900     8.614200    10.817700
N       4.410000     8.728900    10.071100
B       5.248400     7.465000     9.760000
H       6.113700     7.699500     9.074600
C       3.637100     7.875500    14.677000
H       4.329500     8.161500    14.044900
H       3.664400     8.448700    15.471800
H       2.757100     7.948400    14.252200
C       3.885000     6.439100    15.082100
C       3.309000     5.978200    16.257900
H       2.719900     6.549400    16.736400
C       3.566400     4.705900    16.756900
C       2.980900     4.241200    18.068200
H       2.090300     4.632000    18.185300
H       3.562200     4.525500    18.804300
H       2.911200     3.263400    18.066400
C       4.402700     3.877100    16.020400
H       4.579400     3.000700    16.342100
C       4.989800     4.285000    14.830600
C       5.907000     3.322600    14.105300
H       5.695400     3.328200    13.148200
H       5.780200     2.418500    14.462100
H       6.838300     3.597500    14.235600
C       4.718200     5.583200    14.341100
C       5.389900     6.035000    13.102900
C       6.761600     6.068700    12.850400
H       7.458700     5.794800    13.435200
C       6.897700     6.580900    11.581200
H       7.718700     6.731300    11.127500
C       2.473800     3.094100    10.764400
H       2.346700     2.172300    11.073000
H       2.660100     3.672800    11.532600
H       3.228500     3.127400    10.139600
C       1.221600     3.568600    10.067000
C      -0.001100     2.979800    10.377500
H      -0.027100     2.273700    11.012200
C      -1.184200     3.396900     9.780900
C      -2.517500     2.786900    10.144300
H      -2.936300     2.414100     9.340300
H      -3.099900     3.476800    10.525600
H      -2.382600     2.073400    10.802600
C      -1.123200     4.423800     8.840200
H      -1.926600     4.718600     8.426800
C       0.071900     5.026200     8.490600
C       0.076900     6.099000     7.433400
H       0.298300     5.701700     6.565500
H       0.745400     6.779100     7.661100
H      -0.808900     6.515500     7.385800
C       1.257200     4.594900     9.124300
C       2.553300     5.229700     8.770400
C       3.316800     5.095300     7.606800
H       3.115400     4.572600     6.839400
C       4.429000     5.888200     7.816800
H       5.147600     6.005900     7.206500
C       0.257400     8.853900     9.743400
H      -0.655200     8.806800     9.388400
H       0.591800     7.946700     9.904800
H       0.837000     9.305300     9.095300
C       0.253200     9.627200    11.040200
C      -0.956800     9.892800    11.666800
H      -1.761500     9.581600    11.268100
C      -1.025300    10.604000    12.868800
C      -2.353900    10.870400    13.524000
H      -2.414400    11.818100    13.766800
H      -2.436600    10.320900    14.331500
H      -3.076900    10.646200    12.901400
C       0.160400    11.055200    13.420400
H       0.132800    11.547700    14.232400
C       1.398200    10.809600    12.818800
C       2.663400    11.350500    13.458300
H       3.297400    10.616800    13.600100
H       2.443200    11.763200    14.319500
H       3.066600    12.021200    12.868300
C       1.443100    10.082900    11.623200
C       2.737700     9.847100    10.934500
C       3.563900    10.758400    10.272200
H       3.438500    11.697400    10.201700
C       4.596400    10.018400     9.742200
H       5.319300    10.361000     9.230000
