117
Refcode: ZOSKOK_comp_0 | Dataset: tmCAT | Charge: unknown | Potential Spins: [1, 3, 5]
Ni      3.633300    14.369700    13.047400
C       3.626800    10.899100    11.021600
H       3.751300    10.583100    10.102500
H       3.924500    10.207300    11.648400
H       4.152100    11.714600    11.160900
H       5.328700    13.033700    16.652100
O       3.947200    16.095200    12.013500
N       3.334400    12.528500    13.923300
B       4.903300    13.387100    15.708200
N       4.000900    12.301300    15.102600
C       2.168300    11.195500    11.257100
O       3.929500    14.232000    10.856900
N       3.340000    15.198300    14.901600
C       1.296000    11.272900    10.172700
H       1.634500    11.153000     9.293000
O       4.195400    14.501000     8.067000
N       4.075400    14.673700    15.925300
C      -0.054900    11.522100    10.354700
O       1.960100    14.666400     7.886400
N       6.010800    13.699700    14.700700
C      -0.545900    11.639600    11.648700
H      -1.476800    11.770800    11.782600
N       5.717100    14.186500    13.454500
C      -0.971700    11.652700     9.168100
H      -0.442300    11.647000     8.343600
H      -1.469600    12.494700     9.230800
H      -1.601300    10.901400     9.157200
N       1.611600    14.572000    12.446400
C       0.296200    11.569500    12.752100
C       1.664200    11.382800    12.541900
C      -0.271400    11.717300    14.143500
H      -1.236300    11.878100    14.087400
H       0.160300    12.473400    14.593600
H      -0.105800    10.896400    14.652700
C       2.581700    11.438100    13.708500
C       2.774700    10.509500    14.737700
H       2.370000     9.655000    14.829000
C       3.673100    11.098700    15.582500
H       4.011200    10.714400    16.382800
C      -0.099400    15.624800    15.452300
H      -1.065900    15.526900    15.325100
H       0.089700    15.803100    16.397200
H       0.351600    14.798400    15.179400
C       0.401500    16.766400    14.618400
C      -0.484800    17.527600    13.862200
H      -1.412600    17.327100    13.899700
C      -0.053000    18.571000    13.055100
C       1.295500    18.861400    13.035100
H       1.605800    19.567100    12.479600
C      -1.040700    19.397400    12.258500
H      -0.578400    20.162400    11.857200
H      -1.751000    19.720000    12.852300
H      -1.433500    18.844800    11.550700
C       2.216500    18.154300    13.802100
C       3.650200    18.593300    13.855300
H       4.233900    17.807300    13.816800
H       3.811600    19.080000    14.690400
H       3.840400    19.179500    13.093400
C       1.760100    17.082500    14.575600
C       2.722100    16.280000    15.390400
C       3.073000    16.465500    16.726700
H       2.782500    17.158000    17.308500
C       3.929100    15.432400    17.021800
H       4.347100    15.280700    17.861400
C       7.117200    17.268600    12.672700
H       7.434700    18.175900    12.481300
H       7.637300    16.890100    13.412300
H       6.170100    17.299400    12.921400
C       7.287000    16.409200    11.449200
C       7.600600    16.979600    10.225000
H       7.745900    17.917100    10.176300
C       7.706600    16.216700     9.063900
C       8.055700    16.862600     7.750700
H       7.815600    16.259500     7.016300
H       9.017700    17.045800     7.721800
H       7.559900    17.703000     7.658300
C       7.482000    14.850500     9.153300
H       7.533900    14.320300     8.366800
C       7.181400    14.238700    10.362900
C       6.913000    12.756500    10.417300
H       5.952600    12.603200    10.541700
H       7.406100    12.362000    11.166300
H       7.203700    12.340600     9.579000
C       7.089200    15.023600    11.519600
C       6.899900    14.404400    12.857400
C       7.941300    14.047000    13.721000
H       8.873100    14.090500    13.543900
C       7.339800    13.622800    14.870500
H       7.785100    13.324700    15.654900
C       4.004400    15.482600    10.904700
C       4.160700    16.342600     9.677200
C       4.240300    17.717300     9.857600
H       4.173000    18.069900    10.737100
C       4.414100    18.585400     8.804400
H       4.454300    19.522200     8.957100
C       4.531000    18.080800     7.520000
H       4.657700    18.671900     6.787200
C       4.462000    16.724500     7.305000
H       4.557900    16.376100     6.426500
C       4.252300    15.866300     8.374400
C       2.963500    14.019400     7.761300
C       3.037900    12.643700     7.209700
C       4.123900    11.816900     7.424500
H       4.866200    12.125100     7.931700
C       4.126000    10.534200     6.895400
H       4.861700     9.954700     7.055400
C       3.058600    10.101800     6.136800
H       3.066700     9.226500     5.767500
C       1.982100    10.927400     5.911100
H       1.254000    10.623900     5.382300
C       1.960200    12.201500     6.454000
H       1.212300    12.769200     6.310000
C       0.770300    14.843000    11.749900
C      -0.295400    15.222000    10.816400
H       0.057800    15.229800     9.902400
H      -0.628700    16.114800    11.045500
H      -1.028900    14.574400    10.877400
