76
Refcode: ZOWSAI_comp_0 | Dataset: tmCAT | Charge: unknown | Potential Spins: [1, 3, 5]
Ag      7.434900     2.758500     8.268300
Br      7.629400     4.893900     9.418400
N       7.304100    -0.302000     8.000100
N       7.223400     0.575300     6.056200
N       5.045200     2.774000     5.628900
N       1.999400     4.451300     6.349600
C       7.305800     0.889900     7.367300
C       7.236800    -1.356400     7.097900
H       7.233300    -2.284300     7.302700
C       7.177700    -0.796400     5.874700
H       7.116100    -1.254900     5.044700
C       7.034500     1.558700     4.990000
H       7.404400     1.211300     4.139500
H       7.507400     2.398300     5.215900
C       5.551500     1.822900     4.839900
C       4.768600     1.041800     4.005300
H       5.162000     0.376200     3.452900
C       3.404300     1.253100     3.992000
H       2.841700     0.719300     3.443300
C       2.863200     2.249000     4.786900
H       1.928400     2.417900     4.785500
C       3.722600     2.998700     5.590600
C       3.201500     4.052200     6.516500
C       4.144400     4.531300     7.579300
H       3.687300     5.182700     8.152200
H       4.922300     4.955100     7.160300
H       4.439400     3.770400     8.121800
C       1.437200     5.382600     7.251000
C       1.531000     6.765900     7.006700
C       0.909300     7.635200     7.897200
H       0.960000     8.569900     7.734300
C       0.216600     7.189300     9.017400
C       0.127900     5.807700     9.214700
H      -0.344600     5.484200     9.973300
C       0.700800     4.896300     8.350600
C       0.568100     3.404100     8.542000
H       0.113800     3.013300     7.767100
H       0.045700     3.223900     9.352100
H       1.459100     3.005600     8.633800
C       2.312000     7.289100     5.832000
H       3.261400     7.077000     5.951300
H       2.199500     8.260800     5.772300
H       1.984300     6.870600     5.009300
C      -0.407100     8.165500     9.983000
H       0.291300     8.558500    10.546900
H      -1.057200     7.696700    10.547100
H      -0.860700     8.875100     9.482200
C       7.444400    -0.410800     9.444700
C       6.283100    -0.618400    10.203800
C       6.440900    -0.616600    11.593400
H       5.681800    -0.734100    12.152300
C       7.694800    -0.445800    12.166000
H       7.781800    -0.439300    13.111500
C       8.814700    -0.285800    11.378500
H       9.668100    -0.188800    11.783900
C       8.701600    -0.265200     9.984500
C       9.964400    -0.144700     9.127800
H       9.675600    -0.119900     8.170200
C      10.714000     1.147000     9.410400
H      10.115600     1.910200     9.267700
H      11.483000     1.217900     8.807400
H      11.026300     1.146800    10.339500
C      10.857300    -1.380700     9.305900
H      11.182500    -1.418000    10.229700
H      11.619900    -1.324300     8.693200
H      10.339300    -2.189200     9.109300
C       4.924100    -0.845000     9.548800
H       5.072300    -1.398200     8.728800
C       3.942300    -1.597300    10.440800
H       4.367800    -2.412400    10.779800
H       3.146300    -1.836400     9.921100
H       3.681900    -1.027000    11.193500
C       4.279900     0.477300     9.105700
H       4.082600     1.024500     9.894600
H       3.448500     0.289700     8.622200
H       4.897600     0.960900     8.518700
