62
Refcode: ZUDNET_comp_0 | Dataset: tmCAT | Charge: 0 | Potential Spins: [1, 3, 5]
Ni      3.331900     6.490200     9.807100
F       7.025100     9.075700     8.790900
O       4.871300     4.400000     6.895900
O       3.170200     7.973900    10.903400
O       3.065700     8.548400    13.063900
N       3.853900     7.561400     8.287900
N       3.531900     5.026800     8.696600
N       2.875200     5.485600    11.271400
C       4.676900     8.758700     8.626600
H       4.783300     9.351300     7.841700
H       4.269800     9.273900     9.366100
C       5.983500     8.172100     9.036800
H       5.961300     7.935700    10.007400
C       6.162400     6.909400     8.198400
H       6.411000     6.140700     8.769200
H       6.865500     7.039200     7.513600
C       4.791100     6.675900     7.534800
H       4.823000     6.946600     6.573800
C       4.377100     5.232100     7.654900
C       2.844300     3.814400     8.852500
C       2.675000     2.935000     7.782700
H       3.093800     3.132200     6.953700
C       1.917800     1.786000     7.897400
H       1.807500     1.215500     7.146100
C       1.322000     1.464000     9.097700
H       0.806600     0.670100     9.181100
C       1.481600     2.306100    10.173200
H       1.071600     2.079800    10.999100
C       2.230200     3.488400    10.087900
C       2.385900     4.288300    11.301200
C       3.154700     6.229200    12.520500
H       2.472900     6.008800    13.219100
C       3.104400     7.715300    12.178600
C       4.558000     5.873000    13.013100
H       4.575400     4.937300    13.303000
H       4.795900     6.451600    13.766700
H       5.202100     6.002800    12.286700
C       1.968100     3.672500    12.602200
C       0.759200     4.007600    13.187500
H       0.197300     4.658600    12.782500
C       0.369400     3.389800    14.370800
H      -0.460300     3.616200    14.773100
C       1.188600     2.445000    14.964800
H       0.918800     2.025400    15.774600
C       2.387800     2.114000    14.386800
H       2.957400     1.479100    14.805200
C       2.770800     2.704600    13.191200
H       3.584100     2.445000    12.775100
C       2.657600     8.017200     7.481000
H       2.250500     8.804000     7.923100
H       2.963200     8.300900     6.583600
C       1.611200     6.942600     7.328600
C       1.590900     6.100400     6.214100
H       2.198200     6.242300     5.498300
C       0.677900     5.052000     6.158600
H       0.665400     4.477500     5.402100
C      -0.214700     4.840700     7.198100
H      -0.827800     4.115200     7.163300
C      -0.206000     5.692900     8.287400
H      -0.817200     5.555100     9.001000
C       0.687600     6.741300     8.340900
H       0.669200     7.335000     9.082400
