50
Refcode: ZUFBOT_comp_0 | Dataset: tmCAT;tmPHOTO | Charge: unknown | Potential Spins: [1, 3, 5]
C       0.766000     3.735200    10.934200
C       0.725400     2.015000    12.367200
H       0.782400     1.529100    13.157300
C       0.506000     1.507200    11.127300
H       0.351800     0.619000    10.900500
C       0.378600     2.461900     8.828700
C      -0.640900     3.139900     8.208800
H      -1.209800     3.696200     8.692300
C      -0.801900     2.974400     6.852800
H      -1.485900     3.419500     6.407100
C       0.046700     2.151000     6.155900
H      -0.087800     2.018800     5.245600
C       1.063900     1.533800     6.770400
H       1.645000     1.005100     6.272000
C       1.267800     1.666000     8.142600
H       1.973800     1.237100     8.573400
C       1.177200     4.287700    13.346300
H       0.662400     4.040400    14.129700
H       0.931800     5.193900    13.100500
C       2.653700     4.243900    13.685300
H       2.892400     3.336700    13.932500
H       3.166600     4.478800    12.893900
C       3.033900     5.168200    14.800900
H       2.567700     4.889600    15.604500
H       2.729100     6.062100    14.579400
C       6.541900     5.932700    15.897600
C       6.726700     4.577700    15.238500
C       7.217000     7.141300    15.499100
H       6.942700     7.864000    16.070400
H       6.987900     7.351500    14.590200
H       8.165100     7.019600    15.572100
C       6.801800     5.762500    17.402100
H       6.348900     4.973300    17.716800
H       6.472300     6.528000    17.874800
H       7.746100     5.669300    17.556100
C       7.531900     4.802100    13.866300
H       7.137600     5.529500    13.381400
H       7.483700     4.001400    13.335500
H       8.449600     5.002700    14.062100
C       7.350700     3.476500    15.946200
H       7.377700     2.704400    15.374900
H       6.844800     3.274000    16.734900
H       8.246900     3.720900    16.193300
N       0.846100     3.382400    12.242900
N       0.566700     2.591200    10.277800
O       5.192500     6.238900    15.538300
O       5.353700     4.274300    14.942700
Cl      1.001600     7.750700     9.399800
Au      0.878400     5.587000    10.222900
B       4.573000     5.231000    15.115600
