91
Refcode: ZUTQEK_comp_0 | Dataset: tmCAT | Charge: 0 | Potential Spins: [1, 3, 5]
Zn      1.575600     4.201000     2.671400
N       3.590100     4.025800     3.435000
C       4.114400     4.955200     4.237000
C       5.411400     4.878500     4.711900
C       6.191900     3.821600     4.357400
C       5.670600     2.857300     3.533600
C       4.375800     2.999800     3.092900
N       0.582800     3.180600     4.165800
N       1.039700     5.940300     3.636200
N       2.025800     5.264600     0.958000
N       1.547800     2.494700     1.483500
C       0.382900     1.812600     4.182300
C      -0.135200     1.407200     5.463200
C      -0.559400     0.015700     5.832700
C      -2.035800    -0.235600     5.565900
C      -0.222500     2.516700     6.233700
C      -0.777300     2.498500     7.643300
C       0.233800     3.652400     5.416700
C       0.242600     5.017700     5.767000
C       0.074500     5.352500     7.256000
O      -1.290100     5.539300     7.587200
C      -1.361900     5.885200     8.994100
C       0.521600     6.097800     4.909000
C       0.335800     7.541200     5.181300
C      -0.586200     8.216700     6.217300
C       0.276700     8.869200     7.216300
C       0.824600     8.187100     4.091900
C       0.853700     9.664800     3.863400
C       1.256800     7.207500     3.140800
C       1.789900     7.503900     1.891300
C       2.161700     6.627800     0.878600
C       2.728500     7.006200    -0.399600
C       3.062700     8.417400    -0.814300
C       4.421700     8.841600    -0.268200
C       2.945500     5.860400    -1.083900
C       3.560100     5.699000    -2.445600
C       2.488200     4.767900    -0.238100
C       2.498800     3.427200    -0.565200
C       2.049100     2.363500     0.210800
C       2.042000     0.967200    -0.182000
C       2.476000     0.467800    -1.536900
C       3.968800     0.304300    -1.701100
C       1.556800     0.257900     0.862200
C       1.368500    -1.218500     0.971700
C       1.233100     1.221000     1.905000
C       0.693500     0.933400     3.138100
H       3.566600     5.703600     4.486100
H       5.750400     5.564700     5.292200
H       7.094100     3.758700     4.676300
H       6.201100     2.101000     3.269500
H       4.008900     2.326200     2.515400
H      -0.375800    -0.139300     6.762000
H      -0.041700    -0.610200     5.320900
H      -2.265500    -1.135800     5.806700
H      -2.556600     0.377400     6.088700
H      -2.219700    -0.097200     4.633900
H      -0.983100     1.595000     7.896500
H      -0.125700     2.859300     8.248200
H      -1.575900     3.029500     7.678900
H       0.561800     6.155200     7.461300
H       0.437000     4.639700     7.785600
H      -2.283300     6.012000     9.233600
H      -0.989900     5.175000     9.523700
H      -0.874700     6.695000     9.156900
H      -1.115100     7.560700     6.678500
H      -1.176300     8.842900     5.793000
H      -0.247700     9.307500     7.889700
H       0.861100     8.229900     7.631000
H       0.799000     9.520200     6.741400
H       0.519000    10.114200     4.643500
H       1.755900     9.948000     3.695100
H       0.304100     9.881700     3.108000
H       1.916300     8.436700     1.703800
H       2.384900     9.015500    -0.491300
H       3.073100     8.470800    -1.773600
H       4.612000     9.739100    -0.548800
H       4.406800     8.800900     0.689700
H       5.100900     8.250700    -0.603500
H       3.783200     6.564500    -2.797300
H       4.354800     5.163900    -2.382600
H       2.930200     5.269900    -3.030000
H       2.862800     3.204200    -1.424700
H       2.161500     1.082000    -2.204700
H       2.054100    -0.379500    -1.697000
H       4.165200    -0.017000    -2.583800
H       4.398500     1.151600    -1.565600
H       4.290400    -0.325600    -1.052400
H       1.654000    -1.630700     0.153300
H       1.893200    -1.556900     1.701100
H       0.441600    -1.417500     1.124900
H       0.508100     0.006400     3.307800
