44
Refcode: ZUYDII_comp_0 | Dataset: tmCAT | Charge: -2 | Potential Spins: [1, 3, 5]
Cu      3.648600     8.801300    12.706100
Cl      5.572100     8.944900    11.822600
N       0.730500     8.621700    12.832000
O       4.761100    10.840300     7.704400
O       4.353200     8.730600     7.898400
N       1.086700    10.769900    10.969300
N       1.578900     8.879000    14.770700
N       4.147500     9.890000     8.188600
C      -0.329000     8.724800    13.708000
H      -1.233600     8.691100    13.494500
C       3.087100    10.195500     9.175000
C       1.804600    11.737500    10.396400
H       1.596100    12.618400    10.609000
C       2.842300    11.513000     9.502500
H       3.343600    12.209700     9.144200
C       1.385800     9.503500    10.656100
C       2.972900    10.398900    16.053700
C       2.369200     9.161400     9.731600
H       2.533300     8.275700     9.500000
C       1.917000     8.725800    13.462300
C       2.536900     9.085300    15.823100
C       0.590900     8.446300    11.377300
H      -0.343500     8.513800    11.127900
H       0.910000     7.566400    11.121600
C       0.201200     8.884800    14.932700
H      -0.264700     8.980200    15.731400
C       2.991900     8.000100    16.563400
C       2.370100    11.547700    15.296000
H       2.546900    11.439700    14.358700
H       2.757100    12.370700    15.601700
H       1.422100    11.565000    15.442700
C       3.978000     8.240100    17.521300
H       4.306100     7.527900    18.022700
C       3.953500    10.577200    17.034000
H       4.259000    11.437800    17.212900
C       2.410900     6.622900    16.363800
H       1.518200     6.597800    16.717000
H       2.953800     5.977200    16.821600
H       2.390100     6.417600    15.425900
C       4.482900     9.518000    17.745200
C       5.610400     9.744500    18.729100
H       5.585000     9.065000    19.407900
H       5.511600    10.608000    19.135900
H       6.451500     9.703000    18.267500
